rigid_bilayers/data_WS2_WS2_P_3 (written by ASE) 

222 	 atoms 
2  atom types
0.0      19.409499926378302  xlo xhi
0.0      16.809120010995802  ylo yhi
0.0                      30  zlo zhi
     9.7047499631891476                       0                       0  xy xz yz


Atoms 

     1   1     0.78687161863695776      1.6657686497383231                       0
     2   1      3.6720675536391383     0.30286702722515024                       0
     3   1      3.4097770140934851      3.4829708130892207                       0
     4   1      6.2949729490956647      2.1200691905760478                       0
     5   1      9.1801688840978457     0.75716756806287522                       0
     6   1      3.1474864745478324      6.6630745989532922                       0
     7   1      6.0326824095500129      5.3001729764401189                       0
     8   1       8.917878344552193      3.9372713539269455                       0
     9   1      11.803074279554371      2.5743697314137726                       0
    10   1      14.688270214556551      1.2114681089006007                       0
    11   1      5.7703918700043584      8.4802767623041877                       0
    12   1      8.6555878050065385      7.1173751397910161                       0
    13   1      11.540783740008719      5.7544735172778436                       0
    14   1      14.425979675010899      4.3915718947646702                       0
    15   1      17.311175610013077      3.0286702722514973                       0
    16   1      5.5081013304587048      11.660380548168259                       0
    17   1      8.3932972654608839      10.297478925655087                       0
    18   1      11.278493200463066      8.9345773031419142                       0
    19   1      14.163689135465244        7.57167568062874                       0
    20   1      17.048885070467428      6.2087740581155693                       0
    21   1      19.934081005469608      4.8458724356023959                       0
    22   1       8.131006725915233      13.477582711519158                       0
    23   1      11.016202660917415      12.114681089005986                       0
    24   1      13.901398595919595      10.751779466492813                       0
    25   1      16.786594530921775       9.388877843979639                       0
    26   1      19.671790465923955      8.0259762214664683                       0
    27   1      7.8687161863695776      16.657686497383228                       0
    28   1      10.753912121371759      15.294784874870055                       0
    29   1       13.63910805637394      13.931883252356883                       0
    30   1      16.524303991376119       12.56898162984371                       0
    31   1      19.409499926378299      11.206080007330536                       0
    32   1      22.294695861380482      9.8431783848173637                       0
    33   1       16.26201345183047      15.749085415707782                       0
    34   1       19.14720938683265      14.386183793194608                       0
    35   1      22.032405321834826      13.023282170681435                       0
    36   1      21.770114782289177      16.203385956545507                       0
    37   1      24.655310717291353      14.840484334032332                       0
    38   1      2.8851959350021805       1.362901622513172                     6.5
    39   1      3.1474864745478341      4.5430054083772422                     6.5
    40   1       5.770391870004361      2.7258032450263441                     6.5
    41   1      8.3932972654608875     0.90860108167544551                     6.5
    42   1      6.0326824095500138      5.9059070308904138                     6.5
    43   1      8.6555878050065402      4.0887048675395157                     6.5
    44   1      11.278493200463068      2.2715027041886175                     6.5
    45   1      13.901398595919593      0.4543005408377197                     6.5
    46   1      6.2949729490956683      9.0860108167544844                     6.5
    47   1      8.9178783445521965      7.2688086534035863                     6.5
    48   1      11.540783740008722      5.4516064900526882                     6.5
    49   1      14.163689135465249        3.63440432670179                     6.5
    50   1      16.786594530921775       1.817202163350891                     6.5
    51   1      9.1801688840978493      10.448912439267657                     6.5
    52   1      11.803074279554377      8.6317102759167579                     6.5
    53   1      14.425979675010904      6.8145081125658606                     6.5
    54   1      17.048885070467431      4.9973059492149625                     6.5
    55   1      19.671790465923959      3.1801037858640644                     6.5
    56   1       9.442459423643502      13.629016225131727                     6.5
    57   1      12.065364819100028      11.811814061780828                     6.5
    58   1      14.688270214556557      9.9946118984299286                     6.5
    59   1       17.31117561001308      8.1774097350790313                     6.5
    60   1      19.934081005469608      6.3602075717281323                     6.5
    61   1      9.7047499631891601      16.809120010995798                     6.5
    62   1      12.327655358645684      14.991917847644899                     6.5
    63   1      14.950560754102211         13.174715684294                     6.5
    64   1      17.573466149558737      11.357513520943103                     6.5
    65   1      20.196371545015264      9.5403113575922038                     6.5
    66   1      22.819276940471791      7.7231091942413066                     6.5
    67   1      15.212851293647862       16.35481947015807                     6.5
    68   1      17.835756689104393      14.537617306807173                     6.5
    69   1      20.458662084560917      12.720415143456274                     6.5
    70   1      23.081567480017444      10.903212980105376                     6.5
    71   1      20.720952624106573      15.900518929320345                     6.5
    72   1      23.343858019563097      14.083316765969448                     6.5
    73   1      25.966763415019624      12.266114602618549                     6.5
    74   1      26.229053954565281       15.44621838848262                     6.5
    75   2      2.6229053954565273      1.8172021633508981            1.5785248507
    76   2      2.6229053954565273      1.8172021633508981           -1.5785248507
    77   2      5.5081013304587074     0.45430054083772492            1.5785248507
    78   2      5.5081013304587074     0.45430054083772492           -1.5785248507
    79   2      5.2458107909130538      3.6344043267017958            1.5785248507
    80   2      5.2458107909130538      3.6344043267017958           -1.5785248507
    81   2      8.1310067259152348      2.2715027041886229            1.5785248507
    82   2      8.1310067259152348      2.2715027041886229           -1.5785248507
    83   2      11.016202660917415     0.90860108167544984            1.5785248507
    84   2      11.016202660917415     0.90860108167544984           -1.5785248507
    85   2       4.983520251367402      6.8145081125658669            1.5785248507
    86   2       4.983520251367402      6.8145081125658669           -1.5785248507
    87   2      7.8687161863695811      5.4516064900526935            1.5785248507
    88   2      7.8687161863695811      5.4516064900526935           -1.5785248507
    89   2      10.753912121371762       4.088704867539521            1.5785248507
    90   2      10.753912121371762       4.088704867539521           -1.5785248507
    91   2       13.63910805637394      2.7258032450263481            1.5785248507
    92   2       13.63910805637394      2.7258032450263481           -1.5785248507
    93   2      16.524303991376122      1.3629016225131756            1.5785248507
    94   2      16.524303991376122      1.3629016225131756           -1.5785248507
    95   2      7.6064256468239275      8.6317102759167632            1.5785248507
    96   2      7.6064256468239275      8.6317102759167632           -1.5785248507
    97   2      10.491621581826108      7.2688086534035916            1.5785248507
    98   2      10.491621581826108      7.2688086534035916           -1.5785248507
    99   2      13.376817516828288      5.9059070308904182            1.5785248507
   100   2      13.376817516828288      5.9059070308904182           -1.5785248507
   101   2      16.262013451830466       4.543005408377244            1.5785248507
   102   2      16.262013451830466       4.543005408377244           -1.5785248507
   103   2      19.147209386832646      3.1801037858640728            1.5785248507
   104   2      19.147209386832646      3.1801037858640728           -1.5785248507
   105   2      7.3441351072782739      11.811814061780835            1.5785248507
   106   2      7.3441351072782739      11.811814061780835           -1.5785248507
   107   2      10.229331042280455      10.448912439267662            1.5785248507
   108   2      10.229331042280455      10.448912439267662           -1.5785248507
   109   2      13.114526977282633       9.086010816754488            1.5785248507
   110   2      13.114526977282633       9.086010816754488           -1.5785248507
   111   2      15.999722912284813      7.7231091942413155            1.5785248507
   112   2      15.999722912284813      7.7231091942413155           -1.5785248507
   113   2      18.884918847286997       6.360207571728143            1.5785248507
   114   2      18.884918847286997       6.360207571728143           -1.5785248507
   115   2      21.770114782289173      4.9973059492149714            1.5785248507
   116   2      21.770114782289173      4.9973059492149714           -1.5785248507
   117   2      9.9670405027348039      13.629016225131734            1.5785248507
   118   2      9.9670405027348039      13.629016225131734           -1.5785248507
   119   2      12.852236437736984      12.266114602618561            1.5785248507
   120   2      12.852236437736984      12.266114602618561           -1.5785248507
   121   2      15.737432372739162      10.903212980105387            1.5785248507
   122   2      15.737432372739162      10.903212980105387           -1.5785248507
   123   2      18.622628307741341      9.5403113575922145            1.5785248507
   124   2      18.622628307741341      9.5403113575922145           -1.5785248507
   125   2      21.507824242743524       8.177409735079042            1.5785248507
   126   2      21.507824242743524       8.177409735079042           -1.5785248507
   127   2      9.7047499631891476      16.809120010995802            1.5785248507
   128   2      9.7047499631891476      16.809120010995802           -1.5785248507
   129   2      12.589945898191328      15.446218388482629            1.5785248507
   130   2      12.589945898191328      15.446218388482629           -1.5785248507
   131   2      15.475141833193508      14.083316765969458            1.5785248507
   132   2      15.475141833193508      14.083316765969458           -1.5785248507
   133   2      18.360337768195688      12.720415143456284            1.5785248507
   134   2      18.360337768195688      12.720415143456284           -1.5785248507
   135   2      21.245533703197868       11.35751352094311            1.5785248507
   136   2      21.245533703197868       11.35751352094311           -1.5785248507
   137   2      24.130729638200048      9.9946118984299392            1.5785248507
   138   2      24.130729638200048      9.9946118984299392           -1.5785248507
   139   2      18.098047228650039      15.900518929320356            1.5785248507
   140   2      18.098047228650039      15.900518929320356           -1.5785248507
   141   2      20.983243163652215      14.537617306807183            1.5785248507
   142   2      20.983243163652215      14.537617306807183           -1.5785248507
   143   2      23.868439098654395      13.174715684294009            1.5785248507
   144   2      23.868439098654395      13.174715684294009           -1.5785248507
   145   2      23.606148559108743       16.35481947015808            1.5785248507
   146   2      23.606148559108743       16.35481947015808           -1.5785248507
   147   2      26.491344494110923      14.991917847644908            1.5785248507
   148   2      26.491344494110923      14.991917847644908           -1.5785248507
   149   2      4.5794510417970713      1.4161079921608331      8.0785248506999991
   150   2      4.5794510417970713      1.4161079921608331            4.9214751493
   151   2      4.8417415813427267      4.5962117780249034      8.0785248506999991
   152   2      4.8417415813427267      4.5962117780249034            4.9214751493
   153   2      7.4646469767992532      2.7790096146740058      8.0785248506999991
   154   2      7.4646469767992532      2.7790096146740058            4.9214751493
   155   2       10.08755237225578     0.96180745132310774      8.0785248506999991
   156   2       10.08755237225578     0.96180745132310774            4.9214751493
   157   2      7.7269375163449068       5.959113400538075      8.0785248506999991
   158   2      7.7269375163449068       5.959113400538075            4.9214751493
   159   2      10.349842911801431      4.1419112371871778      8.0785248506999991
   160   2      10.349842911801431      4.1419112371871778            4.9214751493
   161   2      12.972748307257959      2.3247090738362788      8.0785248506999991
   162   2      12.972748307257959      2.3247090738362788            4.9214751493
   163   2      15.595653702714488     0.50750691048538021      8.0785248506999991
   164   2      15.595653702714488     0.50750691048538021            4.9214751493
   165   2      7.9892280558905595      9.1392171864021456      8.0785248506999991
   166   2      7.9892280558905595      9.1392171864021456            4.9214751493
   167   2      10.612133451347088      7.3220150230512484      8.0785248506999991
   168   2      10.612133451347088      7.3220150230512484            4.9214751493
   169   2      13.235038846803615      5.5048128597003494      8.0785248506999991
   170   2      13.235038846803615      5.5048128597003494            4.9214751493
   171   2      15.857944242260141      3.6876106963494522      8.0785248506999991
   172   2      15.857944242260141      3.6876106963494522            4.9214751493
   173   2       18.48084963771667      1.8704085329985534      8.0785248506999991
   174   2       18.48084963771667      1.8704085329985534            4.9214751493
   175   2      10.874423990892742      10.502118808915318      8.0785248506999991
   176   2      10.874423990892742      10.502118808915318            4.9214751493
   177   2      13.497329386349268      8.6849166455644191      8.0785248506999991
   178   2      13.497329386349268      8.6849166455644191            4.9214751493
   179   2      16.120234781805795      6.8677144822135219      8.0785248506999991
   180   2      16.120234781805795      6.8677144822135219            4.9214751493
   181   2      18.743140177262323      5.0505123188626238      8.0785248506999991
   182   2      18.743140177262323      5.0505123188626238            4.9214751493
   183   2       21.36604557271885      3.2333101555117247      8.0785248506999991
   184   2       21.36604557271885      3.2333101555117247            4.9214751493
   185   2      11.136714530438393      13.682222594779388      8.0785248506999991
   186   2      11.136714530438393      13.682222594779388            4.9214751493
   187   2      13.759619925894921      11.865020431428491      8.0785248506999991
   188   2      13.759619925894921      11.865020431428491            4.9214751493
   189   2      16.382525321351448      10.047818268077592      8.0785248506999991
   190   2      16.382525321351448      10.047818268077592            4.9214751493
   191   2      19.005430716807972      8.2306161047266926      8.0785248506999991
   192   2      19.005430716807972      8.2306161047266926            4.9214751493
   193   2      21.628336112264503      6.4134139413757936      8.0785248506999991
   194   2      21.628336112264503      6.4134139413757936            4.9214751493
   195   2      11.399005069984051      16.862326380643459      8.0785248506999991
   196   2      11.399005069984051      16.862326380643459            4.9214751493
   197   2      14.021910465440573       15.04512421729256      8.0785248506999991
   198   2      14.021910465440573       15.04512421729256            4.9214751493
   199   2      16.644815860897101      13.227922053941661      8.0785248506999991
   200   2      16.644815860897101      13.227922053941661            4.9214751493
   201   2      19.267721256353628      11.410719890590764      8.0785248506999991
   202   2      19.267721256353628      11.410719890590764            4.9214751493
   203   2      21.890626651810155      9.5935177272398651      8.0785248506999991
   204   2      21.890626651810155      9.5935177272398651            4.9214751493
   205   2      24.513532047266683      7.7763155638889678      8.0785248506999991
   206   2      24.513532047266683      7.7763155638889678            4.9214751493
   207   2      16.907106400442757      16.408025839805735      8.0785248506999991
   208   2      16.907106400442757      16.408025839805735            4.9214751493
   209   2      19.530011795899284      14.590823676454834      8.0785248506999991
   210   2      19.530011795899284      14.590823676454834            4.9214751493
   211   2      22.152917191355808      12.773621513103935      8.0785248506999991
   212   2      22.152917191355808      12.773621513103935            4.9214751493
   213   2      24.775822586812335      10.956419349753038      8.0785248506999991
   214   2      24.775822586812335      10.956419349753038            4.9214751493
   215   2      22.415207730901464      15.953725298968006      8.0785248506999991
   216   2      22.415207730901464      15.953725298968006            4.9214751493
   217   2      25.038113126357992      14.136523135617109      8.0785248506999991
   218   2      25.038113126357992      14.136523135617109            4.9214751493
   219   2      27.661018521814519      12.319320972266208      8.0785248506999991
   220   2      27.661018521814519      12.319320972266208            4.9214751493
   221   2      27.923309061360172      15.499424758130282      8.0785248506999991
   222   2      27.923309061360172      15.499424758130282            4.9214751493
