rigid_bilayers/data_WS2_WS2_P_6 (written by ASE) 

762 	 atoms 
2  atom types
0.0      35.959640777297437  xlo xhi
0.0      31.141962424102374  ylo yhi
0.0                      30  zlo zhi
     17.979820388648719                       0                       0  xy xz yz


Atoms 

     1   1     0.84944033332198654       1.634748683679915                       0
     2   1      3.6809081110619424     0.16347486836799163                       0
     3   1       3.539334722174944      3.3512348015438258                       0
     4   1         6.3708024999149       1.879960986231902                       0
     5   1      9.2022702776548559     0.40868717091997886                       0
     6   1       3.397761333287947        6.53899473471966                       0
     7   1      6.2292291110279026      5.0677209194077362                       0
     8   1      9.0606968887678576      3.5964471040958128                       0
     9   1      11.892164666507812      2.1251732887838894                       0
    10   1      14.723632444247768     0.65389947347196642                       0
    11   1      6.0876557221409024      8.2554808525835686                       0
    12   1      8.9191234998808593      6.7842070372716465                       0
    13   1      11.750591277620815      5.3129332219597236                       0
    14   1      14.582059055360769      3.8416594066477998                       0
    15   1      17.413526833100725       2.370385591335876                       0
    16   1      20.244994610840685     0.89911177602395498                       0
    17   1       5.946082333253905      11.443240785759404                       0
    18   1      8.7775501109938592      9.9719669704474789                       0
    19   1      11.609017888733817      8.5006931551355578                       0
    20   1      14.440485666473771      7.0294193398236331                       0
    21   1      17.271953444213732       5.558145524511712                       0
    22   1      20.103421221953685      4.0868717091997881                       0
    23   1      22.934888999693637      2.6155978938878635                       0
    24   1      25.766356777433597      1.1443240785759419                       0
    25   1      8.6359767221068644      13.159726903623316                       0
    26   1       11.46744449984682      11.688453088311391                       0
    27   1      14.298912277586778       10.21717927299947                       0
    28   1      17.130380055326729      8.7459054576875452                       0
    29   1      19.961847833066688      7.2746316423756223                       0
    30   1      22.793315610806644      5.8033578270637003                       0
    31   1      25.624783388546597      4.3320840117517756                       0
    32   1      28.456251166286552      2.8608101964398505                       0
    33   1      31.287718944026508        1.38953638112793                       0
    34   1      8.4944033332198643      16.347486836799149                       0
    35   1       11.32587111095982      14.876213021487224                       0
    36   1      14.157338888699776      13.404939206175301                       0
    37   1      16.988806666439732      11.933665390863379                       0
    38   1      19.820274444179685      10.462391575551456                       0
    39   1      22.651742221919644      8.9911177602395327                       0
    40   1        25.4832099996596      7.5198439449276089                       0
    41   1      28.314677777399552      6.0485701296156842                       0
    42   1      31.146145555139508      4.5772963143037613                       0
    43   1      33.977613332879464      3.1060224989918388                       0
    44   1      11.184297722072824      18.063972954663061                       0
    45   1      14.015765499812778      16.592699139351136                       0
    46   1      16.847233277552736      15.121425324039214                       0
    47   1      19.678701055292692      13.650151508727291                       0
    48   1      22.510168833032644      12.178877693415366                       0
    49   1      25.341636610772603      10.707603878103443                       0
    50   1      28.173104388512559      9.2363300627915201                       0
    51   1      31.004572166252512      7.7650562474795946                       0
    52   1      33.836039943992468      6.2937824321676734                       0
    53   1       36.66750772173242      4.8225086168557469                       0
    54   1      11.042724333185827      21.251732887838894                       0
    55   1      13.874192110925783      19.780459072526973                       0
    56   1      16.705659888665739      18.309185257215049                       0
    57   1      19.537127666405695      16.837911441903124                       0
    58   1      22.368595444145651      15.366637626591201                       0
    59   1      25.200063221885603      13.895363811279278                       0
    60   1      28.031530999625563      12.424089995967355                       0
    61   1      30.862998777365519      10.952816180655431                       0
    62   1      33.694466555105471      9.4815423653435076                       0
    63   1      36.525934332845424      8.0102685500315811                       0
    64   1      13.732618722038783      22.968219005702807                       0
    65   1      16.564086499778739      21.496945190390882                       0
    66   1      19.395554277518695      20.025671375078957                       0
    67   1      22.227022055258651      18.554397559767036                       0
    68   1      25.058489832998607      17.083123744455108                       0
    69   1      27.889957610738563      15.611849929143188                       0
    70   1      30.721425388478512       14.14057611383126                       0
    71   1      33.552893166218468      12.669302298519339                       0
    72   1      36.384360943958427      11.198028483207416                       0
    73   1      39.215828721698372      9.7267546678954897                       0
    74   1      13.591045333151785       26.15597893887864                       0
    75   1      16.422513110891739      24.684705123566715                       0
    76   1      19.253980888631695      23.213431308254791                       0
    77   1      22.085448666371651      21.742157492942866                       0
    78   1      24.916916444111603      20.270883677630941                       0
    79   1      27.748384221851559      18.799609862319016                       0
    80   1      30.579851999591515      17.328336047007095                       0
    81   1      33.411319777331471      15.857062231695169                       0
    82   1      36.242787555071423      14.385788416383248                       0
    83   1      39.074255332811383      12.914514601071328                       0
    84   1      16.280939722004746      27.872465056742552                       0
    85   1      19.112407499744702      26.401191241430627                       0
    86   1      21.943875277484658      24.929917426118703                       0
    87   1      24.775343055224614      23.458643610806778                       0
    88   1      27.606810832964563      21.987369795494853                       0
    89   1      30.438278610704522      20.516095980182929                       0
    90   1      33.269746388444474      19.044822164871007                       0
    91   1      36.101214166184427      17.573548349559083                       0
    92   1      38.932681943924386      16.102274534247162                       0
    93   1      41.764149721664346       14.63100071893524                       0
    94   1      16.139366333117746      31.060224989918378                       0
    95   1      18.970834110857702      29.588951174606461                       0
    96   1      21.802301888597651      28.117677359294532                       0
    97   1       24.63376966633761      26.646403543982611                       0
    98   1       27.46523744407757      25.175129728670687                       0
    99   1      30.296705221817515      23.703855913358762                       0
   100   1      33.128172999557471      22.232582098046841                       0
   101   1       35.95964077729743      20.761308282734916                       0
   102   1      38.791108555037383      19.290034467422991                       0
   103   1      41.622576332777342      17.818760652111074                       0
   104   1      24.492196277450606      29.834163477158441                       0
   105   1      27.323664055190562       28.36288966184652                       0
   106   1      30.155131832930522      26.891615846534599                       0
   107   1      32.986599610670474       25.42034203122267                       0
   108   1      35.818067388410427      23.949068215910749                       0
   109   1      38.649535166150386      22.477794400598828                       0
   110   1      41.481002943890338        21.0065205852869                       0
   111   1      44.312470721630298      19.535246769974982                       0
   112   1      30.013558444043525      30.079375779710432                       0
   113   1      32.845026221783485      28.608101964398511                       0
   114   1      35.676493999523437      27.136828149086586                       0
   115   1       38.50796177726339      25.665554333774661                       0
   116   1      41.339429555003349       24.19428051846274                       0
   117   1      44.170897332743301      22.723006703150812                       0
   118   1      35.534920610636441      30.324588082262419                       0
   119   1      38.366388388376393      28.853314266950495                       0
   120   1      41.197856166116345       27.38204045163857                       0
   121   1      44.029323943856305      25.910766636326649                       0
   122   1      46.860791721596257      24.439492821014724                       0
   123   1      41.056282777229349      30.569800384814403                       0
   124   1      43.887750554969301      29.098526569502482                       0
   125   1      46.719218332709261      27.627252754190557                       0
   126   1      46.577644943822264      30.815012687366394                       0
   127   1      49.409112721562224      29.343738872054473                       0
   128   1      2.8314677777399551      1.4712738153119234                     6.5
   129   1      2.9730411666269525       4.659033748487758                     6.5
   130   1      5.6629355554799101      2.9425476306238467                     6.5
   131   1      8.3528299443328677      1.2260615127599364                     6.5
   132   1      5.8045089443669085      6.1303075637996818                     6.5
   133   1      8.4944033332198661      4.4138214459357714                     6.5
   134   1      11.184297722072825      2.6973353280718602                     6.5
   135   1      13.874192110925783     0.98084921020794968                     6.5
   136   1       5.946082333253905       9.318067496975516                     6.5
   137   1      8.6359767221068644      7.6015813791116047                     6.5
   138   1       11.32587111095982      5.8850952612476934                     6.5
   139   1      14.015765499812778       4.168609143383784                     6.5
   140   1      16.705659888665735      2.4521230255198727                     6.5
   141   1      19.395554277518695     0.73563690765596379                     6.5
   142   1       8.777550110993861      10.789341312287439                     6.5
   143   1      11.467444499846817      9.0728551944235267                     6.5
   144   1      14.157338888699774      7.3563690765596164                     6.5
   145   1      16.847233277552736      5.6398829586957069                     6.5
   146   1      19.537127666405691      3.9233968408317965                     6.5
   147   1      22.227022055258651      2.2069107229678844                     6.5
   148   1      24.916916444111607     0.49042460510397529                     6.5
   149   1      8.9191234998808575      13.977101245463274                     6.5
   150   1      11.609017888733817      12.260615127599364                     6.5
   151   1      14.298912277586773      10.544129009735451                     6.5
   152   1      16.988806666439732      8.8276428918715428                     6.5
   153   1      19.678701055292692      7.1111567740076325                     6.5
   154   1      22.368595444145651      5.3946706561437203                     6.5
   155   1      25.058489832998607      3.6781845382798113                     6.5
   156   1      27.748384221851566      1.9616984204158994                     6.5
   157   1      30.438278610704522     0.24521230255199208                     6.5
   158   1      11.750591277620812      15.448375060775197                     6.5
   159   1      14.440485666473773      13.731888942911286                     6.5
   160   1      17.130380055326725      12.015402825047374                     6.5
   161   1      19.820274444179688      10.298916707183466                     6.5
   162   1      22.510168833032647      8.5824305893195536                     6.5
   163   1        25.2000632218856      6.8659444714556441                     6.5
   164   1      27.889957610738563      5.1494583535917338                     6.5
   165   1      30.579851999591519      3.4329722357278212                     6.5
   166   1      33.269746388444474      1.7164861178639126                     6.5
   167   1       11.89216466650781      18.636134993951032                     6.5
   168   1      14.582059055360768       16.91964887608712                     6.5
   169   1      17.271953444213729      15.203162758223209                     6.5
   170   1      19.961847833066681      13.486676640359299                     6.5
   171   1       22.65174222191964      11.770190522495387                     6.5
   172   1        25.3416366107726      10.053704404631478                     6.5
   173   1      28.031530999625556      8.3372182867675679                     6.5
   174   1      30.721425388478519      6.6207321689036558                     6.5
   175   1      33.411319777331471      4.9042460510397454                     6.5
   176   1      36.101214166184427      3.1877599331758342                     6.5
   177   1      14.723632444247766      20.107408809262953                     6.5
   178   1      17.413526833100722      18.390922691399041                     6.5
   179   1      20.103421221953681      16.674436573535132                     6.5
   180   1      22.793315610806637       14.95795045567122                     6.5
   181   1      25.483209999659596      13.241464337807312                     6.5
   182   1      28.173104388512556      11.524978219943399                     6.5
   183   1      30.862998777365512      9.8084921020794908                     6.5
   184   1      33.552893166218468      8.0920059842155805                     6.5
   185   1      36.242787555071423      6.3755198663516692                     6.5
   186   1      14.865205833134759      23.295168742438786                     6.5
   187   1      17.555100221987722      21.578682624574878                     6.5
   188   1      20.244994610840674      19.862196506710966                     6.5
   189   1      22.934888999693634      18.145710388847053                     6.5
   190   1      25.624783388546593      16.429224270983145                     6.5
   191   1      28.314677777399549      14.712738153119233                     6.5
   192   1      31.004572166252505      12.996252035255324                     6.5
   193   1      33.694466555105471      11.279765917391414                     6.5
   194   1      36.384360943958427      9.5632797995275016                     6.5
   195   1      39.074255332811383       7.846793681663593                     6.5
   196   1      17.696673610874715      24.766442557750707                     6.5
   197   1      20.386567999727674      23.049956439886799                     6.5
   198   1       23.07646238858063      21.333470322022887                     6.5
   199   1      25.766356777433586      19.616984204158975                     6.5
   200   1      28.456251166286549       17.90049808629507                     6.5
   201   1      31.146145555139505      16.184011968431157                     6.5
   202   1      33.836039943992461      14.467525850567247                     6.5
   203   1      36.525934332845424      12.751039732703338                     6.5
   204   1      39.215828721698379      11.034553614839425                     6.5
   205   1      17.838246999761715      27.954202490926548                     6.5
   206   1      20.528141388614674      26.237716373062636                     6.5
   207   1      23.218035777467634      24.521230255198727                     6.5
   208   1       25.90793016632059      22.804744137334815                     6.5
   209   1      28.597824555173545      21.088258019470903                     6.5
   210   1      31.287718944026508      19.371771901606998                     6.5
   211   1      33.977613332879464      17.655285783743086                     6.5
   212   1      36.667507721732427      15.938799665879172                     6.5
   213   1      39.357402110585383      14.222313548015265                     6.5
   214   1      42.047296499438339      12.505827430151353                     6.5
   215   1      17.979820388648715      31.141962424102381                     6.5
   216   1      20.669714777501671      29.425476306238469                     6.5
   217   1      23.359609166354634       27.70899018837456                     6.5
   218   1       26.04950355520759      25.992504070510652                     6.5
   219   1      28.739397944060542       24.27601795264674                     6.5
   220   1      31.429292332913501      22.559531834782824                     6.5
   221   1      34.119186721766461      20.843045716918919                     6.5
   222   1      36.809081110619424      19.126559599055007                     6.5
   223   1      39.498975499472373      17.410073481191095                     6.5
   224   1      42.188869888325335       15.69358736332719                     6.5
   225   1      23.501182555241623      30.896750121550394                     6.5
   226   1      26.191076944094586      29.180264003686485                     6.5
   227   1      28.880971332947546      27.463777885822573                     6.5
   228   1      31.570865721800498      25.747291767958664                     6.5
   229   1       34.26076011065345      24.030805650094749                     6.5
   230   1       36.95065449950642       22.31431953223084                     6.5
   231   1      39.640548888359376      20.597833414366931                     6.5
   232   1      42.330443277212325      18.881347296503019                     6.5
   233   1      45.020337666065295      17.164861178639107                     6.5
   234   1      29.022544721834542      30.651537818998406                     6.5
   235   1      31.712439110687498      28.935051701134494                     6.5
   236   1      34.402333499540454      27.218565583270586                     6.5
   237   1       37.09222788839341      25.502079465406673                     6.5
   238   1      39.782122277246373      23.785593347542765                     6.5
   239   1      42.472016666099329      22.069107229678856                     6.5
   240   1      45.161911054952284       20.35262111181494                     6.5
   241   1      34.543906888427458      30.406325516446419                     6.5
   242   1      37.233801277280406      28.689839398582507                     6.5
   243   1      39.923695666133362      26.973353280718598                     6.5
   244   1      42.613590054986325      25.256867162854686                     6.5
   245   1      45.303484443839281      23.540381044990774                     6.5
   246   1      47.993378832692237      21.823894927126865                     6.5
   247   1      40.065269055020359      30.161113213894431                     6.5
   248   1      42.755163443873322      28.444627096030519                     6.5
   249   1      45.445057832726285      26.728140978166611                     6.5
   250   1      48.134952221579233      25.011654860302698                     6.5
   251   1      45.586631221613274       29.91590091134244                     6.5
   252   1      48.276525610466237      28.199414793478535                     6.5
   253   1      50.966419999319193      26.482928675614623                     6.5
   254   1      51.107993388206197      29.670688608790456                     6.5
   255   2      2.6898943888529581      1.7164861178639108            1.5785248507
   256   2      2.6898943888529581      1.7164861178639108           -1.5785248507
   257   2      5.5213621665929136     0.24521230255198723            1.5785248507
   258   2      5.5213621665929136     0.24521230255198723           -1.5785248507
   259   2      5.3797887777059152      3.4329722357278212            1.5785248507
   260   2      5.3797887777059152      3.4329722357278212           -1.5785248507
   261   2      8.2112565554458712       1.961698420415898            1.5785248507
   262   2      8.2112565554458712       1.961698420415898           -1.5785248507
   263   2      11.042724333185827     0.49042460510397445            1.5785248507
   264   2      11.042724333185827     0.49042460510397445           -1.5785248507
   265   2      5.2382153888189178      6.6207321689036558            1.5785248507
   266   2      5.2382153888189178      6.6207321689036558           -1.5785248507
   267   2      8.0696831665588729       5.149458353591732            1.5785248507
   268   2      8.0696831665588729       5.149458353591732           -1.5785248507
   269   2      10.901150944298829      3.6781845382798095            1.5785248507
   270   2      10.901150944298829      3.6781845382798095           -1.5785248507
   271   2      13.732618722038785      2.2069107229678848            1.5785248507
   272   2      13.732618722038785      2.2069107229678848           -1.5785248507
   273   2      16.564086499778739      0.7356369076559629            1.5785248507
   274   2      16.564086499778739      0.7356369076559629           -1.5785248507
   275   2      7.9281097776718736      8.3372182867675662            1.5785248507
   276   2      7.9281097776718736      8.3372182867675662           -1.5785248507
   277   2       10.75957755541183      6.8659444714556424            1.5785248507
   278   2       10.75957755541183      6.8659444714556424           -1.5785248507
   279   2      13.591045333151786      5.3946706561437194            1.5785248507
   280   2      13.591045333151786      5.3946706561437194           -1.5785248507
   281   2      16.422513110891739      3.9233968408317943            1.5785248507
   282   2      16.422513110891739      3.9233968408317943           -1.5785248507
   283   2      19.253980888631695      2.4521230255198723            1.5785248507
   284   2      19.253980888631695      2.4521230255198723           -1.5785248507
   285   2      22.085448666371654     0.98084921020794891            1.5785248507
   286   2      22.085448666371654     0.98084921020794891           -1.5785248507
   287   2      7.7865363887848771      11.524978219943399            1.5785248507
   288   2      7.7865363887848771      11.524978219943399           -1.5785248507
   289   2      10.618004166524832      10.053704404631477            1.5785248507
   290   2      10.618004166524832      10.053704404631477           -1.5785248507
   291   2      13.449471944264786      8.5824305893195518            1.5785248507
   292   2      13.449471944264786      8.5824305893195518           -1.5785248507
   293   2      16.280939722004742      7.1111567740076289            1.5785248507
   294   2      16.280939722004742      7.1111567740076289           -1.5785248507
   295   2      19.112407499744698      5.6398829586957069            1.5785248507
   296   2      19.112407499744698      5.6398829586957069           -1.5785248507
   297   2      21.943875277484654      4.1686091433837831            1.5785248507
   298   2      21.943875277484654      4.1686091433837831           -1.5785248507
   299   2       24.77534305522461      2.6973353280718593            1.5785248507
   300   2       24.77534305522461      2.6973353280718593           -1.5785248507
   301   2      27.606810832964566      1.2260615127599359            1.5785248507
   302   2      27.606810832964566      1.2260615127599359           -1.5785248507
   303   2      10.476430777637836      13.241464337807312            1.5785248507
   304   2      10.476430777637836      13.241464337807312           -1.5785248507
   305   2      13.307898555377793      11.770190522495389            1.5785248507
   306   2      13.307898555377793      11.770190522495389           -1.5785248507
   307   2      16.139366333117746      10.298916707183464            1.5785248507
   308   2      16.139366333117746      10.298916707183464           -1.5785248507
   309   2      18.970834110857702      8.8276428918715393            1.5785248507
   310   2      18.970834110857702      8.8276428918715393           -1.5785248507
   311   2      21.802301888597658       7.356369076559619            1.5785248507
   312   2      21.802301888597658       7.356369076559619           -1.5785248507
   313   2      24.633769666337614      5.8850952612476952            1.5785248507
   314   2      24.633769666337614      5.8850952612476952           -1.5785248507
   315   2       27.46523744407757      4.4138214459357696            1.5785248507
   316   2       27.46523744407757      4.4138214459357696           -1.5785248507
   317   2      30.296705221817522      2.9425476306238445            1.5785248507
   318   2      30.296705221817522      2.9425476306238445           -1.5785248507
   319   2      33.128172999557478      1.4712738153119258            1.5785248507
   320   2      33.128172999557478      1.4712738153119258           -1.5785248507
   321   2      10.334857388750835      16.429224270983145            1.5785248507
   322   2      10.334857388750835      16.429224270983145           -1.5785248507
   323   2      13.166325166490788       14.95795045567122            1.5785248507
   324   2      13.166325166490788       14.95795045567122           -1.5785248507
   325   2      15.997792944230747      13.486676640359297            1.5785248507
   326   2      15.997792944230747      13.486676640359297           -1.5785248507
   327   2      18.829260721970702      12.015402825047374            1.5785248507
   328   2      18.829260721970702      12.015402825047374           -1.5785248507
   329   2      21.660728499710658       10.54412900973545            1.5785248507
   330   2      21.660728499710658       10.54412900973545           -1.5785248507
   331   2      24.492196277450613      9.0728551944235267            1.5785248507
   332   2      24.492196277450613      9.0728551944235267           -1.5785248507
   333   2      27.323664055190569      7.6015813791116038            1.5785248507
   334   2      27.323664055190569      7.6015813791116038           -1.5785248507
   335   2      30.155131832930525        6.13030756379968            1.5785248507
   336   2      30.155131832930525        6.13030756379968           -1.5785248507
   337   2      32.986599610670481      4.6590337484877544            1.5785248507
   338   2      32.986599610670481      4.6590337484877544           -1.5785248507
   339   2      35.818067388410441      3.1877599331758359            1.5785248507
   340   2      35.818067388410441      3.1877599331758359           -1.5785248507
   341   2      13.024751777603793      18.145710388847053            1.5785248507
   342   2      13.024751777603793      18.145710388847053           -1.5785248507
   343   2      15.856219555343747      16.674436573535132            1.5785248507
   344   2      15.856219555343747      16.674436573535132           -1.5785248507
   345   2      18.687687333083705      15.203162758223209            1.5785248507
   346   2      18.687687333083705      15.203162758223209           -1.5785248507
   347   2      21.519155110823661      13.731888942911285            1.5785248507
   348   2      21.519155110823661      13.731888942911285           -1.5785248507
   349   2      24.350622888563617       12.26061512759936            1.5785248507
   350   2      24.350622888563617       12.26061512759936           -1.5785248507
   351   2      27.182090666303573      10.789341312287439            1.5785248507
   352   2      27.182090666303573      10.789341312287439           -1.5785248507
   353   2      30.013558444043529      9.3180674969755142            1.5785248507
   354   2      30.013558444043529      9.3180674969755142           -1.5785248507
   355   2      32.845026221783485      7.8467936816635921            1.5785248507
   356   2      32.845026221783485      7.8467936816635921           -1.5785248507
   357   2      35.676493999523444      6.3755198663516666            1.5785248507
   358   2      35.676493999523444      6.3755198663516666           -1.5785248507
   359   2       38.50796177726339      4.9042460510397445            1.5785248507
   360   2       38.50796177726339      4.9042460510397445           -1.5785248507
   361   2      12.883178388716798       21.33347032202289            1.5785248507
   362   2      12.883178388716798       21.33347032202289           -1.5785248507
   363   2      15.714646166456752      19.862196506710966            1.5785248507
   364   2      15.714646166456752      19.862196506710966           -1.5785248507
   365   2      18.546113944196708      18.390922691399041            1.5785248507
   366   2      18.546113944196708      18.390922691399041           -1.5785248507
   367   2      21.377581721936664       16.91964887608712            1.5785248507
   368   2      21.377581721936664       16.91964887608712           -1.5785248507
   369   2       24.20904949967662      15.448375060775197            1.5785248507
   370   2       24.20904949967662      15.448375060775197           -1.5785248507
   371   2      27.040517277416576       13.97710124546327            1.5785248507
   372   2      27.040517277416576       13.97710124546327           -1.5785248507
   373   2      29.871985055156532      12.505827430151349            1.5785248507
   374   2      29.871985055156532      12.505827430151349           -1.5785248507
   375   2      32.703452832896488      11.034553614839426            1.5785248507
   376   2      32.703452832896488      11.034553614839426           -1.5785248507
   377   2      35.534920610636448      9.5632797995275052            1.5785248507
   378   2      35.534920610636448      9.5632797995275052           -1.5785248507
   379   2        38.3663883883764      8.0920059842155752            1.5785248507
   380   2        38.3663883883764      8.0920059842155752           -1.5785248507
   381   2      15.573072777569754      23.049956439886799            1.5785248507
   382   2      15.573072777569754      23.049956439886799           -1.5785248507
   383   2      18.404540555309708      21.578682624574874            1.5785248507
   384   2      18.404540555309708      21.578682624574874           -1.5785248507
   385   2      21.236008333049664      20.107408809262953            1.5785248507
   386   2      21.236008333049664      20.107408809262953           -1.5785248507
   387   2       24.06747611078962      18.636134993951028            1.5785248507
   388   2       24.06747611078962      18.636134993951028           -1.5785248507
   389   2       26.89894388852958      17.164861178639107            1.5785248507
   390   2       26.89894388852958      17.164861178639107           -1.5785248507
   391   2      29.730411666269536      15.693587363327183            1.5785248507
   392   2      29.730411666269536      15.693587363327183           -1.5785248507
   393   2      32.561879444009485      14.222313548015258            1.5785248507
   394   2      32.561879444009485      14.222313548015258           -1.5785248507
   395   2      35.393347221749444      12.751039732703335            1.5785248507
   396   2      35.393347221749444      12.751039732703335           -1.5785248507
   397   2      38.224814999489396      11.279765917391414            1.5785248507
   398   2      38.224814999489396      11.279765917391414           -1.5785248507
   399   2      41.056282777229349      9.8084921020794873            1.5785248507
   400   2      41.056282777229349      9.8084921020794873           -1.5785248507
   401   2      15.431499388682754      26.237716373062632            1.5785248507
   402   2      15.431499388682754      26.237716373062632           -1.5785248507
   403   2      18.262967166422708      24.766442557750711            1.5785248507
   404   2      18.262967166422708      24.766442557750711           -1.5785248507
   405   2      21.094434944162664      23.295168742438786            1.5785248507
   406   2      21.094434944162664      23.295168742438786           -1.5785248507
   407   2       23.92590272190262      21.823894927126862            1.5785248507
   408   2       23.92590272190262      21.823894927126862           -1.5785248507
   409   2      26.757370499642573      20.352621111814937            1.5785248507
   410   2      26.757370499642573      20.352621111814937           -1.5785248507
   411   2      29.588838277382532      18.881347296503016            1.5785248507
   412   2      29.588838277382532      18.881347296503016           -1.5785248507
   413   2      32.420306055122488      17.410073481191091            1.5785248507
   414   2      32.420306055122488      17.410073481191091           -1.5785248507
   415   2       35.25177383286244      15.938799665879166            1.5785248507
   416   2       35.25177383286244      15.938799665879166           -1.5785248507
   417   2      38.083241610602393      14.467525850567247            1.5785248507
   418   2      38.083241610602393      14.467525850567247           -1.5785248507
   419   2      40.914709388342352      12.996252035255322            1.5785248507
   420   2      40.914709388342352      12.996252035255322           -1.5785248507
   421   2      18.121393777535719      27.954202490926548            1.5785248507
   422   2      18.121393777535719      27.954202490926548           -1.5785248507
   423   2      20.952861555275671      26.482928675614623            1.5785248507
   424   2      20.952861555275671      26.482928675614623           -1.5785248507
   425   2      23.784329333015627      25.011654860302698            1.5785248507
   426   2      23.784329333015627      25.011654860302698           -1.5785248507
   427   2      26.615797110755587      23.540381044990777            1.5785248507
   428   2      26.615797110755587      23.540381044990777           -1.5785248507
   429   2      29.447264888495535      22.069107229678849            1.5785248507
   430   2      29.447264888495535      22.069107229678849           -1.5785248507
   431   2      32.278732666235491      20.597833414366928            1.5785248507
   432   2      32.278732666235491      20.597833414366928           -1.5785248507
   433   2      35.110200443975451      19.126559599055007            1.5785248507
   434   2      35.110200443975451      19.126559599055007           -1.5785248507
   435   2      37.941668221715403      17.655285783743079            1.5785248507
   436   2      37.941668221715403      17.655285783743079           -1.5785248507
   437   2      40.773135999455356      16.184011968431157            1.5785248507
   438   2      40.773135999455356      16.184011968431157           -1.5785248507
   439   2      43.604603777195315      14.712738153119238            1.5785248507
   440   2      43.604603777195315      14.712738153119238           -1.5785248507
   441   2      17.979820388648719      31.141962424102378            1.5785248507
   442   2      17.979820388648719      31.141962424102378           -1.5785248507
   443   2      20.811288166388675      29.670688608790456            1.5785248507
   444   2      20.811288166388675      29.670688608790456           -1.5785248507
   445   2      23.642755944128623      28.199414793478532            1.5785248507
   446   2      23.642755944128623      28.199414793478532           -1.5785248507
   447   2      26.474223721868583      26.728140978166607            1.5785248507
   448   2      26.474223721868583      26.728140978166607           -1.5785248507
   449   2      29.305691499608539      25.256867162854686            1.5785248507
   450   2      29.305691499608539      25.256867162854686           -1.5785248507
   451   2      32.137159277348488      23.785593347542761            1.5785248507
   452   2      32.137159277348488      23.785593347542761           -1.5785248507
   453   2      34.968627055088447      22.314319532230837            1.5785248507
   454   2      34.968627055088447      22.314319532230837           -1.5785248507
   455   2      37.800094832828407      20.843045716918915            1.5785248507
   456   2      37.800094832828407      20.843045716918915           -1.5785248507
   457   2      40.631562610568359      19.371771901606991            1.5785248507
   458   2      40.631562610568359      19.371771901606991           -1.5785248507
   459   2      43.463030388308312      17.900498086295066            1.5785248507
   460   2      43.463030388308312      17.900498086295066           -1.5785248507
   461   2      26.332650332981576       29.91590091134244            1.5785248507
   462   2      26.332650332981576       29.91590091134244           -1.5785248507
   463   2      29.164118110721535      28.444627096030519            1.5785248507
   464   2      29.164118110721535      28.444627096030519           -1.5785248507
   465   2      31.995585888461495      26.973353280718595            1.5785248507
   466   2      31.995585888461495      26.973353280718595           -1.5785248507
   467   2      34.827053666201444       25.50207946540667            1.5785248507
   468   2      34.827053666201444       25.50207946540667           -1.5785248507
   469   2      37.658521443941403      24.030805650094749            1.5785248507
   470   2      37.658521443941403      24.030805650094749           -1.5785248507
   471   2      40.489989221681363      22.559531834782824            1.5785248507
   472   2      40.489989221681363      22.559531834782824           -1.5785248507
   473   2      43.321456999421315      21.088258019470899            1.5785248507
   474   2      43.321456999421315      21.088258019470899           -1.5785248507
   475   2      46.152924777161267      19.616984204158975            1.5785248507
   476   2      46.152924777161267      19.616984204158975           -1.5785248507
   477   2      31.854012499574498      30.161113213894431            1.5785248507
   478   2      31.854012499574498      30.161113213894431           -1.5785248507
   479   2      34.685480277314454       28.68983939858251            1.5785248507
   480   2      34.685480277314454       28.68983939858251           -1.5785248507
   481   2      37.516948055054407      27.218565583270582            1.5785248507
   482   2      37.516948055054407      27.218565583270582           -1.5785248507
   483   2      40.348415832794366      25.747291767958661            1.5785248507
   484   2      40.348415832794366      25.747291767958661           -1.5785248507
   485   2      43.179883610534326      24.276017952646736            1.5785248507
   486   2      43.179883610534326      24.276017952646736           -1.5785248507
   487   2      46.011351388274278      22.804744137334811            1.5785248507
   488   2      46.011351388274278      22.804744137334811           -1.5785248507
   489   2       37.37537466616741      30.406325516446419            1.5785248507
   490   2       37.37537466616741      30.406325516446419           -1.5785248507
   491   2      40.206842443907362      28.935051701134491            1.5785248507
   492   2      40.206842443907362      28.935051701134491           -1.5785248507
   493   2      43.038310221647322      27.463777885822569            1.5785248507
   494   2      43.038310221647322      27.463777885822569           -1.5785248507
   495   2      45.869777999387281      25.992504070510648            1.5785248507
   496   2      45.869777999387281      25.992504070510648           -1.5785248507
   497   2      48.701245777127234       24.52123025519872            1.5785248507
   498   2      48.701245777127234       24.52123025519872           -1.5785248507
   499   2      42.896736832760318      30.651537818998403            1.5785248507
   500   2      42.896736832760318      30.651537818998403           -1.5785248507
   501   2      45.728204610500278      29.180264003686478            1.5785248507
   502   2      45.728204610500278      29.180264003686478           -1.5785248507
   503   2      48.559672388240237      27.708990188374557            1.5785248507
   504   2      48.559672388240237      27.708990188374557           -1.5785248507
   505   2      48.418098999353241      30.896750121550394            1.5785248507
   506   2      48.418098999353241      30.896750121550394           -1.5785248507
   507   2        51.2495667770932      29.425476306238469            1.5785248507
   508   2        51.2495667770932      29.425476306238469           -1.5785248507
   509   2      4.5977908855466323      1.5057065139642369      8.0785248506999991
   510   2      4.5977908855466323      1.5057065139642369            4.9214751493
   511   2      4.7393642744336297      4.6934664471400707      8.0785248506999991
   512   2      4.7393642744336297      4.6934664471400707            4.9214751493
   513   2      7.4292586632865873      2.9769803292761607      8.0785248506999991
   514   2      7.4292586632865873      2.9769803292761607            4.9214751493
   515   2      10.119153052139545      1.2604942114122497      8.0785248506999991
   516   2      10.119153052139545      1.2604942114122497            4.9214751493
   517   2      7.5708320521735866      6.1647402624519954      8.0785248506999991
   518   2      7.5708320521735866      6.1647402624519954            4.9214751493
   519   2      10.260726441026543      4.4482541445880841      8.0785248506999991
   520   2      10.260726441026543      4.4482541445880841            4.9214751493
   521   2      12.950620829879501      2.7317680267241733      8.0785248506999991
   522   2      12.950620829879501      2.7317680267241733            4.9214751493
   523   2      15.640515218732459      1.0152819088602629      8.0785248506999991
   524   2      15.640515218732459      1.0152819088602629            4.9214751493
   525   2      7.7124054410605831      9.3525001956278295      8.0785248506999991
   526   2      7.7124054410605831      9.3525001956278295            4.9214751493
   527   2       10.40229982991354      7.6360140777639183      8.0785248506999991
   528   2       10.40229982991354      7.6360140777639183            4.9214751493
   529   2      13.092194218766497       5.919527959900007      8.0785248506999991
   530   2      13.092194218766497       5.919527959900007            4.9214751493
   531   2      15.782088607619457      4.2030418420360967      8.0785248506999991
   532   2      15.782088607619457      4.2030418420360967            4.9214751493
   533   2      18.471982996472413      2.4865557241721867      8.0785248506999991
   534   2      18.471982996472413      2.4865557241721867            4.9214751493
   535   2      21.161877385325372     0.77006960630827548      8.0785248506999991
   536   2      21.161877385325372     0.77006960630827548            4.9214751493
   537   2      10.543873218800536      10.823774010939752      8.0785248506999991
   538   2      10.543873218800536      10.823774010939752            4.9214751493
   539   2      13.233767607653494      9.1072878930758403      8.0785248506999991
   540   2      13.233767607653494      9.1072878930758403            4.9214751493
   541   2      15.923661996506453      7.3908017752119308      8.0785248506999991
   542   2      15.923661996506453      7.3908017752119308            4.9214751493
   543   2      18.613556385359413      5.6743156573480213      8.0785248506999991
   544   2      18.613556385359413      5.6743156573480213            4.9214751493
   545   2      21.303450774212369      3.9578295394841079      8.0785248506999991
   546   2      21.303450774212369      3.9578295394841079            4.9214751493
   547   2      23.993345163065328       2.241343421620198      8.0785248506999991
   548   2      23.993345163065328       2.241343421620198            4.9214751493
   549   2      26.683239551918284     0.52485730375628881      8.0785248506999991
   550   2      26.683239551918284     0.52485730375628881            4.9214751493
   551   2      10.685446607687535      14.011533944115586      8.0785248506999991
   552   2      10.685446607687535      14.011533944115586            4.9214751493
   553   2      13.375340996540496      12.295047826251677      8.0785248506999991
   554   2      13.375340996540496      12.295047826251677            4.9214751493
   555   2       16.06523538539345      10.578561708387765      8.0785248506999991
   556   2       16.06523538539345      10.578561708387765            4.9214751493
   557   2      18.755129774246409      8.8620755905238564      8.0785248506999991
   558   2      18.755129774246409      8.8620755905238564            4.9214751493
   559   2      21.445024163099372      7.1455894726599452      8.0785248506999991
   560   2      21.445024163099372      7.1455894726599452            4.9214751493
   561   2      24.134918551952325      5.4291033547960339      8.0785248506999991
   562   2      24.134918551952325      5.4291033547960339            4.9214751493
   563   2      26.824812940805284      3.7126172369321249      8.0785248506999991
   564   2      26.824812940805284      3.7126172369321249            4.9214751493
   565   2      29.514707329658243      1.9961311190682112      8.0785248506999991
   566   2      29.514707329658243      1.9961311190682112            4.9214751493
   567   2      32.204601718511199      0.2796450012043053      8.0785248506999991
   568   2      32.204601718511199      0.2796450012043053            4.9214751493
   569   2      13.516914385427489       15.48280775942751      8.0785248506999991
   570   2      13.516914385427489       15.48280775942751            4.9214751493
   571   2       16.20680877428045        13.7663216415636      8.0785248506999991
   572   2       16.20680877428045        13.7663216415636            4.9214751493
   573   2      18.896703163133406      12.049835523699688      8.0785248506999991
   574   2      18.896703163133406      12.049835523699688            4.9214751493
   575   2      21.586597551986365      10.333349405835778      8.0785248506999991
   576   2      21.586597551986365      10.333349405835778            4.9214751493
   577   2      24.276491940839321       8.616863287971869      8.0785248506999991
   578   2      24.276491940839321       8.616863287971869            4.9214751493
   579   2      26.966386329692281      6.9003771701079577      8.0785248506999991
   580   2      26.966386329692281      6.9003771701079577            4.9214751493
   581   2       29.65628071854524      5.1838910522440456      8.0785248506999991
   582   2       29.65628071854524      5.1838910522440456            4.9214751493
   583   2      32.346175107398196      3.4674049343801348      8.0785248506999991
   584   2      32.346175107398196      3.4674049343801348            4.9214751493
   585   2      35.036069496251152      1.7509188165162257      8.0785248506999991
   586   2      35.036069496251152      1.7509188165162257            4.9214751493
   587   2      13.658487774314489      18.670567692603342      8.0785248506999991
   588   2      13.658487774314489      18.670567692603342            4.9214751493
   589   2      16.348382163167447      16.954081574739433      8.0785248506999991
   590   2      16.348382163167447      16.954081574739433            4.9214751493
   591   2      19.038276552020402      15.237595456875523      8.0785248506999991
   592   2      19.038276552020402      15.237595456875523            4.9214751493
   593   2      21.728170940873358      13.521109339011611      8.0785248506999991
   594   2      21.728170940873358      13.521109339011611            4.9214751493
   595   2      24.418065329726321      11.804623221147702      8.0785248506999991
   596   2      24.418065329726321      11.804623221147702            4.9214751493
   597   2      27.107959718579277      10.088137103283792      8.0785248506999991
   598   2      27.107959718579277      10.088137103283792            4.9214751493
   599   2      29.797854107432237      8.3716509854198797      8.0785248506999991
   600   2      29.797854107432237      8.3716509854198797            4.9214751493
   601   2      32.487748496285192      6.6551648675559694      8.0785248506999991
   602   2      32.487748496285192      6.6551648675559694            4.9214751493
   603   2      35.177642885138148      4.9386787496920572      8.0785248506999991
   604   2      35.177642885138148      4.9386787496920572            4.9214751493
   605   2      37.867537273991104      3.2221926318281477      8.0785248506999991
   606   2      37.867537273991104      3.2221926318281477            4.9214751493
   607   2      16.489955552054443      20.141841507915267      8.0785248506999991
   608   2      16.489955552054443      20.141841507915267            4.9214751493
   609   2      19.179849940907399      18.425355390051354      8.0785248506999991
   610   2      19.179849940907399      18.425355390051354            4.9214751493
   611   2      21.869744329760358      16.708869272187446      8.0785248506999991
   612   2      21.869744329760358      16.708869272187446            4.9214751493
   613   2      24.559638718613314      14.992383154323534      8.0785248506999991
   614   2      24.559638718613314      14.992383154323534            4.9214751493
   615   2       27.24953310746627      13.275897036459625      8.0785248506999991
   616   2       27.24953310746627      13.275897036459625            4.9214751493
   617   2      29.939427496319233      11.559410918595717      8.0785248506999991
   618   2      29.939427496319233      11.559410918595717            4.9214751493
   619   2      32.629321885172189      9.8429248007318026      8.0785248506999991
   620   2      32.629321885172189      9.8429248007318026            4.9214751493
   621   2      35.319216274025145      8.1264386828678887      8.0785248506999991
   622   2      35.319216274025145      8.1264386828678887            4.9214751493
   623   2      38.009110662878101       6.409952565003981      8.0785248506999991
   624   2      38.009110662878101       6.409952565003981            4.9214751493
   625   2       16.63152894094144        23.3296014410911      8.0785248506999991
   626   2       16.63152894094144        23.3296014410911            4.9214751493
   627   2      19.321423329794399      21.613115323227188      8.0785248506999991
   628   2      19.321423329794399      21.613115323227188            4.9214751493
   629   2      22.011317718647351      19.896629205363279      8.0785248506999991
   630   2      22.011317718647351      19.896629205363279            4.9214751493
   631   2      24.701212107500314      18.180143087499367      8.0785248506999991
   632   2      24.701212107500314      18.180143087499367            4.9214751493
   633   2       27.39110649635327      16.463656969635458      8.0785248506999991
   634   2       27.39110649635327      16.463656969635458            4.9214751493
   635   2      30.081000885206223      14.747170851771545      8.0785248506999991
   636   2      30.081000885206223      14.747170851771545            4.9214751493
   637   2      32.770895274059178      13.030684733907632      8.0785248506999991
   638   2      32.770895274059178      13.030684733907632            4.9214751493
   639   2      35.460789662912141      11.314198616043726      8.0785248506999991
   640   2      35.460789662912141      11.314198616043726            4.9214751493
   641   2      38.150684051765097      9.5977124981798134      8.0785248506999991
   642   2      38.150684051765097      9.5977124981798134            4.9214751493
   643   2       40.84057844061806      7.8812263803159013      8.0785248506999991
   644   2       40.84057844061806      7.8812263803159013            4.9214751493
   645   2      19.462996718681392      24.800875256403021      8.0785248506999991
   646   2      19.462996718681392      24.800875256403021            4.9214751493
   647   2      22.152891107534352      23.084389138539112      8.0785248506999991
   648   2      22.152891107534352      23.084389138539112            4.9214751493
   649   2      24.842785496387304        21.3679030206752      8.0785248506999991
   650   2      24.842785496387304        21.3679030206752            4.9214751493
   651   2       27.53267988524026      19.651416902811288      8.0785248506999991
   652   2       27.53267988524026      19.651416902811288            4.9214751493
   653   2      30.222574274093223      17.934930784947383      8.0785248506999991
   654   2      30.222574274093223      17.934930784947383            4.9214751493
   655   2      32.912468662946182      16.218444667083467      8.0785248506999991
   656   2      32.912468662946182      16.218444667083467            4.9214751493
   657   2      35.602363051799138      14.501958549219557      8.0785248506999991
   658   2      35.602363051799138      14.501958549219557            4.9214751493
   659   2      38.292257440652101       12.78547243135565      8.0785248506999991
   660   2      38.292257440652101       12.78547243135565            4.9214751493
   661   2      40.982151829505057      11.068986313491736      8.0785248506999991
   662   2      40.982151829505057      11.068986313491736            4.9214751493
   663   2      19.604570107568396      27.988635189578858      8.0785248506999991
   664   2      19.604570107568396      27.988635189578858            4.9214751493
   665   2      22.294464496421352      26.272149071714949      8.0785248506999991
   666   2      22.294464496421352      26.272149071714949            4.9214751493
   667   2      24.984358885274307      24.555662953851037      8.0785248506999991
   668   2      24.984358885274307      24.555662953851037            4.9214751493
   669   2      27.674253274127267      22.839176835987129      8.0785248506999991
   670   2      27.674253274127267      22.839176835987129            4.9214751493
   671   2      30.364147662980219      21.122690718123216      8.0785248506999991
   672   2      30.364147662980219      21.122690718123216            4.9214751493
   673   2      33.054042051833186      19.406204600259304      8.0785248506999991
   674   2      33.054042051833186      19.406204600259304            4.9214751493
   675   2      35.743936440686134      17.689718482395396      8.0785248506999991
   676   2      35.743936440686134      17.689718482395396            4.9214751493
   677   2      38.433830829539097      15.973232364531484      8.0785248506999991
   678   2      38.433830829539097      15.973232364531484            4.9214751493
   679   2       41.12372521839206      14.256746246667577      8.0785248506999991
   680   2       41.12372521839206      14.256746246667577            4.9214751493
   681   2      43.813619607245016      12.540260128803665      8.0785248506999991
   682   2      43.813619607245016      12.540260128803665            4.9214751493
   683   2      19.746143496455389      31.176395122754691      8.0785248506999991
   684   2      19.746143496455389      31.176395122754691            4.9214751493
   685   2      22.436037885308345      29.459909004890783      8.0785248506999991
   686   2      22.436037885308345      29.459909004890783            4.9214751493
   687   2      25.125932274161308       27.74342288702687      8.0785248506999991
   688   2      25.125932274161308       27.74342288702687            4.9214751493
   689   2      27.815826663014263      26.026936769162962      8.0785248506999991
   690   2      27.815826663014263      26.026936769162962            4.9214751493
   691   2      30.505721051867219      24.310450651299053      8.0785248506999991
   692   2      30.505721051867219      24.310450651299053            4.9214751493
   693   2      33.195615440720175      22.593964533435138      8.0785248506999991
   694   2      33.195615440720175      22.593964533435138            4.9214751493
   695   2      35.885509829573138      20.877478415571229      8.0785248506999991
   696   2      35.885509829573138      20.877478415571229            4.9214751493
   697   2      38.575404218426094       19.16099229770732      8.0785248506999991
   698   2      38.575404218426094       19.16099229770732            4.9214751493
   699   2       41.26529860727905      17.444506179843408      8.0785248506999991
   700   2       41.26529860727905      17.444506179843408            4.9214751493
   701   2      43.955192996132013      15.728020061979496      8.0785248506999991
   702   2      43.955192996132013      15.728020061979496            4.9214751493
   703   2      25.267505663048297      30.931182820202704      8.0785248506999991
   704   2      25.267505663048297      30.931182820202704            4.9214751493
   705   2       27.95740005190126      29.214696702338795      8.0785248506999991
   706   2       27.95740005190126      29.214696702338795            4.9214751493
   707   2      30.647294440754219      27.498210584474883      8.0785248506999991
   708   2      30.647294440754219      27.498210584474883            4.9214751493
   709   2      33.337188829607172      25.781724466610971      8.0785248506999991
   710   2      33.337188829607172      25.781724466610971            4.9214751493
   711   2      36.027083218460128      24.065238348747062      8.0785248506999991
   712   2      36.027083218460128      24.065238348747062            4.9214751493
   713   2      38.716977607313098      22.348752230883154      8.0785248506999991
   714   2      38.716977607313098      22.348752230883154            4.9214751493
   715   2      41.406871996166046      20.632266113019238      8.0785248506999991
   716   2      41.406871996166046      20.632266113019238            4.9214751493
   717   2      44.096766385019002      18.915779995155329      8.0785248506999991
   718   2      44.096766385019002      18.915779995155329            4.9214751493
   719   2      46.786660773871972      17.199293877291421      8.0785248506999991
   720   2      46.786660773871972      17.199293877291421            4.9214751493
   721   2      30.788867829641219       30.68597051765072      8.0785248506999991
   722   2      30.788867829641219       30.68597051765072            4.9214751493
   723   2      33.478762218494168      28.969484399786808      8.0785248506999991
   724   2      33.478762218494168      28.969484399786808            4.9214751493
   725   2      36.168656607347124      27.252998281922896      8.0785248506999991
   726   2      36.168656607347124      27.252998281922896            4.9214751493
   727   2      38.858550996200087      25.536512164058987      8.0785248506999991
   728   2      38.858550996200087      25.536512164058987            4.9214751493
   729   2       41.54844538505305      23.820026046195075      8.0785248506999991
   730   2       41.54844538505305      23.820026046195075            4.9214751493
   731   2      44.238339773905999      22.103539928331163      8.0785248506999991
   732   2      44.238339773905999      22.103539928331163            4.9214751493
   733   2      46.928234162758962      20.387053810467254      8.0785248506999991
   734   2      46.928234162758962      20.387053810467254            4.9214751493
   735   2      36.310229996234121      30.440758215098732      8.0785248506999991
   736   2      36.310229996234121      30.440758215098732            4.9214751493
   737   2      39.000124385087084       28.72427209723482      8.0785248506999991
   738   2      39.000124385087084       28.72427209723482            4.9214751493
   739   2      41.690018773940039      27.007785979370905      8.0785248506999991
   740   2      41.690018773940039      27.007785979370905            4.9214751493
   741   2      44.379913162792995      25.291299861506999      8.0785248506999991
   742   2      44.379913162792995      25.291299861506999            4.9214751493
   743   2      47.069807551645958      23.574813743643087      8.0785248506999991
   744   2      47.069807551645958      23.574813743643087            4.9214751493
   745   2      49.759701940498914      21.858327625779175      8.0785248506999991
   746   2      49.759701940498914      21.858327625779175            4.9214751493
   747   2      41.831592162827036      30.195545912546741      8.0785248506999991
   748   2      41.831592162827036      30.195545912546741            4.9214751493
   749   2      44.521486551679999      28.479059794682829      8.0785248506999991
   750   2      44.521486551679999      28.479059794682829            4.9214751493
   751   2      47.211380940532955      26.762573676818924      8.0785248506999991
   752   2      47.211380940532955      26.762573676818924            4.9214751493
   753   2      49.901275329385911      25.046087558955012      8.0785248506999991
   754   2      49.901275329385911      25.046087558955012            4.9214751493
   755   2      47.352954329419951      29.950333609994754      8.0785248506999991
   756   2      47.352954329419951      29.950333609994754            4.9214751493
   757   2      50.042848718272907      28.233847492130845      8.0785248506999991
   758   2      50.042848718272907      28.233847492130845            4.9214751493
   759   2       52.73274310712587      26.517361374266933      8.0785248506999991
   760   2       52.73274310712587      26.517361374266933            4.9214751493
   761   2      52.874316496012867      29.705121307442766      8.0785248506999991
   762   2      52.874316496012867      29.705121307442766            4.9214751493
