rigid_bilayers/data_MoSe2_WSe2_P_7 (written by ASE) 

1014 	 atoms 
3  atom types
0.0      43.193889518000006  xlo xhi
0.0      37.407005610846376  ylo yhi
0.0                      30  zlo zhi
     21.596944758999989                       0                       0  xy xz yz


Atoms 

     1   1     0.89454800776923049      1.6969647515768576                       0
     2   1      3.8337771761538462     0.14756215231103112                       0
     3   1      3.7059846036153847      3.4677105793092307                       0
     4   1      6.6452137719999991      1.9183079800434037                       0
     5   1      9.5844429403846139     0.36890538077757817                       0
     6   1      3.5781920310769242      6.7878590063074311                       0
     7   1      6.5174211994615385      5.2384564070416042                       0
     8   1      9.4566503678461533      3.6890538077757773                       0
     9   1      12.395879536230767      2.1396512085099513                       0
    10   1      15.335108704615385     0.59024860924412448                       0
    11   1      6.3896286269230771      8.5586048340398033                       0
    12   1       9.328857795307691      7.0092022347739773                       0
    13   1      12.268086963692305      5.4597996355081495                       0
    14   1      15.207316132076921      3.9103970362423235                       0
    15   1      18.146545300461536      2.3609944369764957                       0
    16   1       21.08577446884615     0.81159183771067145                       0
    17   1      6.2618360543846139      11.878753261038003                       0
    18   1      9.2010652227692287      10.329350661772175                       0
    19   1      12.140294391153844      8.7799480625063495                       0
    20   1      15.079523559538458      7.2305454632405217                       0
    21   1      18.018752727923072      5.6811428639746957                       0
    22   1       20.95798189630769      4.1317402647088688                       0
    23   1        23.8972110646923       2.582337665443041                       0
    24   1      26.836440233076917      1.0329350661772168                       0
    25   1      9.0732726502307699      13.649499088770376                       0
    26   1      12.012501818615382      12.100096489504548                       0
    27   1      14.951730986999998      10.550693890238723                       0
    28   1      17.890960155384615      9.0012912909728975                       0
    29   1      20.830189323769225      7.4518886917070688                       0
    30   1      23.769418492153843      5.9024860924412437                       0
    31   1      26.708647660538457      4.3530834931754159                       0
    32   1      29.647876828923071      2.8036808939095899                       0
    33   1      32.587105997307695      1.2542782946437625                       0
    34   1      8.9454800776923058      16.969647515768575                       0
    35   1       11.88470924607692       15.42024491650275                       0
    36   1      14.823938414461535      13.870842317236921                       0
    37   1      17.763167582846151      12.321439717971094                       0
    38   1      20.702396751230765      10.772037118705271                       0
    39   1      23.641625919615379      9.2226345194394419                       0
    40   1      26.580855087999996       7.673231920173615                       0
    41   1      29.520084256384614      6.1238293209077908                       0
    42   1      32.459313424769228       4.574426721641963                       0
    43   1      35.398542593153842      3.0250241223761338                       0
    44   1      38.337771761538455       1.475621523110306                       0
    45   1      11.756916673538459      18.740393343500948                       0
    46   1      14.696145841923073      17.190990744235119                       0
    47   1      17.635375010307691      15.641588144969294                       0
    48   1      20.574604178692304      14.092185545703467                       0
    49   1      23.513833347076918      12.542782946437642                       0
    50   1      26.453062515461532      10.993380347171815                       0
    51   1       29.39229168384615      9.4439777479059881                       0
    52   1       32.33152085223076      7.8945751486401621                       0
    53   1      35.270750020615381      6.3451725493743343                       0
    54   1      38.209979188999995      4.7957699501085074                       0
    55   1      41.149208357384609      3.2463673508426827                       0
    56   1      11.629124100999993      22.060541770499146                       0
    57   1      14.568353269384613      20.511139171233321                       0
    58   1      17.507582437769226      18.961736571967492                       0
    59   1       20.44681160615384      17.412333972701663                       0
    60   1      23.386040774538458       15.86293137343584                       0
    61   1      26.325269942923072      14.313528774170015                       0
    62   1      29.264499111307682      12.764126174904188                       0
    63   1      32.203728279692299      11.214723575638359                       0
    64   1       35.14295744807692      9.6653209763725361                       0
    65   1      38.082186616461527      8.1159183771067074                       0
    66   1      41.021415784846155      6.5665157778408805                       0
    67   1      43.960644953230762      5.0171131785750518                       0
    68   1       14.44056069684615      23.831287598231519                       0
    69   1      17.379789865230762       22.28188499896569                       0
    70   1       20.31901903361538      20.732482399699865                       0
    71   1      23.258248201999994      19.183079800434037                       0
    72   1      26.197477370384608      17.633677201168215                       0
    73   1      29.136706538769225      16.084274601902386                       0
    74   1      32.075935707153839      14.534872002636561                       0
    75   1      35.015164875538453      12.985469403370733                       0
    76   1      37.954394043923067      11.436066804104906                       0
    77   1      40.893623212307688      9.8866642048390805                       0
    78   1      43.832852380692302      8.3372616055732536                       0
    79   1       14.31276812430769      27.151436025229717                       0
    80   1      17.251997292692309      25.602033425963896                       0
    81   1      20.191226461076919      24.052630826698067                       0
    82   1       23.13045562946153      22.503228227432238                       0
    83   1      26.069684797846151       20.95382562816641                       0
    84   1      29.008913966230764      19.404423028900588                       0
    85   1      31.948143134615378      17.855020429634763                       0
    86   1      34.887372302999999      16.305617830368934                       0
    87   1      37.826601471384606      14.756215231103106                       0
    88   1       40.76583063976922      13.206812631837282                       0
    89   1      43.705059808153841      11.657410032571454                       0
    90   1      46.644288976538462      10.108007433305627                       0
    91   1      17.124204720153845      28.922181852962094                       0
    92   1      20.063433888538462      27.372779253696269                       0
    93   1      23.002663056923076       25.82337665443044                       0
    94   1      25.941892225307686      24.273974055164611                       0
    95   1      28.881121393692304      22.724571455898786                       0
    96   1      31.820350562076921      21.175168856632961                       0
    97   1      34.759579730461539      19.625766257367136                       0
    98   1      37.698808898846153      18.076363658101311                       0
    99   1       40.63803806723076      16.526961058835479                       0
   100   1      43.577267235615381      14.977558459569655                       0
   101   1      46.516496403999994       13.42815586030383                       0
   102   1      16.996412147615377      32.242330279960292                       0
   103   1      19.935641315999995      30.692927680694464                       0
   104   1      22.874870484384612      29.143525081428638                       0
   105   1      25.814099652769222       27.59412248216281                       0
   106   1      28.753328821153836      26.044719882896981                       0
   107   1      31.692557989538457      24.495317283631156                       0
   108   1      34.631787157923064      22.945914684365334                       0
   109   1      37.571016326307685      21.396512085099506                       0
   110   1      40.510245494692306      19.847109485833681                       0
   111   1      43.449474663076913      18.297706886567855                       0
   112   1      46.388703831461527      16.748304287302023                       0
   113   1      49.327932999846148        15.1989016880362                       0
   114   1      19.807848743461534      34.013076107692662                       0
   115   1      22.747077911846148      32.463673508426837                       0
   116   1      25.686307080230769      30.914270909161012                       0
   117   1      28.625536248615379      29.364868309895183                       0
   118   1       31.56476541699999      27.815465710629358                       0
   119   1      34.503994585384611      26.266063111363529                       0
   120   1      37.443223753769225      24.716660512097707                       0
   121   1      40.382452922153838      23.167257912831882                       0
   122   1      43.321682090538459      21.617855313566054                       0
   123   1      46.260911258923073      20.068452714300228                       0
   124   1      49.200140427307687        18.5190501150344                       0
   125   1       19.68005617092307      37.333224534690864                       0
   126   1      22.619285339307684      35.783821935425031                       0
   127   1      25.558514507692301      34.234419336159206                       0
   128   1      28.497743676076915      32.685016736893388                       0
   129   1      31.436972844461533      31.135614137627556                       0
   130   1      34.376202012846143      29.586211538361727                       0
   131   1      37.315431181230764      28.036808939095902                       0
   132   1      40.254660349615371      26.487406339830077                       0
   133   1      43.193889517999992      24.938003740564252                       0
   134   1      46.133118686384613      23.388601141298427                       0
   135   1      49.072347854769212      21.839198542032594                       0
   136   1      52.011577023153833      20.289795942766769                       0
   137   1      28.369951103538455      36.005165163891583                       0
   138   1      31.309180271923076      34.455762564625758                       0
   139   1      34.248409440307682      32.906359965359933                       0
   140   1      37.187638608692296        31.3569573660941                       0
   141   1      40.126867777076917      29.807554766828275                       0
   142   1      43.066096945461531      28.258152167562454                       0
   143   1      46.005326113846145      26.708749568296625                       0
   144   1      48.944555282230766        25.1593469690308                       0
   145   1      51.883784450615373      23.609944369764971                       0
   146   1      34.120616867769229      36.226508392358134                       0
   147   1      37.059846036153843      34.677105793092309                       0
   148   1      39.999075204538457      33.127703193826477                       0
   149   1      42.938304372923071      31.578300594560648                       0
   150   1      45.877533541307685      30.028897995294827                       0
   151   1      48.816762709692306      28.479495396029002                       0
   152   1      51.755991878076919      26.930092796763173                       0
   153   1      54.695221046461526      25.380690197497344                       0
   154   1      39.871282631999982      36.447851620824672                       0
   155   1      42.810511800384603      34.898449021558847                       0
   156   1      45.749740968769224      33.349046422293021                       0
   157   1      48.688970137153831      31.799643823027196                       0
   158   1      51.628199305538452      30.250241223761371                       0
   159   1      54.567428473923073      28.700838624495546                       0
   160   1      45.621948396230756      36.669194849291223                       0
   161   1      48.561177564615377      35.119792250025398                       0
   162   1      51.500406732999991      33.570389650759573                       0
   163   1      54.439635901384605      32.020987051493741                       0
   164   1      57.378865069769226      30.471584452227923                       0
   165   1      51.372614160461531      36.890538077757768                       0
   166   1      54.311843328846145       35.34113547849195                       0
   167   1      57.251072497230759       33.79173287922611                       0
   168   1      57.123279924692298      37.111881306224319                       0
   169   1      60.062509093076912      35.562478706958487                       0
   170   3       2.939229168384613        1.54940259926583                     6.5
   171   3      3.0670217409230704      4.8695510262640296                     6.5
   172   3       5.878458336769226        3.09880519853166                     6.5
   173   3      8.6898949326153829      1.3280593707992909                     6.5
   174   3      6.0062509093076839      6.4189536255298609                     6.5
   175   3      8.8176875051538399      4.6482077977974896                     6.5
   176   3      11.629124100999995      2.8774619700651196                     6.5
   177   3      14.440560696846152      1.1067161423327507                     6.5
   178   3      6.1340434818461409      9.7391020525280592                     6.5
   179   3      8.9454800776922969      7.9683562247956896                     6.5
   180   3      11.756916673538452      6.1976103970633201                     6.5
   181   3      14.568353269384611      4.4268645693309514                     6.5
   182   3      17.379789865230766      2.6561187415985819                     6.5
   183   3      20.191226461076919     0.88537291386621286                     6.5
   184   3      9.0732726502307539       11.28850465179389                     6.5
   185   3      11.884709246076911      9.5177588240615201                     6.5
   186   3      14.696145841923068      7.7470129963291505                     6.5
   187   3      17.507582437769223       5.976267168596781                     6.5
   188   3       20.31901903361538      4.2055213408644123                     6.5
   189   3      23.130455629461537      2.4347755131320432                     6.5
   190   3       25.94189222530769     0.66402968539967266                     6.5
   191   3      9.2010652227692091      14.608653078792088                     6.5
   192   3      12.012501818615368      12.837907251059722                     6.5
   193   3      14.823938414461523      11.067161423327349                     6.5
   194   3       17.63537501030768      9.2964155955949792                     6.5
   195   3      20.446811606153833      7.5256697678626097                     6.5
   196   3       23.25824820199999      5.7549239401302392                     6.5
   197   3      26.069684797846147      3.9841781123978719                     6.5
   198   3      28.881121393692304      2.2134322846655015                     6.5
   199   3      31.692557989538457      0.4426864569331308                     6.5
   200   3      12.140294391153825       16.15805567805792                     6.5
   201   3      14.951730986999983      14.387309850325552                     6.5
   202   3      17.763167582846137      12.616564022593183                     6.5
   203   3      20.574604178692294      10.845818194860811                     6.5
   204   3      23.386040774538451      9.0750723671284419                     6.5
   205   3      26.197477370384604      7.3043265393960715                     6.5
   206   3      29.008913966230761      5.5335807116637037                     6.5
   207   3      31.820350562076918      3.7628348839313333                     6.5
   208   3      34.631787157923071       1.992089056198961                     6.5
   209   3      37.443223753769232     0.22134322846659241                     6.5
   210   3      12.268086963692282      19.478204105056118                     6.5
   211   3      15.079523559538437      17.707458277323749                     6.5
   212   3      17.890960155384594      15.936712449591379                     6.5
   213   3      20.702396751230751      14.165966621859011                     6.5
   214   3      23.513833347076904       12.39522079412664                     6.5
   215   3      26.325269942923061      10.624474966394271                     6.5
   216   3      29.136706538769221      8.8537291386619028                     6.5
   217   3      31.948143134615375      7.0829833109295324                     6.5
   218   3      34.759579730461532      5.3122374831971637                     6.5
   219   3      37.571016326307685      3.5414916554647915                     6.5
   220   3      40.382452922153838      1.7707458277324257                     6.5
   221   3      15.207316132076894      21.027606704321951                     6.5
   222   3      18.018752727923047      19.256860876589577                     6.5
   223   3      20.830189323769208      17.486115048857211                     6.5
   224   3      23.641625919615365       15.71536922112484                     6.5
   225   3      26.453062515461518      13.944623393392471                     6.5
   226   3      29.264499111307671      12.173877565660099                     6.5
   227   3      32.075935707153832      10.403131737927731                     6.5
   228   3      34.887372302999985      8.6323859101953584                     6.5
   229   3      37.698808898846139      6.8616400824629906                     6.5
   230   3      40.510245494692299       5.090894254730622                     6.5
   231   3      43.321682090538452      3.3201484269982529                     6.5
   232   3      15.335108704615353      24.347755131320149                     6.5
   233   3      18.146545300461508      22.577009303587779                     6.5
   234   3      20.957981896307665       20.80626347585541                     6.5
   235   3      23.769418492153822       19.03551764812304                     6.5
   236   3      26.580855087999975      17.264771820390674                     6.5
   237   3      29.392291683846135      15.494025992658301                     6.5
   238   3      32.203728279692285      13.723280164925933                     6.5
   239   3      35.015164875538446      11.952534337193562                     6.5
   240   3      37.826601471384599      10.181788509461189                     6.5
   241   3       40.63803806723076      8.4110426817288246                     6.5
   242   3      43.449474663076913      6.6402968539964524                     6.5
   243   3      18.274337872999968      25.897157730585981                     6.5
   244   3      21.085774468846125      24.126411902853611                     6.5
   245   3      23.897211064692282      22.355666075121245                     6.5
   246   3      26.708647660538436      20.584920247388872                     6.5
   247   3      29.520084256384592      18.814174419656503                     6.5
   248   3      32.331520852230746      17.043428591924133                     6.5
   249   3      35.142957448076906      15.272682764191764                     6.5
   250   3      37.954394043923052      13.501936936459392                     6.5
   251   3      40.765830639769213      11.731191108727023                     6.5
   252   3      43.577267235615373      9.9604452809946515                     6.5
   253   3      46.388703831461527      8.1896994532622855                     6.5
   254   3      18.402130445538418      29.217306157584176                     6.5
   255   3      21.213567041384575      27.446560329851806                     6.5
   256   3      24.025003637230736      25.675814502119444                     6.5
   257   3      26.836440233076889      23.905068674387071                     6.5
   258   3      29.647876828923046      22.134322846654698                     6.5
   259   3      32.459313424769199      20.363577018922332                     6.5
   260   3       35.27075002061536      18.592831191189958                     6.5
   261   3      38.082186616461513      16.822085363457592                     6.5
   262   3      40.893623212307666      15.051339535725219                     6.5
   263   3      43.705059808153827       13.28059370799285                     6.5
   264   3       46.51649640399998      11.509847880260478                     6.5
   265   3      21.341359613923032      30.766708756850011                     6.5
   266   3      24.152796209769189      28.995962929117638                     6.5
   267   3      26.964232805615346      27.225217101385269                     6.5
   268   3      29.775669401461506      25.454471273652903                     6.5
   269   3      32.587105997307667      23.683725445920533                     6.5
   270   3      35.398542593153813       21.91297961818816                     6.5
   271   3      38.209979188999974      20.142233790455794                     6.5
   272   3      41.021415784846127      18.371487962723421                     6.5
   273   3       43.83285238069228      16.600742134991052                     6.5
   274   3      46.644288976538441       14.82999630725868                     6.5
   275   3      49.455725572384594      13.059250479526316                     6.5
   276   3      21.469152186461493       34.08685718384821                     6.5
   277   3       24.28058878230765       32.31611135611584                     6.5
   278   3      27.092025378153803      30.545365528383471                     6.5
   279   3      29.903461973999967      28.774619700651105                     6.5
   280   3       32.71489856984612      27.003873872918732                     6.5
   281   3      35.526335165692274      25.233128045186366                     6.5
   282   3      38.337771761538434      23.462382217453992                     6.5
   283   3      41.149208357384587      21.691636389721623                     6.5
   284   3      43.960644953230741      19.920890561989253                     6.5
   285   3      46.772081549076901      18.150144734256884                     6.5
   286   3      49.583518144923048      16.379398906524511                     6.5
   287   3       21.59694475899995      37.407005610846412                     6.5
   288   3      24.408381354846103      35.636259783114042                     6.5
   289   3       27.21981795069226      33.865513955381665                     6.5
   290   3      30.031254546538417      32.094768127649303                     6.5
   291   3      32.842691142384574       30.32402229991693                     6.5
   292   3      35.654127738230734      28.553276472184564                     6.5
   293   3       38.46556433407688      26.782530644452191                     6.5
   294   3      41.277000929923041      25.011784816719821                     6.5
   295   3      44.088437525769201      23.241038988987452                     6.5
   296   3      46.899874121615348      21.470293161255082                     6.5
   297   3      49.711310717461508      19.699547333522709                     6.5
   298   3      52.522747313307661      17.928801505790339                     6.5
   299   3      27.347610523230721      37.185662382379867                     6.5
   300   3      30.159047119076874      35.414916554647498                     6.5
   301   3      32.970483714923027      33.644170726915128                     6.5
   302   3      35.781920310769188      31.873424899182758                     6.5
   303   3      38.593356906615348      30.102679071450392                     6.5
   304   3      41.404793502461501      28.331933243718023                     6.5
   305   3      44.216230098307655      26.561187415985653                     6.5
   306   3      47.027666694153808       24.79044158825328                     6.5
   307   3      49.839103289999969      23.019695760520911                     6.5
   308   3      52.650539885846122      21.248949932788541                     6.5
   309   3      33.098276287461495       36.96431915391333                     6.5
   310   3      35.909712883307641       35.19357332618096                     6.5
   311   3      38.721149479153809      33.422827498448598                     6.5
   312   3      41.532586074999955      31.652081670716225                     6.5
   313   3      44.344022670846115      29.881335842983855                     6.5
   314   3      47.155459266692276      28.110590015251482                     6.5
   315   3      49.966895862538422      26.339844187519112                     6.5
   316   3      52.778332458384583      24.569098359786743                     6.5
   317   3      55.589769054230743       22.79835253205437                     6.5
   318   3      38.848942051692255      36.742975925446785                     6.5
   319   3      41.660378647538415      34.972230097714423                     6.5
   320   3      44.471815243384569      33.201484269982053                     6.5
   321   3      47.283251839230729       31.43073844224968                     6.5
   322   3      50.094688435076876      29.659992614517311                     6.5
   323   3      52.906125030923036      27.889246786784941                     6.5
   324   3      55.717561626769196      26.118500959052568                     6.5
   325   3      44.599607815923022      36.521632696980248                     6.5
   326   3      47.411044411769183      34.750886869247879                     6.5
   327   3      50.222481007615343      32.980141041515509                     6.5
   328   3      53.033917603461497      31.209395213783143                     6.5
   329   3       55.84535419930765      29.438649386050773                     6.5
   330   3       58.65679079515381      27.667903558318407                     6.5
   331   3      50.350273580153797      36.300289468513711                     6.5
   332   3       53.16171017599995      34.529543640781348                     6.5
   333   3       55.97314677184611      32.758797813048972                     6.5
   334   3      58.784583367692271      30.988051985316602                     6.5
   335   3      56.100939344384564      36.078946240047173                     6.5
   336   3      58.912375940230717      34.308200412314797                     6.5
   337   3      61.723812536076878      32.537454584582434                     6.5
   338   3      61.851605108615338      35.857603011580636                     6.5
   339   2      2.8114365958461538      1.7707458277323731      1.6791086795500001
   340   2      2.8114365958461538      1.7707458277323731     -1.6791086795500001
   341   2       5.750665764230769     0.22134322846654667      1.6791086795500001
   342   2       5.750665764230769     0.22134322846654667     -1.6791086795500001
   343   2      5.6228731916923067      3.5414916554647458      1.6791086795500001
   344   2      5.6228731916923067      3.5414916554647458     -1.6791086795500001
   345   2      8.5621023600769224      1.9920890561989189      1.6791086795500001
   346   2      8.5621023600769224      1.9920890561989189     -1.6791086795500001
   347   2      11.501331528461538     0.44268645693309333      1.6791086795500001
   348   2      11.501331528461538     0.44268645693309333     -1.6791086795500001
   349   2      5.4950806191538462      6.8616400824629453      1.6791086795500001
   350   2      5.4950806191538462      6.8616400824629453     -1.6791086795500001
   351   2      8.4343097875384618      5.3122374831971193      1.6791086795500001
   352   2      8.4343097875384618      5.3122374831971193     -1.6791086795500001
   353   2      11.373538955923076      3.7628348839312928      1.6791086795500001
   354   2      11.373538955923076      3.7628348839312928     -1.6791086795500001
   355   2       14.31276812430769      2.2134322846654655      1.6791086795500001
   356   2       14.31276812430769      2.2134322846654655     -1.6791086795500001
   357   2      17.251997292692309     0.66402968539964047      1.6791086795500001
   358   2      17.251997292692309     0.66402968539964047     -1.6791086795500001
   359   2      8.3065172149999977      8.6323859101953193      1.6791086795500001
   360   2      8.3065172149999977      8.6323859101953193     -1.6791086795500001
   361   2      11.245746383384613      7.0829833109294915      1.6791086795500001
   362   2      11.245746383384613      7.0829833109294915     -1.6791086795500001
   363   2      14.184975551769229      5.5335807116636655      1.6791086795500001
   364   2      14.184975551769229      5.5335807116636655     -1.6791086795500001
   365   2      17.124204720153845      3.9841781123978377      1.6791086795500001
   366   2      17.124204720153845      3.9841781123978377     -1.6791086795500001
   367   2      20.063433888538459      2.4347755131320126      1.6791086795500001
   368   2      20.063433888538459      2.4347755131320126     -1.6791086795500001
   369   2      23.002663056923076     0.88537291386618666      1.6791086795500001
   370   2      23.002663056923076     0.88537291386618666     -1.6791086795500001
   371   2      8.1787246424615372      11.952534337193518      1.6791086795500001
   372   2      8.1787246424615372      11.952534337193518     -1.6791086795500001
   373   2      11.117953810846151      10.403131737927691      1.6791086795500001
   374   2      11.117953810846151      10.403131737927691     -1.6791086795500001
   375   2      14.057182979230767      8.8537291386618637      1.6791086795500001
   376   2      14.057182979230767      8.8537291386618637     -1.6791086795500001
   377   2      16.996412147615381      7.3043265393960395      1.6791086795500001
   378   2      16.996412147615381      7.3043265393960395     -1.6791086795500001
   379   2      19.935641315999998      5.7549239401302108      1.6791086795500001
   380   2      19.935641315999998      5.7549239401302108     -1.6791086795500001
   381   2      22.874870484384612      4.2055213408643839      1.6791086795500001
   382   2      22.874870484384612      4.2055213408643839     -1.6791086795500001
   383   2      25.814099652769226      2.6561187415985579      1.6791086795500001
   384   2      25.814099652769226      2.6561187415985579     -1.6791086795500001
   385   2      28.753328821153843      1.1067161423327319      1.6791086795500001
   386   2      28.753328821153843      1.1067161423327319     -1.6791086795500001
   387   2      10.990161238307692      13.723280164925891      1.6791086795500001
   388   2      10.990161238307692      13.723280164925891     -1.6791086795500001
   389   2      13.929390406692304      12.173877565660066      1.6791086795500001
   390   2      13.929390406692304      12.173877565660066     -1.6791086795500001
   391   2      16.868619575076924      10.624474966394239      1.6791086795500001
   392   2      16.868619575076924      10.624474966394239     -1.6791086795500001
   393   2      19.807848743461538      9.0750723671284117      1.6791086795500001
   394   2      19.807848743461538      9.0750723671284117     -1.6791086795500001
   395   2      22.747077911846151      7.5256697678625857      1.6791086795500001
   396   2      22.747077911846151      7.5256697678625857     -1.6791086795500001
   397   2      25.686307080230769      5.9762671685967588      1.6791086795500001
   398   2      25.686307080230769      5.9762671685967588     -1.6791086795500001
   399   2      28.625536248615379       4.426864569330931      1.6791086795500001
   400   2      28.625536248615379       4.426864569330931     -1.6791086795500001
   401   2            31.564765417      2.8774619700651067      1.6791086795500001
   402   2            31.564765417      2.8774619700651067     -1.6791086795500001
   403   2      34.503994585384618      1.3280593707992792      1.6791086795500001
   404   2      34.503994585384618      1.3280593707992792     -1.6791086795500001
   405   2      10.862368665769228      17.043428591924091      1.6791086795500001
   406   2      10.862368665769228      17.043428591924091     -1.6791086795500001
   407   2      13.801597834153847      15.494025992658264      1.6791086795500001
   408   2      13.801597834153847      15.494025992658264     -1.6791086795500001
   409   2       16.74082700253846      13.944623393392437      1.6791086795500001
   410   2       16.74082700253846      13.944623393392437     -1.6791086795500001
   411   2      19.680056170923073      12.395220794126612      1.6791086795500001
   412   2      19.680056170923073      12.395220794126612     -1.6791086795500001
   413   2      22.619285339307691      10.845818194860785      1.6791086795500001
   414   2      22.619285339307691      10.845818194860785     -1.6791086795500001
   415   2      25.558514507692305      9.2964155955949579      1.6791086795500001
   416   2      25.558514507692305      9.2964155955949579     -1.6791086795500001
   417   2      28.497743676076922      7.7470129963291319      1.6791086795500001
   418   2      28.497743676076922      7.7470129963291319     -1.6791086795500001
   419   2      31.436972844461536      6.1976103970633059      1.6791086795500001
   420   2      31.436972844461536      6.1976103970633059     -1.6791086795500001
   421   2      34.376202012846143      4.6482077977974781      1.6791086795500001
   422   2      34.376202012846143      4.6482077977974781     -1.6791086795500001
   423   2      37.315431181230764      3.0988051985316489      1.6791086795500001
   424   2      37.315431181230764      3.0988051985316489     -1.6791086795500001
   425   2      40.254660349615378      1.5494025992658245      1.6791086795500001
   426   2      40.254660349615378      1.5494025992658245     -1.6791086795500001
   427   2      13.673805261615382      18.814174419656464      1.6791086795500001
   428   2      13.673805261615382      18.814174419656464     -1.6791086795500001
   429   2      16.613034429999995      17.264771820390639      1.6791086795500001
   430   2      16.613034429999995      17.264771820390639     -1.6791086795500001
   431   2      19.552263598384613       15.71536922112481      1.6791086795500001
   432   2      19.552263598384613       15.71536922112481     -1.6791086795500001
   433   2      22.491492766769227      14.165966621858983      1.6791086795500001
   434   2      22.491492766769227      14.165966621858983     -1.6791086795500001
   435   2      25.430721935153844      12.616564022593158      1.6791086795500001
   436   2      25.430721935153844      12.616564022593158     -1.6791086795500001
   437   2      28.369951103538458      11.067161423327331      1.6791086795500001
   438   2      28.369951103538458      11.067161423327331     -1.6791086795500001
   439   2      31.309180271923069      9.5177588240615041      1.6791086795500001
   440   2      31.309180271923069      9.5177588240615041     -1.6791086795500001
   441   2       34.24840944030769      7.9683562247956754      1.6791086795500001
   442   2       34.24840944030769      7.9683562247956754     -1.6791086795500001
   443   2      37.187638608692303      6.4189536255298512      1.6791086795500001
   444   2      37.187638608692303      6.4189536255298512     -1.6791086795500001
   445   2      40.126867777076917      4.8695510262640251      1.6791086795500001
   446   2      40.126867777076917      4.8695510262640251     -1.6791086795500001
   447   2      43.066096945461538      3.3201484269981978      1.6791086795500001
   448   2      43.066096945461538      3.3201484269981978     -1.6791086795500001
   449   2      13.546012689076919      22.134322846654662      1.6791086795500001
   450   2      13.546012689076919      22.134322846654662     -1.6791086795500001
   451   2      16.485241857461535      20.584920247388837      1.6791086795500001
   452   2      16.485241857461535      20.584920247388837     -1.6791086795500001
   453   2      19.424471025846149      19.035517648123008      1.6791086795500001
   454   2      19.424471025846149      19.035517648123008     -1.6791086795500001
   455   2      22.363700194230766      17.486115048857183      1.6791086795500001
   456   2      22.363700194230766      17.486115048857183     -1.6791086795500001
   457   2       25.30292936261538      15.936712449591356      1.6791086795500001
   458   2       25.30292936261538      15.936712449591356     -1.6791086795500001
   459   2      28.242158530999991      14.387309850325529      1.6791086795500001
   460   2      28.242158530999991      14.387309850325529     -1.6791086795500001
   461   2      31.181387699384612      12.837907251059702      1.6791086795500001
   462   2      31.181387699384612      12.837907251059702     -1.6791086795500001
   463   2      34.120616867769229      11.288504651793877      1.6791086795500001
   464   2      34.120616867769229      11.288504651793877     -1.6791086795500001
   465   2      37.059846036153843      9.7391020525280521      1.6791086795500001
   466   2      37.059846036153843      9.7391020525280521     -1.6791086795500001
   467   2       39.99907520453845      8.1896994532622216      1.6791086795500001
   468   2       39.99907520453845      8.1896994532622216     -1.6791086795500001
   469   2      42.938304372923078      6.6402968539963982      1.6791086795500001
   470   2      42.938304372923078      6.6402968539963982     -1.6791086795500001
   471   2      45.877533541307685      5.0908942547305704      1.6791086795500001
   472   2      45.877533541307685      5.0908942547305704     -1.6791086795500001
   473   2      16.357449284923074      23.905068674387035      1.6791086795500001
   474   2      16.357449284923074      23.905068674387035     -1.6791086795500001
   475   2      19.296678453307688       22.35566607512121      1.6791086795500001
   476   2      19.296678453307688       22.35566607512121     -1.6791086795500001
   477   2      22.235907621692302      20.806263475855381      1.6791086795500001
   478   2      22.235907621692302      20.806263475855381     -1.6791086795500001
   479   2      25.175136790076916      19.256860876589556      1.6791086795500001
   480   2      25.175136790076916      19.256860876589556     -1.6791086795500001
   481   2      28.114365958461534      17.707458277323727      1.6791086795500001
   482   2      28.114365958461534      17.707458277323727     -1.6791086795500001
   483   2      31.053595126846147      16.158055678057902      1.6791086795500001
   484   2      31.053595126846147      16.158055678057902     -1.6791086795500001
   485   2      33.992824295230761      14.608653078792079      1.6791086795500001
   486   2      33.992824295230761      14.608653078792079     -1.6791086795500001
   487   2      36.932053463615375      13.059250479526247      1.6791086795500001
   488   2      36.932053463615375      13.059250479526247     -1.6791086795500001
   489   2      39.871282631999996      11.509847880260422      1.6791086795500001
   490   2      39.871282631999996      11.509847880260422     -1.6791086795500001
   491   2      42.810511800384603      9.9604452809945982      1.6791086795500001
   492   2      42.810511800384603      9.9604452809945982     -1.6791086795500001
   493   2      45.749740968769224      8.4110426817287678      1.6791086795500001
   494   2      45.749740968769224      8.4110426817287678     -1.6791086795500001
   495   2      16.229656712384614      27.225217101385237      1.6791086795500001
   496   2      16.229656712384614      27.225217101385237     -1.6791086795500001
   497   2      19.168885880769231      25.675814502119408      1.6791086795500001
   498   2      19.168885880769231      25.675814502119408     -1.6791086795500001
   499   2      22.108115049153838      24.126411902853583      1.6791086795500001
   500   2      22.108115049153838      24.126411902853583     -1.6791086795500001
   501   2      25.047344217538456      22.577009303587754      1.6791086795500001
   502   2      25.047344217538456      22.577009303587754     -1.6791086795500001
   503   2      27.986573385923073      21.027606704321929      1.6791086795500001
   504   2      27.986573385923073      21.027606704321929     -1.6791086795500001
   505   2      30.925802554307687      19.478204105056104      1.6791086795500001
   506   2      30.925802554307687      19.478204105056104     -1.6791086795500001
   507   2      33.865031722692308      17.928801505790275      1.6791086795500001
   508   2      33.865031722692308      17.928801505790275     -1.6791086795500001
   509   2      36.804260891076922       16.37939890652445      1.6791086795500001
   510   2      36.804260891076922       16.37939890652445     -1.6791086795500001
   511   2      39.743490059461529      14.829996307258623      1.6791086795500001
   512   2      39.743490059461529      14.829996307258623     -1.6791086795500001
   513   2       42.68271922784615      13.280593707992795      1.6791086795500001
   514   2       42.68271922784615      13.280593707992795     -1.6791086795500001
   515   2      45.621948396230763      11.731191108726971      1.6791086795500001
   516   2      45.621948396230763      11.731191108726971     -1.6791086795500001
   517   2      48.561177564615377      10.181788509461144      1.6791086795500001
   518   2      48.561177564615377      10.181788509461144     -1.6791086795500001
   519   2      19.041093308230767       28.99596292911761      1.6791086795500001
   520   2      19.041093308230767       28.99596292911761     -1.6791086795500001
   521   2      21.980322476615385      27.446560329851781      1.6791086795500001
   522   2      21.980322476615385      27.446560329851781     -1.6791086795500001
   523   2      24.919551645000002       25.89715773058596      1.6791086795500001
   524   2      24.919551645000002       25.89715773058596     -1.6791086795500001
   525   2      27.858780813384609      24.347755131320131      1.6791086795500001
   526   2      27.858780813384609      24.347755131320131     -1.6791086795500001
   527   2       30.79800998176923      22.798352532054302      1.6791086795500001
   528   2       30.79800998176923      22.798352532054302     -1.6791086795500001
   529   2      33.737239150153847      21.248949932788477      1.6791086795500001
   530   2      33.737239150153847      21.248949932788477     -1.6791086795500001
   531   2      36.676468318538461      19.699547333522652      1.6791086795500001
   532   2      36.676468318538461      19.699547333522652     -1.6791086795500001
   533   2      39.615697486923075      18.150144734256823      1.6791086795500001
   534   2      39.615697486923075      18.150144734256823     -1.6791086795500001
   535   2      42.554926655307689      16.600742134990995      1.6791086795500001
   536   2      42.554926655307689      16.600742134990995     -1.6791086795500001
   537   2      45.494155823692303      15.051339535725171      1.6791086795500001
   538   2      45.494155823692303      15.051339535725171     -1.6791086795500001
   539   2      48.433384992076917      13.501936936459344      1.6791086795500001
   540   2      48.433384992076917      13.501936936459344     -1.6791086795500001
   541   2      18.913300735692303      32.316111356115805      1.6791086795500001
   542   2      18.913300735692303      32.316111356115805     -1.6791086795500001
   543   2      21.852529904076917       30.76670875684998      1.6791086795500001
   544   2      21.852529904076917       30.76670875684998     -1.6791086795500001
   545   2      24.791759072461534      29.217306157584154      1.6791086795500001
   546   2      24.791759072461534      29.217306157584154     -1.6791086795500001
   547   2      27.730988240846145      27.667903558318326      1.6791086795500001
   548   2      27.730988240846145      27.667903558318326     -1.6791086795500001
   549   2      30.670217409230762      26.118500959052501      1.6791086795500001
   550   2      30.670217409230762      26.118500959052501     -1.6791086795500001
   551   2      33.609446577615373      24.569098359786675      1.6791086795500001
   552   2      33.609446577615373      24.569098359786675     -1.6791086795500001
   553   2      36.548675745999994      23.019695760520847      1.6791086795500001
   554   2      36.548675745999994      23.019695760520847     -1.6791086795500001
   555   2      39.487904914384615      21.470293161255022      1.6791086795500001
   556   2      39.487904914384615      21.470293161255022     -1.6791086795500001
   557   2      42.427134082769221      19.920890561989196      1.6791086795500001
   558   2      42.427134082769221      19.920890561989196     -1.6791086795500001
   559   2      45.366363251153842      18.371487962723368      1.6791086795500001
   560   2      45.366363251153842      18.371487962723368     -1.6791086795500001
   561   2      48.305592419538456      16.822085363457543      1.6791086795500001
   562   2      48.305592419538456      16.822085363457543     -1.6791086795500001
   563   2       51.24482158792307      15.272682764191718      1.6791086795500001
   564   2       51.24482158792307      15.272682764191718     -1.6791086795500001
   565   2      21.724737331538456      34.086857183848181      1.6791086795500001
   566   2      21.724737331538456      34.086857183848181     -1.6791086795500001
   567   2      24.663966499923074      32.537454584582356      1.6791086795500001
   568   2      24.663966499923074      32.537454584582356     -1.6791086795500001
   569   2      27.603195668307695      30.988051985316527      1.6791086795500001
   570   2      27.603195668307695      30.988051985316527     -1.6791086795500001
   571   2      30.542424836692298      29.438649386050702      1.6791086795500001
   572   2      30.542424836692298      29.438649386050702     -1.6791086795500001
   573   2      33.481654005076919      27.889246786784874      1.6791086795500001
   574   2      33.481654005076919      27.889246786784874     -1.6791086795500001
   575   2      36.420883173461533      26.339844187519049      1.6791086795500001
   576   2      36.420883173461533      26.339844187519049     -1.6791086795500001
   577   2      39.360112341846147      24.790441588253223      1.6791086795500001
   578   2      39.360112341846147      24.790441588253223     -1.6791086795500001
   579   2      42.299341510230768      23.241038988987395      1.6791086795500001
   580   2      42.299341510230768      23.241038988987395     -1.6791086795500001
   581   2      45.238570678615382       21.69163638972157      1.6791086795500001
   582   2      45.238570678615382       21.69163638972157     -1.6791086795500001
   583   2      48.177799846999996      20.142233790455744      1.6791086795500001
   584   2      48.177799846999996      20.142233790455744     -1.6791086795500001
   585   2       51.11702901538461      18.592831191189916      1.6791086795500001
   586   2       51.11702901538461      18.592831191189916     -1.6791086795500001
   587   2      21.596944758999992      37.407005610846376      1.6791086795500001
   588   2      21.596944758999992      37.407005610846376     -1.6791086795500001
   589   2       24.53617392738461      35.857603011580551      1.6791086795500001
   590   2       24.53617392738461      35.857603011580551     -1.6791086795500001
   591   2       27.47540309576922      34.308200412314726      1.6791086795500001
   592   2       27.47540309576922      34.308200412314726     -1.6791086795500001
   593   2      30.414632264153841      32.758797813048901      1.6791086795500001
   594   2      30.414632264153841      32.758797813048901     -1.6791086795500001
   595   2      33.353861432538459      31.209395213783075      1.6791086795500001
   596   2      33.353861432538459      31.209395213783075     -1.6791086795500001
   597   2      36.293090600923072      29.659992614517247      1.6791086795500001
   598   2      36.293090600923072      29.659992614517247     -1.6791086795500001
   599   2      39.232319769307679      28.110590015251418      1.6791086795500001
   600   2      39.232319769307679      28.110590015251418     -1.6791086795500001
   601   2        42.1715489376923      26.561187415985593      1.6791086795500001
   602   2        42.1715489376923      26.561187415985593     -1.6791086795500001
   603   2      45.110778106076921      25.011784816719768      1.6791086795500001
   604   2      45.110778106076921      25.011784816719768     -1.6791086795500001
   605   2      48.050007274461528      23.462382217453939      1.6791086795500001
   606   2      48.050007274461528      23.462382217453939     -1.6791086795500001
   607   2      50.989236442846142       21.91297961818811      1.6791086795500001
   608   2      50.989236442846142       21.91297961818811     -1.6791086795500001
   609   2      53.928465611230763      20.363577018922289      1.6791086795500001
   610   2      53.928465611230763      20.363577018922289     -1.6791086795500001
   611   2      30.286839691615381      36.078946240047102      1.6791086795500001
   612   2      30.286839691615381      36.078946240047102     -1.6791086795500001
   613   2      33.226068859999991      34.529543640781277      1.6791086795500001
   614   2      33.226068859999991      34.529543640781277     -1.6791086795500001
   615   2      36.165298028384612      32.980141041515445      1.6791086795500001
   616   2      36.165298028384612      32.980141041515445     -1.6791086795500001
   617   2      39.104527196769226       31.43073844224962      1.6791086795500001
   618   2      39.104527196769226       31.43073844224962     -1.6791086795500001
   619   2       42.04375636515384      29.881335842983795      1.6791086795500001
   620   2       42.04375636515384      29.881335842983795     -1.6791086795500001
   621   2      44.982985533538454      28.331933243717966      1.6791086795500001
   622   2      44.982985533538454      28.331933243717966     -1.6791086795500001
   623   2      47.922214701923075      26.782530644452141      1.6791086795500001
   624   2      47.922214701923075      26.782530644452141     -1.6791086795500001
   625   2      50.861443870307689      25.233128045186316      1.6791086795500001
   626   2      50.861443870307689      25.233128045186316     -1.6791086795500001
   627   2      53.800673038692295      23.683725445920484      1.6791086795500001
   628   2      53.800673038692295      23.683725445920484     -1.6791086795500001
   629   2      36.037505455846151      36.300289468513647      1.6791086795500001
   630   2      36.037505455846151      36.300289468513647     -1.6791086795500001
   631   2      38.976734624230765      34.750886869247822      1.6791086795500001
   632   2      38.976734624230765      34.750886869247822     -1.6791086795500001
   633   2      41.915963792615379      33.201484269981989      1.6791086795500001
   634   2      41.915963792615379      33.201484269981989     -1.6791086795500001
   635   2      44.855192960999993      31.652081670716168      1.6791086795500001
   636   2      44.855192960999993      31.652081670716168     -1.6791086795500001
   637   2      47.794422129384614      30.102679071450343      1.6791086795500001
   638   2      47.794422129384614      30.102679071450343     -1.6791086795500001
   639   2      50.733651297769228      28.553276472184514      1.6791086795500001
   640   2      50.733651297769228      28.553276472184514     -1.6791086795500001
   641   2      53.672880466153842      27.003873872918689      1.6791086795500001
   642   2      53.672880466153842      27.003873872918689     -1.6791086795500001
   643   2      56.612109634538456       25.45447127365286      1.6791086795500001
   644   2      56.612109634538456       25.45447127365286     -1.6791086795500001
   645   2      41.788171220076912      36.521632696980191      1.6791086795500001
   646   2      41.788171220076912      36.521632696980191     -1.6791086795500001
   647   2      44.727400388461533      34.972230097714366      1.6791086795500001
   648   2      44.727400388461533      34.972230097714366     -1.6791086795500001
   649   2      47.666629556846139      33.422827498448534      1.6791086795500001
   650   2      47.666629556846139      33.422827498448534     -1.6791086795500001
   651   2       50.60585872523076      31.873424899182712      1.6791086795500001
   652   2       50.60585872523076      31.873424899182712     -1.6791086795500001
   653   2      53.545087893615381      30.324022299916887      1.6791086795500001
   654   2      53.545087893615381      30.324022299916887     -1.6791086795500001
   655   2      56.484317061999988      28.774619700651058      1.6791086795500001
   656   2      56.484317061999988      28.774619700651058     -1.6791086795500001
   657   2      47.538836984307686      36.742975925446736      1.6791086795500001
   658   2      47.538836984307686      36.742975925446736     -1.6791086795500001
   659   2        50.4780661526923       35.19357332618091      1.6791086795500001
   660   2        50.4780661526923       35.19357332618091     -1.6791086795500001
   661   2      53.417295321076914      33.644170726915085      1.6791086795500001
   662   2      53.417295321076914      33.644170726915085     -1.6791086795500001
   663   2      56.356524489461535      32.094768127649267      1.6791086795500001
   664   2      56.356524489461535      32.094768127649267     -1.6791086795500001
   665   2      59.295753657846141      30.545365528383428      1.6791086795500001
   666   2      59.295753657846141      30.545365528383428     -1.6791086795500001
   667   2      53.289502748538453      36.964319153913287      1.6791086795500001
   668   2      53.289502748538453      36.964319153913287     -1.6791086795500001
   669   2      56.228731916923067      35.414916554647455      1.6791086795500001
   670   2      56.228731916923067      35.414916554647455     -1.6791086795500001
   671   2      59.167961085307681       33.86551395538163      1.6791086795500001
   672   2      59.167961085307681       33.86551395538163     -1.6791086795500001
   673   2       59.04016851276922      37.185662382379832      1.6791086795500001
   674   2       59.04016851276922      37.185662382379832     -1.6791086795500001
   675   2      61.979397681153834      35.636259783114006      1.6791086795500001
   676   2      61.979397681153834      35.636259783114006     -1.6791086795500001
   677   2      4.7895748784533438      1.5812725315696923      8.1791086795499996
   678   2      4.7895748784533438      1.5812725315696923      4.8208913204500004
   679   2      4.9173674509918017      4.9014209585678925      8.1791086795499996
   680   2      4.9173674509918017      4.9014209585678925      4.8208913204500004
   681   2      7.7288040468379577      3.1306751308355225      8.1791086795499996
   682   2      7.7288040468379577      3.1306751308355225      4.8208913204500004
   683   2      10.540240642684113       1.359929303103153      8.1791086795499996
   684   2      10.540240642684113       1.359929303103153      4.8208913204500004
   685   2      7.8565966193764165       6.450823557833723      8.1791086795499996
   686   2      7.8565966193764165       6.450823557833723      4.8208913204500004
   687   2       10.66803321522257      4.6800777301013525      8.1791086795499996
   688   2       10.66803321522257      4.6800777301013525      4.8208913204500004
   689   2      13.479469811068727      2.9093319023689825      8.1791086795499996
   690   2      13.479469811068727      2.9093319023689825      4.8208913204500004
   691   2      16.290906406914882      1.1385860746366137      8.1791086795499996
   692   2      16.290906406914882      1.1385860746366137      4.8208913204500004
   693   2      7.9843891919148735      9.7709719848319221      8.1791086795499996
   694   2      7.9843891919148735      9.7709719848319221      4.8208913204500004
   695   2      10.795825787761027      8.0002261570995525      8.1791086795499996
   696   2      10.795825787761027      8.0002261570995525      4.8208913204500004
   697   2      13.607262383607186      6.2294803293671839      8.1791086795499996
   698   2      13.607262383607186      6.2294803293671839      4.8208913204500004
   699   2      16.418698979453342      4.4587345016348143      8.1791086795499996
   700   2      16.418698979453342      4.4587345016348143      4.8208913204500004
   701   2      19.230135575299496      2.6879886739024439      8.1791086795499996
   702   2      19.230135575299496      2.6879886739024439      4.8208913204500004
   703   2      22.041572171145649     0.91724284617007501      8.1791086795499996
   704   2      22.041572171145649     0.91724284617007501      4.8208913204500004
   705   2      10.923618360299486      11.320374584097753      8.1791086795499996
   706   2      10.923618360299486      11.320374584097753      4.8208913204500004
   707   2      13.735054956145643       9.549628756365383      8.1791086795499996
   708   2      13.735054956145643       9.549628756365383      4.8208913204500004
   709   2      16.546491551991796      7.7788829286330134      8.1791086795499996
   710   2      16.546491551991796      7.7788829286330134      4.8208913204500004
   711   2      19.357928147837953       6.008137100900643      8.1791086795499996
   712   2      19.357928147837953       6.008137100900643      4.8208913204500004
   713   2      22.169364743684113      4.2373912731682744      8.1791086795499996
   714   2      22.169364743684113      4.2373912731682744      4.8208913204500004
   715   2      24.980801339530267      2.4666454454359052      8.1791086795499996
   716   2      24.980801339530267      2.4666454454359052      4.8208913204500004
   717   2       27.79223793537642     0.69589961770353481      8.1791086795499996
   718   2       27.79223793537642     0.69589961770353481      4.8208913204500004
   719   2      11.051410932837941      14.640523011095953      8.1791086795499996
   720   2      11.051410932837941      14.640523011095953      4.8208913204500004
   721   2        13.8628475286841      12.869777183363583      8.1791086795499996
   722   2        13.8628475286841      12.869777183363583      4.8208913204500004
   723   2      16.674284124530256      11.099031355631213      8.1791086795499996
   724   2      16.674284124530256      11.099031355631213      4.8208913204500004
   725   2       19.48572072037641      9.3282855278988439      8.1791086795499996
   726   2       19.48572072037641      9.3282855278988439      4.8208913204500004
   727   2      22.297157316222563      7.5575397001664735      8.1791086795499996
   728   2      22.297157316222563      7.5575397001664735      4.8208913204500004
   729   2      25.108593912068724      5.7867938724341013      8.1791086795499996
   730   2      25.108593912068724      5.7867938724341013      4.8208913204500004
   731   2      27.920030507914881      4.0160480447017335      8.1791086795499996
   732   2      27.920030507914881      4.0160480447017335      4.8208913204500004
   733   2      30.731467103761034      2.2453022169693635      8.1791086795499996
   734   2      30.731467103761034      2.2453022169693635      4.8208913204500004
   735   2      33.542903699607187     0.47455638923699439      8.1791086795499996
   736   2      33.542903699607187     0.47455638923699439      4.8208913204500004
   737   2      13.990640101222557      16.189925610361783      8.1791086795499996
   738   2      13.990640101222557      16.189925610361783      4.8208913204500004
   739   2      16.802076697068713      14.419179782629415      8.1791086795499996
   740   2      16.802076697068713      14.419179782629415      4.8208913204500004
   741   2       19.61351329291487      12.648433954897044      8.1791086795499996
   742   2       19.61351329291487      12.648433954897044      4.8208913204500004
   743   2      22.424949888761027      10.877688127164674      8.1791086795499996
   744   2      22.424949888761027      10.877688127164674      4.8208913204500004
   745   2      25.236386484607181       9.106942299432303      8.1791086795499996
   746   2      25.236386484607181       9.106942299432303      4.8208913204500004
   747   2      28.047823080453334      7.3361964716999344      8.1791086795499996
   748   2      28.047823080453334      7.3361964716999344      4.8208913204500004
   749   2      30.859259676299491      5.5654506439675657      8.1791086795499996
   750   2      30.859259676299491      5.5654506439675657      4.8208913204500004
   751   2      33.670696272145648      3.7947048162351935      8.1791086795499996
   752   2      33.670696272145648      3.7947048162351935      4.8208913204500004
   753   2      36.482132867991801      2.0239589885028266      8.1791086795499996
   754   2      36.482132867991801      2.0239589885028266      4.8208913204500004
   755   2      39.293569463837962      0.2532131607704578      8.1791086795499996
   756   2      39.293569463837962      0.2532131607704578      4.8208913204500004
   757   2      14.118432673761012      19.510074037359985      8.1791086795499996
   758   2      14.118432673761012      19.510074037359985      4.8208913204500004
   759   2       16.92986926960717      17.739328209627612      8.1791086795499996
   760   2       16.92986926960717      17.739328209627612      4.8208913204500004
   761   2      19.741305865453324      15.968582381895242      8.1791086795499996
   762   2      19.741305865453324      15.968582381895242      4.8208913204500004
   763   2      22.552742461299481      14.197836554162873      8.1791086795499996
   764   2      22.552742461299481      14.197836554162873      4.8208913204500004
   765   2      25.364179057145634      12.427090726430503      8.1791086795499996
   766   2      25.364179057145634      12.427090726430503      4.8208913204500004
   767   2      28.175615652991794      10.656344898698132      8.1791086795499996
   768   2      28.175615652991794      10.656344898698132      4.8208913204500004
   769   2      30.987052248837951      8.8855990709657657      8.1791086795499996
   770   2      30.987052248837951      8.8855990709657657      4.8208913204500004
   771   2      33.798488844684108      7.1148532432333962      8.1791086795499996
   772   2      33.798488844684108      7.1148532432333962      4.8208913204500004
   773   2      36.609925440530262       5.344107415501024      8.1791086795499996
   774   2      36.609925440530262       5.344107415501024      4.8208913204500004
   775   2      39.421362036376415      3.5733615877686566      8.1791086795499996
   776   2      39.421362036376415      3.5733615877686566      4.8208913204500004
   777   2      42.232798632222568      1.8026157600362875      8.1791086795499996
   778   2      42.232798632222568      1.8026157600362875      4.8208913204500004
   779   2      17.057661842145624       21.05947663662581      8.1791086795499996
   780   2      17.057661842145624       21.05947663662581      4.8208913204500004
   781   2      19.869098437991781       19.28873080889344      8.1791086795499996
   782   2      19.869098437991781       19.28873080889344      4.8208913204500004
   783   2      22.680535033837941      17.517984981161074      8.1791086795499996
   784   2      22.680535033837941      17.517984981161074      4.8208913204500004
   785   2      25.491971629684095      15.747239153428703      8.1791086795499996
   786   2      25.491971629684095      15.747239153428703      4.8208913204500004
   787   2      28.303408225530248      13.976493325696332      8.1791086795499996
   788   2      28.303408225530248      13.976493325696332      4.8208913204500004
   789   2      31.114844821376408      12.205747497963962      8.1791086795499996
   790   2      31.114844821376408      12.205747497963962      4.8208913204500004
   791   2      33.926281417222562      10.435001670231593      8.1791086795499996
   792   2      33.926281417222562      10.435001670231593      4.8208913204500004
   793   2      36.737718013068715      8.6642558424992231      8.1791086795499996
   794   2      36.737718013068715      8.6642558424992231      4.8208913204500004
   795   2      39.549154608914876      6.8935100147668509      8.1791086795499996
   796   2      39.549154608914876      6.8935100147668509      4.8208913204500004
   797   2      42.360591204761029      5.1227641870344875      8.1791086795499996
   798   2      42.360591204761029      5.1227641870344875      4.8208913204500004
   799   2      45.172027800607189      3.3520183593021149      8.1791086795499996
   800   2      45.172027800607189      3.3520183593021149      4.8208913204500004
   801   2      17.185454414684084      24.379625063624012      8.1791086795499996
   802   2      17.185454414684084      24.379625063624012      4.8208913204500004
   803   2      19.996891010530241      22.608879235891642      8.1791086795499996
   804   2      19.996891010530241      22.608879235891642      4.8208913204500004
   805   2      22.808327606376395      20.838133408159273      8.1791086795499996
   806   2      22.808327606376395      20.838133408159273      4.8208913204500004
   807   2      25.619764202222552      19.067387580426907      8.1791086795499996
   808   2      25.619764202222552      19.067387580426907      4.8208913204500004
   809   2      28.431200798068708      17.296641752694534      8.1791086795499996
   810   2      28.431200798068708      17.296641752694534      4.8208913204500004
   811   2      31.242637393914865      15.525895924962166      8.1791086795499996
   812   2      31.242637393914865      15.525895924962166      4.8208913204500004
   813   2      34.054073989761022      13.755150097229794      8.1791086795499996
   814   2      34.054073989761022      13.755150097229794      4.8208913204500004
   815   2      36.865510585607176      11.984404269497425      8.1791086795499996
   816   2      36.865510585607176      11.984404269497425      4.8208913204500004
   817   2      39.676947181453329      10.213658441765054      8.1791086795499996
   818   2      39.676947181453329      10.213658441765054      4.8208913204500004
   819   2      42.488383777299489      8.4429126140326876      8.1791086795499996
   820   2      42.488383777299489      8.4429126140326876      4.8208913204500004
   821   2       45.29982037314565      6.6721667863003171      8.1791086795499996
   822   2       45.29982037314565      6.6721667863003171      4.8208913204500004
   823   2      20.124683583068698      25.929027662889844      8.1791086795499996
   824   2      20.124683583068698      25.929027662889844      4.8208913204500004
   825   2      22.936120178914852      24.158281835157471      8.1791086795499996
   826   2      22.936120178914852      24.158281835157471      4.8208913204500004
   827   2      25.747556774761012      22.387536007425105      8.1791086795499996
   828   2      25.747556774761012      22.387536007425105      4.8208913204500004
   829   2      28.558993370607169      20.616790179692735      8.1791086795499996
   830   2      28.558993370607169      20.616790179692735      4.8208913204500004
   831   2      31.370429966453322      18.846044351960366      8.1791086795499996
   832   2      31.370429966453322      18.846044351960366      4.8208913204500004
   833   2      34.181866562299483      17.075298524227996      8.1791086795499996
   834   2      34.181866562299483      17.075298524227996      4.8208913204500004
   835   2      36.993303158145629      15.304552696495625      8.1791086795499996
   836   2      36.993303158145629      15.304552696495625      4.8208913204500004
   837   2       39.80473975399179      13.533806868763255      8.1791086795499996
   838   2       39.80473975399179      13.533806868763255      4.8208913204500004
   839   2       42.61617634983795      11.763061041030884      8.1791086795499996
   840   2       42.61617634983795      11.763061041030884      4.8208913204500004
   841   2      45.427612945684096      9.9923152132985145      8.1791086795499996
   842   2      45.427612945684096      9.9923152132985145      4.8208913204500004
   843   2      48.239049541530264      8.2215693855661485      8.1791086795499996
   844   2      48.239049541530264      8.2215693855661485      4.8208913204500004
   845   2      20.252476155607152      29.249176089888039      8.1791086795499996
   846   2      20.252476155607152      29.249176089888039      4.8208913204500004
   847   2      23.063912751453305      27.478430262155673      8.1791086795499996
   848   2      23.063912751453305      27.478430262155673      4.8208913204500004
   849   2      25.875349347299466      25.707684434423303      8.1791086795499996
   850   2      25.875349347299466      25.707684434423303      4.8208913204500004
   851   2      28.686785943145622      23.936938606690934      8.1791086795499996
   852   2      28.686785943145622      23.936938606690934      4.8208913204500004
   853   2      31.498222538991779      22.166192778958564      8.1791086795499996
   854   2      31.498222538991779      22.166192778958564      4.8208913204500004
   855   2      34.309659134837936      20.395446951226194      8.1791086795499996
   856   2      34.309659134837936      20.395446951226194      4.8208913204500004
   857   2       37.12109573068409      18.624701123493821      8.1791086795499996
   858   2       37.12109573068409      18.624701123493821      4.8208913204500004
   859   2      39.932532326530243      16.853955295761452      8.1791086795499996
   860   2      39.932532326530243      16.853955295761452      4.8208913204500004
   861   2      42.743968922376403      15.083209468029082      8.1791086795499996
   862   2      42.743968922376403      15.083209468029082      4.8208913204500004
   863   2       45.55540551822255      13.312463640296711      8.1791086795499996
   864   2       45.55540551822255      13.312463640296711      4.8208913204500004
   865   2       48.36684211406871      11.541717812564343      8.1791086795499996
   866   2       48.36684211406871      11.541717812564343      4.8208913204500004
   867   2      23.191705323991766      30.798578689153871      8.1791086795499996
   868   2      23.191705323991766      30.798578689153871      4.8208913204500004
   869   2      26.003141919837923      29.027832861421501      8.1791086795499996
   870   2      26.003141919837923      29.027832861421501      4.8208913204500004
   871   2      28.814578515684076      27.257087033689128      8.1791086795499996
   872   2      28.814578515684076      27.257087033689128      4.8208913204500004
   873   2       31.62601511153024      25.486341205956766      8.1791086795499996
   874   2       31.62601511153024      25.486341205956766      4.8208913204500004
   875   2       34.43745170737639      23.715595378224393      8.1791086795499996
   876   2       34.43745170737639      23.715595378224393      4.8208913204500004
   877   2       37.24888830322255      21.944849550492027      8.1791086795499996
   878   2       37.24888830322255      21.944849550492027      4.8208913204500004
   879   2      40.060324899068704      20.174103722759654      8.1791086795499996
   880   2      40.060324899068704      20.174103722759654      4.8208913204500004
   881   2      42.871761494914857      18.403357895027284      8.1791086795499996
   882   2      42.871761494914857      18.403357895027284      4.8208913204500004
   883   2      45.683198090761017      16.632612067294914      8.1791086795499996
   884   2      45.683198090761017      16.632612067294914      4.8208913204500004
   885   2      48.494634686607171      14.861866239562545      8.1791086795499996
   886   2      48.494634686607171      14.861866239562545      4.8208913204500004
   887   2      51.306071282453331      13.091120411830177      8.1791086795499996
   888   2      51.306071282453331      13.091120411830177      4.8208913204500004
   889   2      23.319497896530223      34.118727116152073      8.1791086795499996
   890   2      23.319497896530223      34.118727116152073      4.8208913204500004
   891   2       26.13093449237638      32.347981288419703      8.1791086795499996
   892   2       26.13093449237638      32.347981288419703      4.8208913204500004
   893   2      28.942371088222536      30.577235460687334      8.1791086795499996
   894   2      28.942371088222536      30.577235460687334      4.8208913204500004
   895   2      31.753807684068697      28.806489632954968      8.1791086795499996
   896   2      31.753807684068697      28.806489632954968      4.8208913204500004
   897   2       34.56524427991485      27.035743805222594      8.1791086795499996
   898   2       34.56524427991485      27.035743805222594      4.8208913204500004
   899   2      37.376680875761011      25.264997977490225      8.1791086795499996
   900   2      37.376680875761011      25.264997977490225      4.8208913204500004
   901   2      40.188117471607164      23.494252149757855      8.1791086795499996
   902   2      40.188117471607164      23.494252149757855      4.8208913204500004
   903   2      42.999554067453317      21.723506322025486      8.1791086795499996
   904   2      42.999554067453317      21.723506322025486      4.8208913204500004
   905   2      45.810990663299478      19.952760494293116      8.1791086795499996
   906   2      45.810990663299478      19.952760494293116      4.8208913204500004
   907   2      48.622427259145631      18.182014666560743      8.1791086795499996
   908   2      48.622427259145631      18.182014666560743      4.8208913204500004
   909   2      51.433863854991785      16.411268838828377      8.1791086795499996
   910   2      51.433863854991785      16.411268838828377      4.8208913204500004
   911   2      23.447290469068676      37.438875543150274      8.1791086795499996
   912   2      23.447290469068676      37.438875543150274      4.8208913204500004
   913   2      26.258727064914833      35.668129715417898      8.1791086795499996
   914   2      26.258727064914833      35.668129715417898      4.8208913204500004
   915   2      29.070163660760993      33.897383887685528      8.1791086795499996
   916   2      29.070163660760993      33.897383887685528      4.8208913204500004
   917   2      31.881600256607143      32.126638059953159      8.1791086795499996
   918   2      31.881600256607143      32.126638059953159      4.8208913204500004
   919   2      34.693036852453311      30.355892232220796      8.1791086795499996
   920   2      34.693036852453311      30.355892232220796      4.8208913204500004
   921   2      37.504473448299457      28.585146404488423      8.1791086795499996
   922   2      37.504473448299457      28.585146404488423      4.8208913204500004
   923   2      40.315910044145618      26.814400576756054      8.1791086795499996
   924   2      40.315910044145618      26.814400576756054      4.8208913204500004
   925   2      43.127346639991771      25.043654749023684      8.1791086795499996
   926   2      43.127346639991771      25.043654749023684      4.8208913204500004
   927   2      45.938783235837924      23.272908921291314      8.1791086795499996
   928   2      45.938783235837924      23.272908921291314      4.8208913204500004
   929   2      48.750219831684085      21.502163093558941      8.1791086795499996
   930   2      48.750219831684085      21.502163093558941      4.8208913204500004
   931   2      51.561656427530238      19.731417265826575      8.1791086795499996
   932   2      51.561656427530238      19.731417265826575      4.8208913204500004
   933   2      54.373093023376391      17.960671438094202      8.1791086795499996
   934   2      54.373093023376391      17.960671438094202      4.8208913204500004
   935   2      29.197956233299447       37.21753231468373      8.1791086795499996
   936   2      29.197956233299447       37.21753231468373      4.8208913204500004
   937   2      32.009392829145604       35.44678648695136      8.1791086795499996
   938   2      32.009392829145604       35.44678648695136      4.8208913204500004
   939   2      34.820829424991764      33.676040659218991      8.1791086795499996
   940   2      34.820829424991764      33.676040659218991      4.8208913204500004
   941   2      37.632266020837918      31.905294831486621      8.1791086795499996
   942   2      37.632266020837918      31.905294831486621      4.8208913204500004
   943   2      40.443702616684078      30.134549003754252      8.1791086795499996
   944   2      40.443702616684078      30.134549003754252      4.8208913204500004
   945   2      43.255139212530231      28.363803176021886      8.1791086795499996
   946   2      43.255139212530231      28.363803176021886      4.8208913204500004
   947   2      46.066575808376385      26.593057348289513      8.1791086795499996
   948   2      46.066575808376385      26.593057348289513      4.8208913204500004
   949   2      48.878012404222545      24.822311520557147      8.1791086795499996
   950   2      48.878012404222545      24.822311520557147      4.8208913204500004
   951   2      51.689449000068699      23.051565692824774      8.1791086795499996
   952   2      51.689449000068699      23.051565692824774      4.8208913204500004
   953   2      54.500885595914852      21.280819865092404      8.1791086795499996
   954   2      54.500885595914852      21.280819865092404      4.8208913204500004
   955   2      34.948621997530218      36.996189086217193      8.1791086795499996
   956   2      34.948621997530218      36.996189086217193      4.8208913204500004
   957   2      37.760058593376378      35.225443258484823      8.1791086795499996
   958   2      37.760058593376378      35.225443258484823      4.8208913204500004
   959   2      40.571495189222532      33.454697430752454      8.1791086795499996
   960   2      40.571495189222532      33.454697430752454      4.8208913204500004
   961   2      43.382931785068692      31.683951603020088      8.1791086795499996
   962   2      43.382931785068692      31.683951603020088      4.8208913204500004
   963   2      46.194368380914852      29.913205775287715      8.1791086795499996
   964   2      46.194368380914852      29.913205775287715      4.8208913204500004
   965   2      49.005804976760999      28.142459947555349      8.1791086795499996
   966   2      49.005804976760999      28.142459947555349      4.8208913204500004
   967   2      51.817241572607159      26.371714119822975      8.1791086795499996
   968   2      51.817241572607159      26.371714119822975      4.8208913204500004
   969   2      54.628678168453312      24.600968292090606      8.1791086795499996
   970   2      54.628678168453312      24.600968292090606      4.8208913204500004
   971   2      57.440114764299466      22.830222464358229      8.1791086795499996
   972   2      57.440114764299466      22.830222464358229      4.8208913204500004
   973   2      40.699287761760985      36.774845857750648      8.1791086795499996
   974   2      40.699287761760985      36.774845857750648      4.8208913204500004
   975   2      43.510724357607145      35.004100030018286      8.1791086795499996
   976   2      43.510724357607145      35.004100030018286      4.8208913204500004
   977   2      46.322160953453306      33.233354202285916      8.1791086795499996
   978   2      46.322160953453306      33.233354202285916      4.8208913204500004
   979   2      49.133597549299452      31.462608374553543      8.1791086795499996
   980   2      49.133597549299452      31.462608374553543      4.8208913204500004
   981   2      51.945034145145613      29.691862546821174      8.1791086795499996
   982   2      51.945034145145613      29.691862546821174      4.8208913204500004
   983   2      54.756470740991773      27.921116719088804      8.1791086795499996
   984   2      54.756470740991773      27.921116719088804      4.8208913204500004
   985   2      57.567907336837919      26.150370891356435      8.1791086795499996
   986   2      57.567907336837919      26.150370891356435      4.8208913204500004
   987   2      46.449953525991752      36.553502629284111      8.1791086795499996
   988   2      46.449953525991752      36.553502629284111      4.8208913204500004
   989   2       49.26139012183792      34.782756801551749      8.1791086795499996
   990   2       49.26139012183792      34.782756801551749      4.8208913204500004
   991   2      52.072826717684073      33.012010973819372      8.1791086795499996
   992   2      52.072826717684073      33.012010973819372      4.8208913204500004
   993   2      54.884263313530226      31.241265146087002      8.1791086795499996
   994   2      54.884263313530226      31.241265146087002      4.8208913204500004
   995   2       57.69569990937638      29.470519318354636      8.1791086795499996
   996   2       57.69569990937638      29.470519318354636      4.8208913204500004
   997   2       60.50713650522254      27.699773490622267      8.1791086795499996
   998   2       60.50713650522254      27.699773490622267      4.8208913204500004
   999   2      52.200619290222527      36.332159400817574      8.1791086795499996
  1000   2      52.200619290222527      36.332159400817574      4.8208913204500004
  1001   2       55.01205588606868      34.561413573085204      8.1791086795499996
  1002   2       55.01205588606868      34.561413573085204      4.8208913204500004
  1003   2       57.82349248191484      32.790667745352835      8.1791086795499996
  1004   2       57.82349248191484      32.790667745352835      4.8208913204500004
  1005   2      60.634929077760987      31.019921917620461      8.1791086795499996
  1006   2      60.634929077760987      31.019921917620461      4.8208913204500004
  1007   2      57.951285054453287      36.110816172351029      8.1791086795499996
  1008   2      57.951285054453287      36.110816172351029      4.8208913204500004
  1009   2      60.762721650299447       34.34007034461866      8.1791086795499996
  1010   2      60.762721650299447       34.34007034461866      4.8208913204500004
  1011   2      63.574158246145601       32.56932451688629      8.1791086795499996
  1012   2      63.574158246145601       32.56932451688629      4.8208913204500004
  1013   2      63.701950818684061      35.889472943884492      8.1791086795499996
  1014   2      63.701950818684061      35.889472943884492      4.8208913204500004
