rigid_bilayers/data_MoS2_WS2_AP_10 (written by ASE) 

1986 	 atoms 
3  atom types
0.0      58.011562189490981  xlo xhi
0.0      50.239486569319986  ylo yhi
0.0                      30  zlo zhi
     29.005781094745466                       0                       0  xy xz yz


Atoms 

     1   1     0.87630758594397218      1.6189965460405236                       0
     2   1      3.6804918609646835     0.10118728412753258                       0
     3   1      3.5928611023702857       3.288586734144813                       0
     4   1       6.397045377390997      1.7707774722318221                       0
     5   1      9.2012296524117083     0.25296821031883138                       0
     6   1      3.5052303437758887      6.4759861841620934                       0
     7   1         6.3094146187966      4.9581769222491028                       0
     8   1      9.1135988938173096      3.4403676603361109                       0
     9   1      11.917783168838021      1.9225583984231203                       0
    10   1      14.721967443858734     0.40474913651013034                       0
    11   1      6.2217838602022004      8.1455763722663814                       0
    12   1      9.0259681352229126      6.6277671103533917                       0
    13   1      11.830152410243626      5.1099578484404011                       0
    14   1      14.634336685264337       3.592148586527411                       0
    15   1      17.438520960285047      2.0743393246144182                       0
    16   1       20.24270523530576     0.55653006270142769                       0
    17   1      6.1341531016078044      11.332975822283663                       0
    18   1      8.9383373766285175      9.8151665603706721                       0
    19   1      11.742521651649229      8.2973572984576833                       0
    20   1      14.546705926669938      6.7795480365446892                       0
    21   1       17.35089020169065      5.2617387746316995                       0
    22   1      20.155074476711359      3.7439295127187089                       0
    23   1      22.959258751732069      2.2261202508057165                       0
    24   1      25.763443026752782     0.70831098889272581                       0
    25   1      8.8507066180341205      13.002566010387953                       0
    26   1       11.65489089305483      11.484756748474961                       0
    27   1      14.459075168075541      9.9669474865619705                       0
    28   1      17.263259443096253      8.4491382246489799                       0
    29   1      20.067443718116962      6.9313289627359884                       0
    30   1      22.871627993137672      5.4135197008229978                       0
    31   1      25.675812268158385      3.8957104389100072                       0
    32   1      28.479996543179098      2.3779011769970166                       0
    33   1      31.284180818199811     0.86009191508402727                       0
    34   1      8.7630758594397218      16.189965460405233                       0
    35   1       11.56726013446043      14.672156198492241                       0
    36   1      14.371444409481141       13.15434693657925                       0
    37   1      17.175628684501852      11.636537674666259                       0
    38   1      19.979812959522565      10.118728412753269                       0
    39   1      22.783997234543278      8.6009191508402782                       0
    40   1      25.588181509563984      7.0831098889272868                       0
    41   1      28.392365784584698      5.5653006270142962                       0
    42   1      31.196550059605411      4.0474913651013056                       0
    43   1      34.000734334626117      2.5296821031883145                       0
    44   1      36.804918609646833      1.0118728412753188                       0
    45   1      11.479629375866036      17.859555648509524                       0
    46   1      14.283813650886744       16.34174638659653                       0
    47   1      17.087997925907455      14.823937124683541                       0
    48   1      19.892182200928168       13.30612786277055                       0
    49   1      22.696366475948881       11.78831860085756                       0
    50   1      25.500550750969595      10.270509338944569                       0
    51   1      28.304735025990301      8.7527000770315784                       0
    52   1      31.108919301011014      7.2348908151185869                       0
    53   1      33.913103576031723      5.7170815532055927                       0
    54   1      36.717287851052433      4.1992722912926048                       0
    55   1      39.521472126073149      2.6814630293796098                       0
    56   1      42.325656401093859      1.1636537674666252                       0
    57   1      11.391998617271639      21.046955098526805                       0
    58   1      14.196182892292352      19.529145836613814                       0
    59   1      17.000367167313062       18.01133657470082                       0
    60   1      19.804551442333771       16.49352731278783                       0
    61   1      22.608735717354485      14.975718050874841                       0
    62   1      25.412919992375198       13.45790878896185                       0
    63   1      28.217104267395911       11.94009952704886                       0
    64   1       31.02128854241662      10.422290265135869                       0
    65   1      33.825472817437337      8.9044810032228803                       0
    66   1      36.629657092458039      7.3866717413098835                       0
    67   1      39.433841367478749      5.8688624793968955                       0
    68   1      42.238025642499458      4.3510532174839005                       0
    69   1      45.042209917520168      2.8332439555709161                       0
    70   1      47.846394192540885       1.315434693657922                       0
    71   1      14.108552133697952      22.716545286631092                       0
    72   1      16.912736408718665      21.198736024718102                       0
    73   1      19.716920683739378      19.680926762805111                       0
    74   1      22.521104958760084       18.16311750089212                       0
    75   1      25.325289233780797       16.64530823897913                       0
    76   1      28.129473508801507      15.127498977066136                       0
    77   1       30.93365778382222      13.609689715153147                       0
    78   1      33.737842058842929      12.091880453240156                       0
    79   1      36.542026333863646      10.574071191327167                       0
    80   1      39.346210608884348      9.0562619294141733                       0
    81   1      42.150394883905065      7.5384526675011863                       0
    82   1      44.954579158925768      6.0206434055881877                       0
    83   1      47.758763433946477      4.5028341436752033                       0
    84   1      50.562947708967194      2.9850248817622091                       0
    85   1       53.36713198398791      1.4672156198492186                       0
    86   1      14.020921375103551      25.903944736648373                       0
    87   1      16.825105650124264      24.386135474735383                       0
    88   1      19.629289925144978      22.868326212822392                       0
    89   1      22.433474200165687      21.350516950909398                       0
    90   1      25.237658475186397      19.832707688996408                       0
    91   1       28.04184275020711      18.314898427083421                       0
    92   1      30.846027025227823      16.797089165170426                       0
    93   1      33.650211300248536      15.279279903257438                       0
    94   1      36.454395575269245      13.761470641344447                       0
    95   1      39.258579850289948      12.243661379431455                       0
    96   1      42.062764125310657       10.72585211751846                       0
    97   1      44.866948400331374      9.2080428556054734                       0
    98   1      47.671132675352084      7.6902335936924784                       0
    99   1      50.475316950372793       6.172424331779494                       0
   100   1       53.27950122539351      4.6546150698664999                       0
   101   1      56.083685500414227      3.1368058079535057                       0
   102   1      16.737474891529867      27.573534924752664                       0
   103   1      19.541659166550581      26.055725662839674                       0
   104   1       22.34584344157129      24.537916400926679                       0
   105   1      25.150027716592003      23.020107139013689                       0
   106   1      27.954211991612713      21.502297877100698                       0
   107   1      30.758396266633426      19.984488615187711                       0
   108   1      33.562580541654135      18.466679353274717                       0
   109   1      36.366764816674845       16.94887009136173                       0
   110   1      39.170949091695562      15.431060829448738                       0
   111   1      41.975133366716264      13.913251567535745                       0
   112   1      44.779317641736974      12.395442305622751                       0
   113   1       47.58350191675769      10.877633043709764                       0
   114   1        50.3876861917784      9.3598237817967682                       0
   115   1      53.191870466799109      7.8420145198837812                       0
   116   1      55.996054741819826      6.3242052579707906                       0
   117   1      58.800239016840543      4.8063959960577964                       0
   118   1      16.649844132935478      30.760934374769942                       0
   119   1      19.454028407956187      29.243125112856955                       0
   120   1        22.2582126829769      27.725315850943964                       0
   121   1      25.062396957997606       26.20750658903097                       0
   122   1      27.866581233018319       24.68969732711798                       0
   123   1      30.670765508039025      23.171888065204989                       0
   124   1      33.474949783059742      21.654078803292002                       0
   125   1      36.279134058080452      20.136269541379008                       0
   126   1      39.083318333101161      18.618460279466021                       0
   127   1      41.887502608121878      17.100651017553027                       0
   128   1       44.69168688314258      15.582841755640036                       0
   129   1       47.49587115816329      14.065032493727042                       0
   130   1      50.300055433184006      12.547223231814051                       0
   131   1      53.104239708204716      11.029413969901059                       0
   132   1      55.908423983225426      9.5116047079880719                       0
   133   1      58.712608258246142      7.9937954460750813                       0
   134   1      19.366397649361787      32.430524562874233                       0
   135   1      22.170581924382496      30.912715300961242                       0
   136   1      24.974766199403202      29.394906039048248                       0
   137   1      27.778950474423912      27.877096777135257                       0
   138   1      30.583134749444625      26.359287515222267                       0
   139   1      33.387319024465334      24.841478253309276                       0
   140   1      36.191503299486051      23.323668991396289                       0
   141   1      38.995687574506761      21.805859729483295                       0
   142   1       41.79987184952747      20.288050467570308                       0
   143   1      44.604056124548187      18.770241205657314                       0
   144   1      47.408240399568896      17.252431943744323                       0
   145   1      50.212424674589599      15.734622681831329                       0
   146   1      53.016608949610315      14.216813419918338                       0
   147   1      55.820793224631025      12.699004158005346                       0
   148   1      58.624977499651735      11.181194896092359                       0
   149   1      61.429161774672451      9.6633856341793685                       0
   150   1       19.27876689076739      35.617924012891514                       0
   151   1      22.082951165788103       34.10011475097852                       0
   152   1      24.887135440808809      32.582305489065533                       0
   153   1      27.691319715829515      31.064496227152539                       0
   154   1      30.495503990850228      29.546686965239548                       0
   155   1      33.299688265870941      28.028877703326557                       0
   156   1      36.103872540891651      26.511068441413567                       0
   157   1      38.908056815912367       24.99325917950058                       0
   158   1      41.712241090933077      23.475449917587586                       0
   159   1      44.516425365953786      21.957640655674595                       0
   160   1      47.320609640974503      20.439831393761605                       0
   161   1      50.124793915995213      18.922022131848614                       0
   162   1      52.928978191015915       17.40421286993562                       0
   163   1      55.733162466036632      15.886403608022629                       0
   164   1      58.537346741057341      14.368594346109637                       0
   165   1      61.341531016078051       12.85078508419665                       0
   166   1      21.995320407193702      37.287514200995801                       0
   167   1      24.799504682214415      35.769704939082814                       0
   168   1      27.603688957235125       34.25189567716982                       0
   169   1      30.407873232255831      32.734086415256833                       0
   170   1       33.21205750727654      31.216277153343839                       0
   171   1      36.016241782297257      29.698467891430848                       0
   172   1      38.820426057317967      28.180658629517858                       0
   173   1      41.624610332338683      26.662849367604867                       0
   174   1      44.428794607359393      25.145040105691876                       0
   175   1      47.232978882380102      23.627230843778886                       0
   176   1      50.037163157400819      22.109421581865895                       0
   177   1      52.841347432421529      20.591612319952905                       0
   178   1      55.645531707442231       19.07380305803991                       0
   179   1      58.449715982462948       17.55599379612692                       0
   180   1      61.253900257483657      16.038184534213929                       0
   181   1      64.058084532504367       14.52037527230094                       0
   182   1      21.907689648599305       40.47491365101309                       0
   183   1      24.711873923620018      38.957104389100095                       0
   184   1      27.516058198640732      37.439295127187101                       0
   185   1      30.320242473661441      35.921485865274114                       0
   186   1      33.124426748682147       34.40367660336112                       0
   187   1      35.928611023702857      32.885867341448126                       0
   188   1      38.732795298723573      31.368058079535135                       0
   189   1      41.536979573744283      29.850248817622148                       0
   190   1      44.341163848764999      28.332439555709158                       0
   191   1      47.145348123785709      26.814630293796167                       0
   192   1      49.949532398806419      25.296821031883177                       0
   193   1      52.753716673827135      23.779011769970186                       0
   194   1      55.557900948847845      22.261202508057195                       0
   195   1      58.362085223868547      20.743393246144201                       0
   196   1      61.166269498889264      19.225583984231211                       0
   197   1      63.970453773909981       17.70777472231822                       0
   198   1      24.624243165025621      42.144503839117377                       0
   199   1      27.428427440046335      40.626694577204383                       0
   200   1      30.232611715067048      39.108885315291396                       0
   201   1      33.036795990087761      37.591076053378401                       0
   202   1      35.840980265108463      36.073266791465407                       0
   203   1      38.645164540129173       34.55545752955242                       0
   204   1      41.449348815149889      33.037648267639426                       0
   205   1      44.253533090170599      31.519839005726439                       0
   206   1      47.057717365191316      30.002029743813448                       0
   207   1      49.861901640212025      28.484220481900458                       0
   208   1      52.666085915232735      26.966411219987467                       0
   209   1      55.470270190253451      25.448601958074477                       0
   210   1      58.274454465274161       23.93079269616149                       0
   211   1      61.078638740294871      22.412983434248492                       0
   212   1      63.882823015315587      20.895174172335505                       0
   213   1      66.687007290336297      19.377364910422514                       0
   214   1      24.536612406431221      45.331903289134651                       0
   215   1      27.340796681451931      43.814094027221664                       0
   216   1      30.144980956472644       42.29628476530867                       0
   217   1      32.949165231493353      40.778475503395676                       0
   218   1       35.75334950651407      39.260666241482689                       0
   219   1      38.557533781534779      37.742856979569702                       0
   220   1      41.361718056555482      36.225047717656707                       0
   221   1      44.165902331576198      34.707238455743713                       0
   222   1      46.970086606596908      33.189429193830726                       0
   223   1      49.774270881617625      31.671619931917736                       0
   224   1      52.578455156638334      30.153810670004745                       0
   225   1      55.382639431659044      28.636001408091754                       0
   226   1      58.186823706679753      27.118192146178757                       0
   227   1      60.991007981700463       25.60038288426577                       0
   228   1      63.795192256721172      24.082573622352779                       0
   229   1      66.599376531741882      22.564764360439792                       0
   230   1      27.253165922857537      47.001493477238938                       0
   231   1      30.057350197878247      45.483684215325951                       0
   232   1       32.86153447289896      43.965874953412964                       0
   233   1      35.665718747919669       42.44806569149997                       0
   234   1      38.469903022940386      40.930256429586983                       0
   235   1      41.274087297961096      39.412447167673989                       0
   236   1      44.078271572981798      37.894637905760995                       0
   237   1      46.882455848002515      36.376828643848008                       0
   238   1      49.686640123023224      34.859019381935013                       0
   239   1      52.490824398043941      33.341210120022026                       0
   240   1      55.295008673064643      31.823400858109029                       0
   241   1      58.099192948085353      30.305591596196042                       0
   242   1      60.903377223106069      28.787782334283051                       0
   243   1      63.707561498126779      27.269973072370064                       0
   244   1      66.511745773147496      25.752163810457066                       0
   245   1      69.315930048168198      24.234354548544079                       0
   246   1      27.165535164263133      50.188892927256219                       0
   247   1      29.969719439283846      48.671083665343225                       0
   248   1      32.773903714304552      47.153274403430238                       0
   249   1      35.578087989325269      45.635465141517251                       0
   250   1      38.382272264345978      44.117655879604257                       0
   251   1      41.186456539366695       42.59984661769127                       0
   252   1      43.990640814387397      41.082037355778276                       0
   253   1      46.794825089408107      39.564228093865282                       0
   254   1      49.599009364428824      38.046418831952295                       0
   255   1      52.403193639449533      36.528609570039301                       0
   256   1       55.20737791447025      35.010800308126313                       0
   257   1      58.011562189490959      33.492991046213326                       0
   258   1      60.815746464511669      31.975181784300336                       0
   259   1      63.619930739532386      30.457372522387338                       0
   260   1      66.424115014553095      28.939563260474351                       0
   261   1      69.228299289573812      27.421753998561361                       0
   262   1      35.490457230730868      48.822864591534533                       0
   263   1      38.294641505751585      47.305055329621538                       0
   264   1      41.098825780772295      45.787246067708544                       0
   265   1      43.903010055793011      44.269436805795557                       0
   266   1      46.707194330813714       42.75162754388257                       0
   267   1      49.511378605834423      41.233818281969569                       0
   268   1       52.31556288085514      39.716009020056582                       0
   269   1      55.119747155875849      38.198199758143595                       0
   270   1      57.923931430896566      36.680390496230608                       0
   271   1      60.728115705917276      35.162581234317614                       0
   272   1      63.532299980937985      33.644771972404619                       0
   273   1      66.336484255958695      32.126962710491632                       0
   274   1      69.140668530979411      30.609153448578638                       0
   275   1      71.944852806000114      29.091344186665648                       0
   276   1      41.011195022177901      48.974645517725833                       0
   277   1      43.815379297198611      47.456836255812838                       0
   278   1       46.61956357221932      45.939026993899844                       0
   279   1       49.42374784724003      44.421217731986857                       0
   280   1      52.227932122260739      42.903408470073863                       0
   281   1      55.032116397281456      41.385599208160876                       0
   282   1      57.836300672302166      39.867789946247882                       0
   283   1      60.640484947322882      38.349980684334895                       0
   284   1      63.444669222343592      36.832171422421908                       0
   285   1      66.248853497364308      35.314362160508907                       0
   286   1      69.053037772385011       33.79655289859592                       0
   287   1      71.857222047405727      32.278743636682933                       0
   288   1       46.53193281362492      49.126426443917126                       0
   289   1      49.336117088645636      47.608617182004139                       0
   290   1      52.140301363666346      46.090807920091152                       0
   291   1      54.944485638687055       44.57299865817815                       0
   292   1      57.748669913707772      43.055189396265163                       0
   293   1      60.552854188728482      41.537380134352176                       0
   294   1      63.357038463749198      40.019570872439182                       0
   295   1      66.161222738769894      38.501761610526195                       0
   296   1      68.965407013790625      36.983952348613201                       0
   297   1      71.769591288811327      35.466143086700214                       0
   298   1      74.573775563832044       33.94833382478722                       0
   299   1      52.052670605071953      49.278207370108426                       0
   300   1      54.856854880092662      47.760398108195439                       0
   301   1      57.661039155113372      46.242588846282445                       0
   302   1      60.465223430134088       44.72477958436945                       0
   303   1      63.269407705154791      43.206970322456463                       0
   304   1      66.073591980175507      41.689161060543476                       0
   305   1       68.87777625519621      40.171351798630489                       0
   306   1      71.681960530216941      38.653542536717488                       0
   307   1      74.486144805237643      37.135733274804501                       0
   308   1      57.573408396518978      49.429988296299726                       0
   309   1      60.377592671539681      47.912179034386732                       0
   310   1      63.181776946560404      46.394369772473745                       0
   311   1      65.985961221581107      44.876560510560758                       0
   312   1      68.790145496601824      43.358751248647764                       0
   313   1      71.594329771622526      41.840941986734776                       0
   314   1      74.398514046643257      40.323132724821782                       0
   315   1      77.202698321663959      38.805323462908795                       0
   316   1      63.094146187965997      49.581769222491026                       0
   317   1      65.898330462986721      48.063959960578032                       0
   318   1      68.702514738007423      46.546150698665045                       0
   319   1       71.50669901302814      45.028341436752058                       0
   320   1      74.310883288048842      43.510532174839071                       0
   321   1      77.115067563069573       41.99272291292607                       0
   322   1      68.614883979413023      49.733550148682319                       0
   323   1      71.419068254433725      48.215740886769332                       0
   324   1      74.223252529454442      46.697931624856338                       0
   325   1      77.027436804475144      45.180122362943351                       0
   326   1      79.831621079495875      43.662313101030357                       0
   327   1      74.135621770860041      49.885331074873619                       0
   328   1      76.939806045880758      48.367521812960632                       0
   329   1       79.74399032090146      46.849712551047645                       0
   330   1      79.656359562307074      50.037112001064919                       0
   331   1      82.460543837327776      48.519302739151932                       0
   332   3      4.5992910987346391      1.5406604688269916                     6.5
   333   3      4.6869218573290334      4.7280599188442718                     6.5
   334   3      7.4034753737553487       3.058469730739986                     6.5
   335   3      10.120028890181665      1.3888795426356981                     6.5
   336   3      7.4911061323497403      6.2458691807572659                     6.5
   337   3      10.207659648776058      4.5762789926529797                     6.5
   338   3      12.924213165202374      2.9066888045486938                     6.5
   339   3      15.640766681628689      1.2370986164444067                     6.5
   340   3      7.5787368909441346      9.4332686307745472                     6.5
   341   3       10.29529040737045      7.7636784426702601                     6.5
   342   3      13.011843923796766      6.0940882545659738                     6.5
   343   3      15.728397440223084      4.4244980664616875                     6.5
   344   3      18.444950956649397      2.7549078783574008                     6.5
   345   3      21.161504473075713      1.0853176902531134                     6.5
   346   3      10.382921165964845       10.95107789268754                     6.5
   347   3      13.099474682391161      9.2814877045832542                     6.5
   348   3      15.816028198817477      7.6118975164789671                     6.5
   349   3       18.53258171524379       5.942307328374679                     6.5
   350   3      21.249135231670106      4.2727171402703918                     6.5
   351   3      23.965688748096422      2.6031269521661065                     6.5
   352   3      26.682242264522738     0.93353676406182196                     6.5
   353   3      10.470551924559237      14.138477342704821                     6.5
   354   3      13.187105440985551      12.468887154600534                     6.5
   355   3      15.903658957411867      10.799296966496247                     6.5
   356   3      18.620212473838183      9.1297067783919612                     6.5
   357   3      21.336765990264499       7.460116590287674                     6.5
   358   3      24.053319506690819      5.7905264021833878                     6.5
   359   3      26.769873023117135      4.1209362140791015                     6.5
   360   3      29.486426539543448      2.4513460259748134                     6.5
   361   3      32.202980055969761     0.78175583787052849                     6.5
   362   3      13.274736199579944      15.656286604617815                     6.5
   363   3      15.991289716006261      13.986696416513526                     6.5
   364   3      18.707843232432577      12.317106228409241                     6.5
   365   3      21.424396748858893      10.647516040304954                     6.5
   366   3      24.140950265285205      8.9779258522006682                     6.5
   367   3      26.857503781711525       7.308335664096381                     6.5
   368   3      29.574057298137838       5.638745475992093                     6.5
   369   3      32.290610814564154      3.9691552878878067                     6.5
   370   3       35.00716433099047      2.2995650997835222                     6.5
   371   3      37.723717847416786     0.62997491167923714                     6.5
   372   3       13.36236695817434      18.843686054635096                     6.5
   373   3      16.078920474600658      17.174095866530809                     6.5
   374   3      18.795473991026967      15.504505678426522                     6.5
   375   3      21.512027507453286      13.834915490322235                     6.5
   376   3      24.228581023879602      12.165325302217949                     6.5
   377   3      26.945134540305919      10.495735114113662                     6.5
   378   3      29.661688056732235      8.8261449260093769                     6.5
   379   3      32.378241573158554       7.156554737905088                     6.5
   380   3      35.094795089584863      5.4869645498008017                     6.5
   381   3      37.811348606011187      3.8173743616965172                     6.5
   382   3      40.527902122437496      2.1477841735922318                     6.5
   383   3      43.244455638863819     0.47819398548794756                     6.5
   384   3      16.166551233195051      20.361495316548091                     6.5
   385   3      18.883104749621367      18.691905128443803                     6.5
   386   3       21.59965826604768      17.022314940339516                     6.5
   387   3      24.316211782473996      15.352724752235231                     6.5
   388   3      27.032765298900312      13.683134564130944                     6.5
   389   3      29.749318815326632      12.013544376026658                     6.5
   390   3      32.465872331752948      10.343954187922371                     6.5
   391   3      35.182425848179264      8.6743639998180857                     6.5
   392   3       37.89897936460558      7.0047738117137985                     6.5
   393   3      40.615532881031896      5.3351836236095123                     6.5
   394   3      43.332086397458212      3.6655934355052207                     6.5
   395   3      46.048639913884529      1.9960032474009424                     6.5
   396   3      48.765193430310838     0.32641305929665437                     6.5
   397   3      16.254181991789441      23.548894766565368                     6.5
   398   3      18.970735508215757      21.879304578461081                     6.5
   399   3      21.687289024642073      20.209714390356794                     6.5
   400   3      24.403842541068389       18.54012420225251                     6.5
   401   3      27.120396057494705      16.870534014148223                     6.5
   402   3      29.836949573921022      15.200943826043938                     6.5
   403   3      32.553503090347341      13.531353637939651                     6.5
   404   3      35.270056606773657      11.861763449835365                     6.5
   405   3      37.986610123199974      10.192173261731078                     6.5
   406   3       40.70316363962629      8.5225830736267909                     6.5
   407   3      43.419717156052599      6.8529928855225029                     6.5
   408   3      46.136270672478922      5.1834026974182192                     6.5
   409   3      48.852824188905231      3.5138125093139334                     6.5
   410   3      51.569377705331547      1.8442223212096491                     6.5
   411   3       54.28593122175787     0.17463213310535769                     6.5
   412   3       19.05836626681015      25.066704028478362                     6.5
   413   3      21.774919783236466      23.397113840374075                     6.5
   414   3      24.491473299662786      21.727523652269795                     6.5
   415   3      27.208026816089099      20.057933464165504                     6.5
   416   3      29.924580332515418      18.388343276061221                     6.5
   417   3      32.641133848941735       16.71875308795693                     6.5
   418   3      35.357687365368044      15.049162899852645                     6.5
   419   3       38.07424088179436      13.379572711748359                     6.5
   420   3      40.790794398220676       11.70998252364407                     6.5
   421   3      43.507347914646999      10.040392335539785                     6.5
   422   3      46.223901431073315      8.3708021474355014                     6.5
   423   3      48.940454947499632      6.7012119593312134                     6.5
   424   3      51.657008463925948      5.0316217712269253                     6.5
   425   3      54.373561980352257      3.3620315831226342                     6.5
   426   3       57.09011549677858      1.6924413950183499                     6.5
   427   3      19.145997025404544      28.254103478495644                     6.5
   428   3      21.862550541830867       26.58451329039136                     6.5
   429   3      24.579104058257176      24.914923102287069                     6.5
   430   3      27.295657574683496      23.245332914182786                     6.5
   431   3      30.012211091109808      21.575742726078499                     6.5
   432   3      32.728764607536128      19.906152537974215                     6.5
   433   3      35.445318123962437      18.236562349869928                     6.5
   434   3       38.16187164038876      16.566972161765637                     6.5
   435   3      40.878425156815076      14.897381973661355                     6.5
   436   3      43.594978673241393      13.227791785557065                     6.5
   437   3      46.311532189667709      11.558201597452783                     6.5
   438   3      49.028085706094025      9.8886114093484903                     6.5
   439   3      51.744639222520341       8.219021221244212                     6.5
   440   3      54.461192738946657      6.5494310331399204                     6.5
   441   3      57.177746255372966      4.8798408450356323                     6.5
   442   3       59.89429977179929      3.2102506569313447                     6.5
   443   3      21.950181300425253      29.771912740408638                     6.5
   444   3      24.666734816851573      28.102322552304354                     6.5
   445   3      27.383288333277889      26.432732364200067                     6.5
   446   3      30.099841849704205       24.76314217609578                     6.5
   447   3      32.816395366130514      23.093551987991493                     6.5
   448   3      35.532948882556845      21.423961799887209                     6.5
   449   3      38.249502398983154      19.754371611782922                     6.5
   450   3       40.96605591540947      18.084781423678631                     6.5
   451   3      43.682609431835786      16.415191235574348                     6.5
   452   3      46.399162948262102      14.745601047470062                     6.5
   453   3      49.115716464688418      13.076010859365775                     6.5
   454   3      51.832269981114734      11.406420671261488                     6.5
   455   3      54.548823497541051      9.7368304831572008                     6.5
   456   3       57.26537701396736       8.067240295052919                     6.5
   457   3      59.981930530393683      6.3976501069486273                     6.5
   458   3      22.037812059019647      32.959312190425919                     6.5
   459   3      24.754365575445966      31.289722002321632                     6.5
   460   3      27.470919091872283      29.620131814217348                     6.5
   461   3      30.187472608298595      27.950541626113058                     6.5
   462   3      32.904026124724915      26.280951438008774                     6.5
   463   3      35.620579641151224      24.611361249904483                     6.5
   464   3      38.337133157577547        22.9417710618002                     6.5
   465   3      41.053686674003856      21.272180873695913                     6.5
   466   3      43.770240190430172      19.602590685591625                     6.5
   467   3      46.486793706856488      17.933000497487338                     6.5
   468   3      49.203347223282805      16.263410309383051                     6.5
   469   3      51.919900739709128      14.593820121278766                     6.5
   470   3      54.636454256135437       12.92422993317448                     6.5
   471   3      57.353007772561753      11.254639745070188                     6.5
   472   3      60.069561288988069      9.5850495569659095                     6.5
   473   3      62.786114805414385      7.9154593688616224                     6.5
   474   3      24.841996334040356      34.477121452338913                     6.5
   475   3      27.558549850466679      32.807531264234633                     6.5
   476   3      30.275103366892989      31.137941076130339                     6.5
   477   3      32.991656883319301      29.468350888026055                     6.5
   478   3      35.708210399745624      27.798760699921768                     6.5
   479   3      38.424763916171933      26.129170511817481                     6.5
   480   3      41.141317432598257      24.459580323713194                     6.5
   481   3      43.857870949024573      22.789990135608907                     6.5
   482   3      46.574424465450882       21.12039994750462                     6.5
   483   3      49.290977981877205      19.450809759400336                     6.5
   484   3      52.007531498303514      17.781219571296045                     6.5
   485   3      54.724085014729837      16.111629383191762                     6.5
   486   3      57.440638531156146      14.442039195087474                     6.5
   487   3      60.157192047582463      12.772449006983187                     6.5
   488   3      62.873745564008779      11.102858818878905                     6.5
   489   3      24.929627092634757      37.664520902356195                     6.5
   490   3      27.646180609061069        35.9949307142519                     6.5
   491   3      30.362734125487385       34.32534052614762                     6.5
   492   3      33.079287641913702       32.65575033804334                     6.5
   493   3      35.795841158340011      30.986160149939046                     6.5
   494   3      38.512394674766327      29.316569961834766                     6.5
   495   3       41.22894819119265      27.646979773730475                     6.5
   496   3      43.945501707618966      25.977389585626192                     6.5
   497   3      46.662055224045282      24.307799397521901                     6.5
   498   3      49.378608740471591      22.638209209417614                     6.5
   499   3      52.095162256897915       20.96861902131333                     6.5
   500   3      54.811715773324224      19.299028833209043                     6.5
   501   3      57.528269289750547      17.629438645104756                     6.5
   502   3      60.244822806176856      15.959848457000472                     6.5
   503   3      62.961376322603172      14.290258268896185                     6.5
   504   3      65.677929839029488      12.620668080791898                     6.5
   505   3      27.733811367655463      39.182330164269189                     6.5
   506   3      30.450364884081775      37.512739976164902                     6.5
   507   3      33.166918400508095      35.843149788060614                     6.5
   508   3      35.883471916934411      34.173559599956327                     6.5
   509   3      38.600025433360727       32.50396941185204                     6.5
   510   3      41.316578949787043      30.834379223747757                     6.5
   511   3       44.03313246621336      29.164789035643469                     6.5
   512   3      46.749685982639676      27.495198847539186                     6.5
   513   3      49.466239499065992      25.825608659434899                     6.5
   514   3      52.182793015492301      24.156018471330608                     6.5
   515   3      54.899346531918624      22.486428283226324                     6.5
   516   3       57.61590004834494      20.816838095122037                     6.5
   517   3      60.332453564771257       19.14724790701775                     6.5
   518   3      63.049007081197573      17.477657718913463                     6.5
   519   3      65.765560597623889      15.808067530809179                     6.5
   520   3      27.821442126249856       42.36972961428647                     6.5
   521   3      30.537995642676179       40.70013942618219                     6.5
   522   3      33.254549159102488      39.030549238077896                     6.5
   523   3      35.971102675528812      37.360959049973616                     6.5
   524   3      38.687656191955121      35.691368861869321                     6.5
   525   3      41.404209708381437      34.021778673765034                     6.5
   526   3      44.120763224807753      32.352188485660754                     6.5
   527   3      46.837316741234069      30.682598297556464                     6.5
   528   3      49.553870257660385       29.01300810945218                     6.5
   529   3      52.270423774086709      27.343417921347893                     6.5
   530   3      54.986977290513018      25.673827733243602                     6.5
   531   3      57.703530806939334      24.004237545139322                     6.5
   532   3       60.42008432336565      22.334647357035028                     6.5
   533   3      63.136637839791966      20.665057168930751                     6.5
   534   3      65.853191356218275      18.995466980826457                     6.5
   535   3      68.569744872644591       17.32587679272217                     6.5
   536   3      30.625626401270559      43.887538876199464                     6.5
   537   3      33.342179917696882      42.217948688095177                     6.5
   538   3      36.058733434123191       40.54835849999089                     6.5
   539   3      38.775286950549507      38.878768311886603                     6.5
   540   3      41.491840466975823      37.209178123782316                     6.5
   541   3      44.208393983402139      35.539587935678028                     6.5
   542   3      46.924947499828463      33.869997747573748                     6.5
   543   3      49.641501016254772      32.200407559469454                     6.5
   544   3      52.358054532681095       30.53081737136517                     6.5
   545   3      55.074608049107404      28.861227183260883                     6.5
   546   3       57.79116156553372      27.191636995156596                     6.5
   547   3      60.507715081960036      25.522046807052309                     6.5
   548   3      63.224268598386359      23.852456618948022                     6.5
   549   3      65.940822114812676      22.182866430843738                     6.5
   550   3      68.657375631238992      20.513276242739451                     6.5
   551   3      30.713257159864956      47.074938326216746                     6.5
   552   3      33.429810676291268      45.405348138112458                     6.5
   553   3      36.146364192717591      43.735757950008171                     6.5
   554   3      38.862917709143908      42.066167761903884                     6.5
   555   3      41.579471225570224      40.396577573799597                     6.5
   556   3       44.29602474199654       38.72698738569531                     6.5
   557   3      47.012578258422849      37.057397197591023                     6.5
   558   3      49.729131774849172      35.387807009486735                     6.5
   559   3      52.445685291275481      33.718216821382448                     6.5
   560   3      55.162238807701804      32.048626633278168                     6.5
   561   3      57.878792324128113      30.379036445173874                     6.5
   562   3      60.595345840554437       28.70944625706959                     6.5
   563   3      63.311899356980753      27.039856068965303                     6.5
   564   3      66.028452873407076      25.370265880861023                     6.5
   565   3      68.745006389833378      23.700675692756729                     6.5
   566   3      71.461559906259694      22.031085504652445                     6.5
   567   3      30.800887918459345       50.26233777623402                     6.5
   568   3      33.517441434885662       48.59274758812974                     6.5
   569   3      36.233994951311978      46.923157400025445                     6.5
   570   3      38.950548467738294      45.253567211921165                     6.5
   571   3       41.66710198416461      43.583977023816871                     6.5
   572   3      44.383655500590926      41.914386835712591                     6.5
   573   3      47.100209017017242      40.244796647608297                     6.5
   574   3      49.816762533443551      38.575206459504017                     6.5
   575   3      52.533316049869882       36.90561627139973                     6.5
   576   3      55.249869566296184      35.236026083295442                     6.5
   577   3      57.966423082722507      33.566435895191155                     6.5
   578   3      60.682976599148823      31.896845707086868                     6.5
   579   3      63.399530115575139      30.227255518982581                     6.5
   580   3      66.116083632001448      28.557665330878297                     6.5
   581   3      68.832637148427764       26.88807514277401                     6.5
   582   3      71.549190664854081      25.218484954669723                     6.5
   583   3      36.321625709906378      50.110556850042727                     6.5
   584   3      39.038179226332687      48.440966661938447                     6.5
   585   3      41.754732742759003       46.77137647383416                     6.5
   586   3       44.47128625918532      45.101786285729865                     6.5
   587   3      47.187839775611636      43.432196097625585                     6.5
   588   3      49.904393292037952      41.762605909521298                     6.5
   589   3      52.620946808464268      40.093015721417011                     6.5
   590   3      55.337500324890584      38.423425533312724                     6.5
   591   3      58.054053841316907      36.753835345208444                     6.5
   592   3      60.770607357743209      35.084245157104149                     6.5
   593   3      63.487160874169533      33.414654968999862                     6.5
   594   3      66.203714390595849      31.745064780895582                     6.5
   595   3      68.920267907022165      30.075474592791291                     6.5
   596   3      71.636821423448481      28.405884404687004                     6.5
   597   3      74.353374939874797      26.736294216582717                     6.5
   598   3      41.842363501353397      49.958775923851441                     6.5
   599   3       44.55891701777972      48.289185735747154                     6.5
   600   3      47.275470534206036      46.619595547642867                     6.5
   601   3      49.992024050632352      44.950005359538579                     6.5
   602   3      52.708577567058668      43.280415171434292                     6.5
   603   3      55.425131083484978      41.610824983329998                     6.5
   604   3      58.141684599911294      39.941234795225725                     6.5
   605   3      60.858238116337617      38.271644607121438                     6.5
   606   3      63.574791632763926      36.602054419017144                     6.5
   607   3      66.291345149190249      34.932464230912856                     6.5
   608   3      69.007898665616565      33.262874042808576                     6.5
   609   3      71.724452182042867      31.593283854704282                     6.5
   610   3      74.441005698469198      29.923693666599998                     6.5
   611   3      47.363101292800422      49.806994997660148                     6.5
   612   3      50.079654809226739      48.137404809555861                     6.5
   613   3      52.796208325653062      46.467814621451573                     6.5
   614   3      55.512761842079364      44.798224433347279                     6.5
   615   3      58.229315358505694      43.128634245242999                     6.5
   616   3       60.94586887493201      41.459044057138712                     6.5
   617   3      63.662422391358334      39.789453869034432                     6.5
   618   3      66.378975907784636      38.119863680930138                     6.5
   619   3      69.095529424210952      36.450273492825858                     6.5
   620   3      71.812082940637268       34.78068330472157                     6.5
   621   3      74.528636457063584      33.111093116617276                     6.5
   622   3        77.2451899734899      31.441502928512989                     6.5
   623   3      52.883839084247448      49.655214071468855                     6.5
   624   3      55.600392600673779      47.985623883364568                     6.5
   625   3      58.316946117100095      46.316033695260288                     6.5
   626   3      61.033499633526397      44.646443507155993                     6.5
   627   3       63.75005314995272      42.976853319051706                     6.5
   628   3      66.466606666379036      41.307263130947419                     6.5
   629   3      69.183160182805338      39.637672942843139                     6.5
   630   3      71.899713699231668      37.968082754738852                     6.5
   631   3      74.616267215657984      36.298492566634565                     6.5
   632   3      77.332820732084301       34.62890237853027                     6.5
   633   3      58.404576875694474      49.503433145277569                     6.5
   634   3       61.12113039212079      47.833842957173275                     6.5
   635   3      63.837683908547113      46.164252769068987                     6.5
   636   3      66.554237424973422        44.4946625809647                     6.5
   637   3      69.270790941399753       42.82507239286042                     6.5
   638   3      71.987344457826055      41.155482204756126                     6.5
   639   3      74.703897974252385      39.485892016651846                     6.5
   640   3      77.420451490678687      37.816301828547559                     6.5
   641   3      80.137005007105003      36.146711640443272                     6.5
   642   3      63.925314667141514      49.351652219086276                     6.5
   643   3      66.641868183567823      47.682062030981982                     6.5
   644   3      69.358421699994139      46.012471842877702                     6.5
   645   3      72.074975216420469      44.342881654773414                     6.5
   646   3      74.791528732846757       42.67329146666912                     6.5
   647   3      77.508082249273087       41.00370127856484                     6.5
   648   3      80.224635765699404       39.33411109046056                     6.5
   649   3      69.446052458588525      49.199871292894969                     6.5
   650   3      72.162605975014841      47.530281104790689                     6.5
   651   3      74.879159491441158      45.860690916686401                     6.5
   652   3      77.595713007867474      44.191100728582107                     6.5
   653   3      80.312266524293776       42.52151054047782                     6.5
   654   3      83.028820040720106      40.851920352373547                     6.5
   655   3      74.966790250035558      49.048090366703683                     6.5
   656   3       77.68334376646186      47.378500178599396                     6.5
   657   3      80.399897282888176      45.708909990495101                     6.5
   658   3      83.116450799314492      44.039319802390821                     6.5
   659   3      80.487528041482577       48.89630944051239                     6.5
   660   3      83.204081557908893      47.226719252408103                     6.5
   661   3      85.920635074335209      45.557129064303815                     6.5
   662   3      86.008265832929595      48.744528514321097                     6.5
   663   2      2.7165535164263139      1.6695901881042896      1.5743049286000002
   664   2      2.7165535164263139      1.6695901881042896     -1.5743049286000002
   665   2      5.5207377914470248     0.15178092619129857      1.5743049286000002
   666   2      5.5207377914470248     0.15178092619129857     -1.5743049286000002
   667   2      5.4331070328526279      3.3391803762085792      1.5743049286000002
   668   2      5.4331070328526279      3.3391803762085792     -1.5743049286000002
   669   2      8.2372913078733401      1.8213711142955884      1.5743049286000002
   670   2      8.2372913078733401      1.8213711142955884     -1.5743049286000002
   671   2      11.041475582894048     0.30356185238259625      1.5743049286000002
   672   2      11.041475582894048     0.30356185238259625     -1.5743049286000002
   673   2      5.3454762742582309      6.5265798262258601      1.5743049286000002
   674   2      5.3454762742582309      6.5265798262258601     -1.5743049286000002
   675   2      8.1496605492789396      5.0087705643128677      1.5743049286000002
   676   2      8.1496605492789396      5.0087705643128677     -1.5743049286000002
   677   2      10.953844824299653      3.4909613023998776      1.5743049286000002
   678   2      10.953844824299653      3.4909613023998776     -1.5743049286000002
   679   2      13.758029099320364       1.973152040486887      1.5743049286000002
   680   2      13.758029099320364       1.973152040486887     -1.5743049286000002
   681   2      16.562213374341077     0.45534277857389699      1.5743049286000002
   682   2      16.562213374341077     0.45534277857389699     -1.5743049286000002
   683   2      8.0620297906845426      8.1961700143301481      1.5743049286000002
   684   2      8.0620297906845426      8.1961700143301481     -1.5743049286000002
   685   2      10.866214065705256      6.6783607524171584      1.5743049286000002
   686   2      10.866214065705256      6.6783607524171584     -1.5743049286000002
   687   2      13.670398340725969      5.1605514905041678      1.5743049286000002
   688   2      13.670398340725969      5.1605514905041678     -1.5743049286000002
   689   2      16.474582615746677       3.642742228591175      1.5743049286000002
   690   2      16.474582615746677       3.642742228591175     -1.5743049286000002
   691   2       19.27876689076739      2.1249329666781849      1.5743049286000002
   692   2       19.27876689076739      2.1249329666781849     -1.5743049286000002
   693   2      22.082951165788099     0.60712370476519428      1.5743049286000002
   694   2      22.082951165788099     0.60712370476519428     -1.5743049286000002
   695   2      7.9743990320901474      11.383569464347429      1.5743049286000002
   696   2      7.9743990320901474      11.383569464347429     -1.5743049286000002
   697   2      10.778583307110859      9.8657602024344389      1.5743049286000002
   698   2      10.778583307110859      9.8657602024344389     -1.5743049286000002
   699   2      13.582767582131568      8.3479509405214465      1.5743049286000002
   700   2      13.582767582131568      8.3479509405214465     -1.5743049286000002
   701   2       16.38695185715228      6.8301416786084559      1.5743049286000002
   702   2       16.38695185715228      6.8301416786084559     -1.5743049286000002
   703   2      19.191136132172993      5.3123324166954662      1.5743049286000002
   704   2      19.191136132172993      5.3123324166954662     -1.5743049286000002
   705   2      21.995320407193702      3.7945231547824756      1.5743049286000002
   706   2      21.995320407193702      3.7945231547824756     -1.5743049286000002
   707   2      24.799504682214412      2.2767138928694832      1.5743049286000002
   708   2      24.799504682214412      2.2767138928694832     -1.5743049286000002
   709   2      27.603688957235125     0.75890463095649252      1.5743049286000002
   710   2      27.603688957235125     0.75890463095649252     -1.5743049286000002
   711   2       10.69095254851646      13.053159652451718      1.5743049286000002
   712   2       10.69095254851646      13.053159652451718     -1.5743049286000002
   713   2      13.495136823537171      11.535350390538728      1.5743049286000002
   714   2      13.495136823537171      11.535350390538728     -1.5743049286000002
   715   2      16.299321098557883      10.017541128625737      1.5743049286000002
   716   2      16.299321098557883      10.017541128625737     -1.5743049286000002
   717   2      19.103505373578596      8.4997318667127466      1.5743049286000002
   718   2      19.103505373578596      8.4997318667127466     -1.5743049286000002
   719   2      21.907689648599305      6.9819226047997551      1.5743049286000002
   720   2      21.907689648599305      6.9819226047997551     -1.5743049286000002
   721   2      24.711873923620015      5.4641133428867645      1.5743049286000002
   722   2      24.711873923620015      5.4641133428867645     -1.5743049286000002
   723   2      27.516058198640728      3.9463040809737739      1.5743049286000002
   724   2      27.516058198640728      3.9463040809737739     -1.5743049286000002
   725   2      30.320242473661441      2.4284948190607833      1.5743049286000002
   726   2      30.320242473661441      2.4284948190607833     -1.5743049286000002
   727   2      33.124426748682154     0.91068555714779398      1.5743049286000002
   728   2      33.124426748682154     0.91068555714779398     -1.5743049286000002
   729   2      10.603321789922065         16.240559102469      1.5743049286000002
   730   2      10.603321789922065         16.240559102469     -1.5743049286000002
   731   2      13.407506064942771      14.722749840556007      1.5743049286000002
   732   2      13.407506064942771      14.722749840556007     -1.5743049286000002
   733   2      16.211690339963482      13.204940578643017      1.5743049286000002
   734   2      16.211690339963482      13.204940578643017     -1.5743049286000002
   735   2      19.015874614984195      11.687131316730026      1.5743049286000002
   736   2      19.015874614984195      11.687131316730026     -1.5743049286000002
   737   2      21.820058890004908      10.169322054817036      1.5743049286000002
   738   2      21.820058890004908      10.169322054817036     -1.5743049286000002
   739   2      24.624243165025621       8.651512792904045      1.5743049286000002
   740   2      24.624243165025621       8.651512792904045     -1.5743049286000002
   741   2      27.428427440046327      7.1337035309910535      1.5743049286000002
   742   2      27.428427440046327      7.1337035309910535     -1.5743049286000002
   743   2      30.232611715067041      5.6158942690780629      1.5743049286000002
   744   2      30.232611715067041      5.6158942690780629     -1.5743049286000002
   745   2      33.036795990087754      4.0980850071650723      1.5743049286000002
   746   2      33.036795990087754      4.0980850071650723     -1.5743049286000002
   747   2      35.840980265108463      2.5802757452520795      1.5743049286000002
   748   2      35.840980265108463      2.5802757452520795     -1.5743049286000002
   749   2      38.645164540129173      1.0624664833390889      1.5743049286000002
   750   2      38.645164540129173      1.0624664833390889     -1.5743049286000002
   751   2      13.319875306348379       17.91014929057329      1.5743049286000002
   752   2      13.319875306348379       17.91014929057329     -1.5743049286000002
   753   2      16.124059581369085      16.392340028660296      1.5743049286000002
   754   2      16.124059581369085      16.392340028660296     -1.5743049286000002
   755   2      18.928243856389798      14.874530766747307      1.5743049286000002
   756   2      18.928243856389798      14.874530766747307     -1.5743049286000002
   757   2      21.732428131410511      13.356721504834317      1.5743049286000002
   758   2      21.732428131410511      13.356721504834317     -1.5743049286000002
   759   2      24.536612406431225      11.838912242921326      1.5743049286000002
   760   2      24.536612406431225      11.838912242921326     -1.5743049286000002
   761   2      27.340796681451938      10.321102981008336      1.5743049286000002
   762   2      27.340796681451938      10.321102981008336     -1.5743049286000002
   763   2      30.144980956472644      8.8032937190953451      1.5743049286000002
   764   2      30.144980956472644      8.8032937190953451     -1.5743049286000002
   765   2      32.949165231493353        7.28548445718235      1.5743049286000002
   766   2      32.949165231493353        7.28548445718235     -1.5743049286000002
   767   2      35.753349506514063      5.7676751952693612      1.5743049286000002
   768   2      35.753349506514063      5.7676751952693612     -1.5743049286000002
   769   2      38.557533781534779      4.2498659333563698      1.5743049286000002
   770   2      38.557533781534779      4.2498659333563698     -1.5743049286000002
   771   2      41.361718056555489      2.7320566714433796      1.5743049286000002
   772   2      41.361718056555489      2.7320566714433796     -1.5743049286000002
   773   2      44.165902331576198      1.2142474095303855      1.5743049286000002
   774   2      44.165902331576198      1.2142474095303855     -1.5743049286000002
   775   2      13.232244547753982      21.097548740590572      1.5743049286000002
   776   2      13.232244547753982      21.097548740590572     -1.5743049286000002
   777   2      16.036428822774695      19.579739478677581      1.5743049286000002
   778   2      16.036428822774695      19.579739478677581     -1.5743049286000002
   779   2      18.840613097795401      18.061930216764587      1.5743049286000002
   780   2      18.840613097795401      18.061930216764587     -1.5743049286000002
   781   2      21.644797372816114      16.544120954851596      1.5743049286000002
   782   2      21.644797372816114      16.544120954851596     -1.5743049286000002
   783   2      24.448981647836828      15.026311692938608      1.5743049286000002
   784   2      24.448981647836828      15.026311692938608     -1.5743049286000002
   785   2      27.253165922857541      13.508502431025617      1.5743049286000002
   786   2      27.253165922857541      13.508502431025617     -1.5743049286000002
   787   2      30.057350197878254      11.990693169112625      1.5743049286000002
   788   2      30.057350197878254      11.990693169112625     -1.5743049286000002
   789   2      32.861534472898967      10.472883907199638      1.5743049286000002
   790   2      32.861534472898967      10.472883907199638     -1.5743049286000002
   791   2      35.665718747919676      8.9550746452866452      1.5743049286000002
   792   2      35.665718747919676      8.9550746452866452     -1.5743049286000002
   793   2      38.469903022940379       7.437265383373652      1.5743049286000002
   794   2      38.469903022940379       7.437265383373652     -1.5743049286000002
   795   2      41.274087297961088      5.9194561214606605      1.5743049286000002
   796   2      41.274087297961088      5.9194561214606605     -1.5743049286000002
   797   2      44.078271572981805      4.4016468595476699      1.5743049286000002
   798   2      44.078271572981805      4.4016468595476699     -1.5743049286000002
   799   2      46.882455848002515      2.8838375976346762      1.5743049286000002
   800   2      46.882455848002515      2.8838375976346762     -1.5743049286000002
   801   2      49.686640123023224      1.3660283357216918      1.5743049286000002
   802   2      49.686640123023224      1.3660283357216918     -1.5743049286000002
   803   2      15.948798064180295      22.767138928694859      1.5743049286000002
   804   2      15.948798064180295      22.767138928694859     -1.5743049286000002
   805   2      18.752982339201008      21.249329666781868      1.5743049286000002
   806   2      18.752982339201008      21.249329666781868     -1.5743049286000002
   807   2      21.557166614221718      19.731520404868878      1.5743049286000002
   808   2      21.557166614221718      19.731520404868878     -1.5743049286000002
   809   2      24.361350889242427      18.213711142955887      1.5743049286000002
   810   2      24.361350889242427      18.213711142955887     -1.5743049286000002
   811   2      27.165535164263137      16.695901881042893      1.5743049286000002
   812   2      27.165535164263137      16.695901881042893     -1.5743049286000002
   813   2       29.96971943928385      15.178092619129904      1.5743049286000002
   814   2       29.96971943928385      15.178092619129904     -1.5743049286000002
   815   2      32.773903714304559      13.660283357216912      1.5743049286000002
   816   2      32.773903714304559      13.660283357216912     -1.5743049286000002
   817   2      35.578087989325276      12.142474095303925      1.5743049286000002
   818   2      35.578087989325276      12.142474095303925     -1.5743049286000002
   819   2      38.382272264345985      10.624664833390932      1.5743049286000002
   820   2      38.382272264345985      10.624664833390932     -1.5743049286000002
   821   2      41.186456539366695      9.1068555714779418      1.5743049286000002
   822   2      41.186456539366695      9.1068555714779418     -1.5743049286000002
   823   2      43.990640814387405      7.5890463095649512      1.5743049286000002
   824   2      43.990640814387405      7.5890463095649512     -1.5743049286000002
   825   2      46.794825089408114       6.071237047651957      1.5743049286000002
   826   2      46.794825089408114       6.071237047651957     -1.5743049286000002
   827   2      49.599009364428824      4.5534277857389638      1.5743049286000002
   828   2      49.599009364428824      4.5534277857389638     -1.5743049286000002
   829   2      52.403193639449533       3.035618523825979      1.5743049286000002
   830   2      52.403193639449533       3.035618523825979     -1.5743049286000002
   831   2       55.20737791447025       1.517809261912985      1.5743049286000002
   832   2       55.20737791447025       1.517809261912985     -1.5743049286000002
   833   2      15.861167305585894       25.95453837871214      1.5743049286000002
   834   2      15.861167305585894       25.95453837871214     -1.5743049286000002
   835   2      18.665351580606607       24.43672911679915      1.5743049286000002
   836   2      18.665351580606607       24.43672911679915     -1.5743049286000002
   837   2      21.469535855627321      22.918919854886159      1.5743049286000002
   838   2      21.469535855627321      22.918919854886159     -1.5743049286000002
   839   2      24.273720130648027      21.401110592973165      1.5743049286000002
   840   2      24.273720130648027      21.401110592973165     -1.5743049286000002
   841   2       27.07790440566874      19.883301331060174      1.5743049286000002
   842   2       27.07790440566874      19.883301331060174     -1.5743049286000002
   843   2      29.882088680689453      18.365492069147184      1.5743049286000002
   844   2      29.882088680689453      18.365492069147184     -1.5743049286000002
   845   2      32.686272955710166      16.847682807234197      1.5743049286000002
   846   2      32.686272955710166      16.847682807234197     -1.5743049286000002
   847   2      35.490457230730875      15.329873545321202      1.5743049286000002
   848   2      35.490457230730875      15.329873545321202     -1.5743049286000002
   849   2      38.294641505751585      13.812064283408215      1.5743049286000002
   850   2      38.294641505751585      13.812064283408215     -1.5743049286000002
   851   2      41.098825780772295       12.29425502149522      1.5743049286000002
   852   2      41.098825780772295       12.29425502149522     -1.5743049286000002
   853   2      43.903010055793004      10.776445759582229      1.5743049286000002
   854   2      43.903010055793004      10.776445759582229     -1.5743049286000002
   855   2      46.707194330813714      9.2586364976692384      1.5743049286000002
   856   2      46.707194330813714      9.2586364976692384     -1.5743049286000002
   857   2       49.51137860583443      7.7408272357562478      1.5743049286000002
   858   2       49.51137860583443      7.7408272357562478     -1.5743049286000002
   859   2       52.31556288085514      6.2230179738432545      1.5743049286000002
   860   2       52.31556288085514      6.2230179738432545     -1.5743049286000002
   861   2      55.119747155875849      4.7052087119302666      1.5743049286000002
   862   2      55.119747155875849      4.7052087119302666     -1.5743049286000002
   863   2      57.923931430896566      3.1873994500172755      1.5743049286000002
   864   2      57.923931430896566      3.1873994500172755     -1.5743049286000002
   865   2      18.577720822012211      27.624128566816431      1.5743049286000002
   866   2      18.577720822012211      27.624128566816431     -1.5743049286000002
   867   2       21.38190509703292      26.106319304903437      1.5743049286000002
   868   2       21.38190509703292      26.106319304903437     -1.5743049286000002
   869   2      24.186089372053633      24.588510042990446      1.5743049286000002
   870   2      24.186089372053633      24.588510042990446     -1.5743049286000002
   871   2      26.990273647074343      23.070700781077456      1.5743049286000002
   872   2      26.990273647074343      23.070700781077456     -1.5743049286000002
   873   2      29.794457922095056      21.552891519164465      1.5743049286000002
   874   2      29.794457922095056      21.552891519164465     -1.5743049286000002
   875   2      32.598642197115765      20.035082257251474      1.5743049286000002
   876   2      32.598642197115765      20.035082257251474     -1.5743049286000002
   877   2      35.402826472136475      18.517272995338487      1.5743049286000002
   878   2      35.402826472136475      18.517272995338487     -1.5743049286000002
   879   2      38.207010747157192      16.999463733425493      1.5743049286000002
   880   2      38.207010747157192      16.999463733425493     -1.5743049286000002
   881   2      41.011195022177901      15.481654471512506      1.5743049286000002
   882   2      41.011195022177901      15.481654471512506     -1.5743049286000002
   883   2      43.815379297198611       13.96384520959951      1.5743049286000002
   884   2      43.815379297198611       13.96384520959951     -1.5743049286000002
   885   2       46.61956357221932       12.44603594768652      1.5743049286000002
   886   2       46.61956357221932       12.44603594768652     -1.5743049286000002
   887   2       49.42374784724003      10.928226685773529      1.5743049286000002
   888   2       49.42374784724003      10.928226685773529     -1.5743049286000002
   889   2      52.227932122260746      9.4104174238605349      1.5743049286000002
   890   2      52.227932122260746      9.4104174238605349     -1.5743049286000002
   891   2      55.032116397281456      7.8926081619475452      1.5743049286000002
   892   2      55.032116397281456      7.8926081619475452     -1.5743049286000002
   893   2      57.836300672302166      6.3747989000345573      1.5743049286000002
   894   2      57.836300672302166      6.3747989000345573     -1.5743049286000002
   895   2      60.640484947322882      4.8569896381215667      1.5743049286000002
   896   2      60.640484947322882      4.8569896381215667     -1.5743049286000002
   897   2      18.490090063417821      30.811528016833709      1.5743049286000002
   898   2      18.490090063417821      30.811528016833709     -1.5743049286000002
   899   2       21.29427433843853      29.293718754920722      1.5743049286000002
   900   2       21.29427433843853      29.293718754920722     -1.5743049286000002
   901   2       24.09845861345924      27.775909493007731      1.5743049286000002
   902   2       24.09845861345924      27.775909493007731     -1.5743049286000002
   903   2      26.902642888479949      26.258100231094737      1.5743049286000002
   904   2      26.902642888479949      26.258100231094737     -1.5743049286000002
   905   2      29.706827163500655      24.740290969181746      1.5743049286000002
   906   2      29.706827163500655      24.740290969181746     -1.5743049286000002
   907   2      32.511011438521372      23.222481707268756      1.5743049286000002
   908   2      32.511011438521372      23.222481707268756     -1.5743049286000002
   909   2      35.315195713542082      21.704672445355765      1.5743049286000002
   910   2      35.315195713542082      21.704672445355765     -1.5743049286000002
   911   2      38.119379988562791      20.186863183442778      1.5743049286000002
   912   2      38.119379988562791      20.186863183442778     -1.5743049286000002
   913   2      40.923564263583508      18.669053921529784      1.5743049286000002
   914   2      40.923564263583508      18.669053921529784     -1.5743049286000002
   915   2      43.727748538604217      17.151244659616797      1.5743049286000002
   916   2      43.727748538604217      17.151244659616797     -1.5743049286000002
   917   2      46.531932813624927      15.633435397703801      1.5743049286000002
   918   2      46.531932813624927      15.633435397703801     -1.5743049286000002
   919   2      49.336117088645636      14.115626135790807      1.5743049286000002
   920   2      49.336117088645636      14.115626135790807     -1.5743049286000002
   921   2      52.140301363666346       12.59781687387782      1.5743049286000002
   922   2      52.140301363666346       12.59781687387782     -1.5743049286000002
   923   2      54.944485638687063      11.080007611964826      1.5743049286000002
   924   2      54.944485638687063      11.080007611964826     -1.5743049286000002
   925   2      57.748669913707772       9.562198350051835      1.5743049286000002
   926   2      57.748669913707772       9.562198350051835     -1.5743049286000002
   927   2      60.552854188728482       8.044389088138848      1.5743049286000002
   928   2      60.552854188728482       8.044389088138848     -1.5743049286000002
   929   2       21.20664357984413      32.481118204937999      1.5743049286000002
   930   2       21.20664357984413      32.481118204937999     -1.5743049286000002
   931   2      24.010827854864839      30.963308943025009      1.5743049286000002
   932   2      24.010827854864839      30.963308943025009     -1.5743049286000002
   933   2      26.815012129885542      29.445499681112015      1.5743049286000002
   934   2      26.815012129885542      29.445499681112015     -1.5743049286000002
   935   2      29.619196404906255      27.927690419199024      1.5743049286000002
   936   2      29.619196404906255      27.927690419199024     -1.5743049286000002
   937   2      32.423380679926964      26.409881157286033      1.5743049286000002
   938   2      32.423380679926964      26.409881157286033     -1.5743049286000002
   939   2      35.227564954947681      24.892071895373043      1.5743049286000002
   940   2      35.227564954947681      24.892071895373043     -1.5743049286000002
   941   2      38.031749229968391      23.374262633460052      1.5743049286000002
   942   2      38.031749229968391      23.374262633460052     -1.5743049286000002
   943   2        40.8359335049891      21.856453371547065      1.5743049286000002
   944   2        40.8359335049891      21.856453371547065     -1.5743049286000002
   945   2      43.640117780009817      20.338644109634071      1.5743049286000002
   946   2      43.640117780009817      20.338644109634071     -1.5743049286000002
   947   2      46.444302055030526      18.820834847721081      1.5743049286000002
   948   2      46.444302055030526      18.820834847721081     -1.5743049286000002
   949   2      49.248486330051243       17.30302558580809      1.5743049286000002
   950   2      49.248486330051243       17.30302558580809     -1.5743049286000002
   951   2      52.052670605071945      15.785216323895094      1.5743049286000002
   952   2      52.052670605071945      15.785216323895094     -1.5743049286000002
   953   2      54.856854880092655      14.267407061982107      1.5743049286000002
   954   2      54.856854880092655      14.267407061982107     -1.5743049286000002
   955   2      57.661039155113372      12.749597800069113      1.5743049286000002
   956   2      57.661039155113372      12.749597800069113     -1.5743049286000002
   957   2      60.465223430134081      11.231788538156122      1.5743049286000002
   958   2      60.465223430134081      11.231788538156122     -1.5743049286000002
   959   2      63.269407705154791      9.7139792762431352      1.5743049286000002
   960   2      63.269407705154791      9.7139792762431352     -1.5743049286000002
   961   2      21.119012821249729      35.668517654955281      1.5743049286000002
   962   2      21.119012821249729      35.668517654955281     -1.5743049286000002
   963   2      23.923197096270442      34.150708393042287      1.5743049286000002
   964   2      23.923197096270442      34.150708393042287     -1.5743049286000002
   965   2      26.727381371291152        32.6328991311293      1.5743049286000002
   966   2      26.727381371291152        32.6328991311293     -1.5743049286000002
   967   2      29.531565646311858      31.115089869216305      1.5743049286000002
   968   2      29.531565646311858      31.115089869216305     -1.5743049286000002
   969   2      32.335749921332571      29.597280607303315      1.5743049286000002
   970   2      32.335749921332571      29.597280607303315     -1.5743049286000002
   971   2      35.139934196353281      28.079471345390324      1.5743049286000002
   972   2      35.139934196353281      28.079471345390324     -1.5743049286000002
   973   2      37.944118471373997      26.561662083477334      1.5743049286000002
   974   2      37.944118471373997      26.561662083477334     -1.5743049286000002
   975   2      40.748302746394707      25.043852821564343      1.5743049286000002
   976   2      40.748302746394707      25.043852821564343     -1.5743049286000002
   977   2      43.552487021415416      23.526043559651352      1.5743049286000002
   978   2      43.552487021415416      23.526043559651352     -1.5743049286000002
   979   2      46.356671296436133      22.008234297738362      1.5743049286000002
   980   2      46.356671296436133      22.008234297738362     -1.5743049286000002
   981   2      49.160855571456842      20.490425035825371      1.5743049286000002
   982   2      49.160855571456842      20.490425035825371     -1.5743049286000002
   983   2      51.965039846477559      18.972615773912381      1.5743049286000002
   984   2      51.965039846477559      18.972615773912381     -1.5743049286000002
   985   2      54.769224121498262      17.454806511999386      1.5743049286000002
   986   2      54.769224121498262      17.454806511999386     -1.5743049286000002
   987   2      57.573408396518971      15.936997250086398      1.5743049286000002
   988   2      57.573408396518971      15.936997250086398     -1.5743049286000002
   989   2      60.377592671539688      14.419187988173404      1.5743049286000002
   990   2      60.377592671539688      14.419187988173404     -1.5743049286000002
   991   2      63.181776946560397      12.901378726260413      1.5743049286000002
   992   2      63.181776946560397      12.901378726260413     -1.5743049286000002
   993   2      23.835566337676042      37.338107843059575      1.5743049286000002
   994   2      23.835566337676042      37.338107843059575     -1.5743049286000002
   995   2      26.639750612696758      35.820298581146581      1.5743049286000002
   996   2      26.639750612696758      35.820298581146581     -1.5743049286000002
   997   2      29.443934887717468      34.302489319233594      1.5743049286000002
   998   2      29.443934887717468      34.302489319233594     -1.5743049286000002
   999   2       32.24811916273817      32.784680057320593      1.5743049286000002
  1000   2       32.24811916273817      32.784680057320593     -1.5743049286000002
  1001   2      35.052303437758887      31.266870795407605      1.5743049286000002
  1002   2      35.052303437758887      31.266870795407605     -1.5743049286000002
  1003   2      37.856487712779597      29.749061533494615      1.5743049286000002
  1004   2      37.856487712779597      29.749061533494615     -1.5743049286000002
  1005   2      40.660671987800313      28.231252271581621      1.5743049286000002
  1006   2      40.660671987800313      28.231252271581621     -1.5743049286000002
  1007   2      43.464856262821023      26.713443009668634      1.5743049286000002
  1008   2      43.464856262821023      26.713443009668634     -1.5743049286000002
  1009   2      46.269040537841732      25.195633747755643      1.5743049286000002
  1010   2      46.269040537841732      25.195633747755643     -1.5743049286000002
  1011   2      49.073224812862449      23.677824485842653      1.5743049286000002
  1012   2      49.073224812862449      23.677824485842653     -1.5743049286000002
  1013   2      51.877409087883159      22.160015223929662      1.5743049286000002
  1014   2      51.877409087883159      22.160015223929662     -1.5743049286000002
  1015   2      54.681593362903875      20.642205962016671      1.5743049286000002
  1016   2      54.681593362903875      20.642205962016671     -1.5743049286000002
  1017   2      57.485777637924578      19.124396700103677      1.5743049286000002
  1018   2      57.485777637924578      19.124396700103677     -1.5743049286000002
  1019   2      60.289961912945287       17.60658743819069      1.5743049286000002
  1020   2      60.289961912945287       17.60658743819069     -1.5743049286000002
  1021   2      63.094146187966004      16.088778176277696      1.5743049286000002
  1022   2      63.094146187966004      16.088778176277696     -1.5743049286000002
  1023   2      65.898330462986706      14.570968914364697      1.5743049286000002
  1024   2      65.898330462986706      14.570968914364697     -1.5743049286000002
  1025   2      23.747935579081648      40.525507293076849      1.5743049286000002
  1026   2      23.747935579081648      40.525507293076849     -1.5743049286000002
  1027   2      26.552119854102358      39.007698031163862      1.5743049286000002
  1028   2      26.552119854102358      39.007698031163862     -1.5743049286000002
  1029   2      29.356304129123075      37.489888769250868      1.5743049286000002
  1030   2      29.356304129123075      37.489888769250868     -1.5743049286000002
  1031   2      32.160488404143784      35.972079507337881      1.5743049286000002
  1032   2      32.160488404143784      35.972079507337881     -1.5743049286000002
  1033   2      34.964672679164487      34.454270245424887      1.5743049286000002
  1034   2      34.964672679164487      34.454270245424887     -1.5743049286000002
  1035   2      37.768856954185203      32.936460983511893      1.5743049286000002
  1036   2      37.768856954185203      32.936460983511893     -1.5743049286000002
  1037   2      40.573041229205913      31.418651721598906      1.5743049286000002
  1038   2      40.573041229205913      31.418651721598906     -1.5743049286000002
  1039   2      43.377225504226629      29.900842459685911      1.5743049286000002
  1040   2      43.377225504226629      29.900842459685911     -1.5743049286000002
  1041   2      46.181409779247339      28.383033197772924      1.5743049286000002
  1042   2      46.181409779247339      28.383033197772924     -1.5743049286000002
  1043   2      48.985594054268049      26.865223935859934      1.5743049286000002
  1044   2      48.985594054268049      26.865223935859934     -1.5743049286000002
  1045   2      51.789778329288765      25.347414673946943      1.5743049286000002
  1046   2      51.789778329288765      25.347414673946943     -1.5743049286000002
  1047   2      54.593962604309475      23.829605412033953      1.5743049286000002
  1048   2      54.593962604309475      23.829605412033953     -1.5743049286000002
  1049   2      57.398146879330191      22.311796150120962      1.5743049286000002
  1050   2      57.398146879330191      22.311796150120962     -1.5743049286000002
  1051   2      60.202331154350894      20.793986888207968      1.5743049286000002
  1052   2      60.202331154350894      20.793986888207968     -1.5743049286000002
  1053   2      63.006515429371596      19.276177626294974      1.5743049286000002
  1054   2      63.006515429371596      19.276177626294974     -1.5743049286000002
  1055   2       65.81069970439232       17.75836836438199      1.5743049286000002
  1056   2       65.81069970439232       17.75836836438199     -1.5743049286000002
  1057   2      26.464489095507965      42.195097481181136      1.5743049286000002
  1058   2      26.464489095507965      42.195097481181136     -1.5743049286000002
  1059   2      29.268673370528674      40.677288219268156      1.5743049286000002
  1060   2      29.268673370528674      40.677288219268156     -1.5743049286000002
  1061   2      32.072857645549391      39.159478957355162      1.5743049286000002
  1062   2      32.072857645549391      39.159478957355162     -1.5743049286000002
  1063   2        34.8770419205701      37.641669695442175      1.5743049286000002
  1064   2        34.8770419205701      37.641669695442175     -1.5743049286000002
  1065   2      37.681226195590803      36.123860433529174      1.5743049286000002
  1066   2      37.681226195590803      36.123860433529174     -1.5743049286000002
  1067   2      40.485410470611519      34.606051171616187      1.5743049286000002
  1068   2      40.485410470611519      34.606051171616187     -1.5743049286000002
  1069   2      43.289594745632229      33.088241909703193      1.5743049286000002
  1070   2      43.289594745632229      33.088241909703193     -1.5743049286000002
  1071   2      46.093779020652946      31.570432647790202      1.5743049286000002
  1072   2      46.093779020652946      31.570432647790202     -1.5743049286000002
  1073   2      48.897963295673655      30.052623385877215      1.5743049286000002
  1074   2      48.897963295673655      30.052623385877215     -1.5743049286000002
  1075   2      51.702147570694365      28.534814123964225      1.5743049286000002
  1076   2      51.702147570694365      28.534814123964225     -1.5743049286000002
  1077   2      54.506331845715081      27.017004862051234      1.5743049286000002
  1078   2      54.506331845715081      27.017004862051234     -1.5743049286000002
  1079   2      57.310516120735791      25.499195600138247      1.5743049286000002
  1080   2      57.310516120735791      25.499195600138247     -1.5743049286000002
  1081   2      60.114700395756508      23.981386338225249      1.5743049286000002
  1082   2      60.114700395756508      23.981386338225249     -1.5743049286000002
  1083   2      62.918884670777217      22.463577076312262      1.5743049286000002
  1084   2      62.918884670777217      22.463577076312262     -1.5743049286000002
  1085   2      65.723068945797934      20.945767814399275      1.5743049286000002
  1086   2      65.723068945797934      20.945767814399275     -1.5743049286000002
  1087   2      68.527253220818636      19.427958552486285      1.5743049286000002
  1088   2      68.527253220818636      19.427958552486285     -1.5743049286000002
  1089   2      26.376858336913561      45.382496931198418      1.5743049286000002
  1090   2      26.376858336913561      45.382496931198418     -1.5743049286000002
  1091   2      29.181042611934274      43.864687669285424      1.5743049286000002
  1092   2      29.181042611934274      43.864687669285424     -1.5743049286000002
  1093   2      31.985226886954983      42.346878407372436      1.5743049286000002
  1094   2      31.985226886954983      42.346878407372436     -1.5743049286000002
  1095   2        34.7894111619757      40.829069145459449      1.5743049286000002
  1096   2        34.7894111619757      40.829069145459449     -1.5743049286000002
  1097   2      37.593595436996409      39.311259883546455      1.5743049286000002
  1098   2      37.593595436996409      39.311259883546455     -1.5743049286000002
  1099   2      40.397779712017119      37.793450621633468      1.5743049286000002
  1100   2      40.397779712017119      37.793450621633468     -1.5743049286000002
  1101   2      43.201963987037828      36.275641359720474      1.5743049286000002
  1102   2      43.201963987037828      36.275641359720474     -1.5743049286000002
  1103   2      46.006148262058538       34.75783209780748      1.5743049286000002
  1104   2      46.006148262058538       34.75783209780748     -1.5743049286000002
  1105   2      48.810332537079255      33.240022835894493      1.5743049286000002
  1106   2      48.810332537079255      33.240022835894493     -1.5743049286000002
  1107   2      51.614516812099964      31.722213573981502      1.5743049286000002
  1108   2      51.614516812099964      31.722213573981502     -1.5743049286000002
  1109   2      54.418701087120674      30.204404312068512      1.5743049286000002
  1110   2      54.418701087120674      30.204404312068512     -1.5743049286000002
  1111   2      57.222885362141383      28.686595050155514      1.5743049286000002
  1112   2      57.222885362141383      28.686595050155514     -1.5743049286000002
  1113   2      60.027069637162093      27.168785788242527      1.5743049286000002
  1114   2      60.027069637162093      27.168785788242527     -1.5743049286000002
  1115   2       62.83125391218281      25.650976526329536      1.5743049286000002
  1116   2       62.83125391218281      25.650976526329536     -1.5743049286000002
  1117   2      65.635438187203519      24.133167264416549      1.5743049286000002
  1118   2      65.635438187203519      24.133167264416549     -1.5743049286000002
  1119   2      68.439622462224236      22.615358002503555      1.5743049286000002
  1120   2      68.439622462224236      22.615358002503555     -1.5743049286000002
  1121   2      29.093411853339877      47.052087119302705      1.5743049286000002
  1122   2      29.093411853339877      47.052087119302705     -1.5743049286000002
  1123   2       31.89759612836059      45.534277857389718      1.5743049286000002
  1124   2       31.89759612836059      45.534277857389718     -1.5743049286000002
  1125   2      34.701780403381299      44.016468595476731      1.5743049286000002
  1126   2      34.701780403381299      44.016468595476731     -1.5743049286000002
  1127   2      37.505964678402016      42.498659333563737      1.5743049286000002
  1128   2      37.505964678402016      42.498659333563737     -1.5743049286000002
  1129   2      40.310148953422726       40.98085007165075      1.5743049286000002
  1130   2      40.310148953422726       40.98085007165075     -1.5743049286000002
  1131   2      43.114333228443435      39.463040809737755      1.5743049286000002
  1132   2      43.114333228443435      39.463040809737755     -1.5743049286000002
  1133   2      45.918517503464145      37.945231547824761      1.5743049286000002
  1134   2      45.918517503464145      37.945231547824761     -1.5743049286000002
  1135   2      48.722701778484854      36.427422285911774      1.5743049286000002
  1136   2      48.722701778484854      36.427422285911774     -1.5743049286000002
  1137   2      51.526886053505571       34.90961302399878      1.5743049286000002
  1138   2      51.526886053505571       34.90961302399878     -1.5743049286000002
  1139   2      54.331070328526273      33.391803762085786      1.5743049286000002
  1140   2      54.331070328526273      33.391803762085786     -1.5743049286000002
  1141   2      57.135254603546983      31.873994500172799      1.5743049286000002
  1142   2      57.135254603546983      31.873994500172799     -1.5743049286000002
  1143   2      59.939438878567699      30.356185238259808      1.5743049286000002
  1144   2      59.939438878567699      30.356185238259808     -1.5743049286000002
  1145   2      62.743623153588409      28.838375976346821      1.5743049286000002
  1146   2      62.743623153588409      28.838375976346821     -1.5743049286000002
  1147   2      65.547807428609119      27.320566714433824      1.5743049286000002
  1148   2      65.547807428609119      27.320566714433824     -1.5743049286000002
  1149   2      68.351991703629835      25.802757452520837      1.5743049286000002
  1150   2      68.351991703629835      25.802757452520837     -1.5743049286000002
  1151   2      71.156175978650552      24.284948190607849      1.5743049286000002
  1152   2      71.156175978650552      24.284948190607849     -1.5743049286000002
  1153   2      29.005781094745473      50.239486569319986      1.5743049286000002
  1154   2      29.005781094745473      50.239486569319986     -1.5743049286000002
  1155   2      31.809965369766186      48.721677307406992      1.5743049286000002
  1156   2      31.809965369766186      48.721677307406992     -1.5743049286000002
  1157   2      34.614149644786899      47.203868045494005      1.5743049286000002
  1158   2      34.614149644786899      47.203868045494005     -1.5743049286000002
  1159   2      37.418333919807608      45.686058783581018      1.5743049286000002
  1160   2      37.418333919807608      45.686058783581018     -1.5743049286000002
  1161   2      40.222518194828325      44.168249521668024      1.5743049286000002
  1162   2      40.222518194828325      44.168249521668024     -1.5743049286000002
  1163   2      43.026702469849035      42.650440259755037      1.5743049286000002
  1164   2      43.026702469849035      42.650440259755037     -1.5743049286000002
  1165   2      45.830886744869737      41.132630997842043      1.5743049286000002
  1166   2      45.830886744869737      41.132630997842043     -1.5743049286000002
  1167   2      48.635071019890454      39.614821735929056      1.5743049286000002
  1168   2      48.635071019890454      39.614821735929056     -1.5743049286000002
  1169   2      51.439255294911163      38.097012474016054      1.5743049286000002
  1170   2      51.439255294911163      38.097012474016054     -1.5743049286000002
  1171   2       54.24343956993188      36.579203212103067      1.5743049286000002
  1172   2       54.24343956993188      36.579203212103067     -1.5743049286000002
  1173   2      57.047623844952589       35.06139395019008      1.5743049286000002
  1174   2      57.047623844952589       35.06139395019008     -1.5743049286000002
  1175   2      59.851808119973299      33.543584688277093      1.5743049286000002
  1176   2      59.851808119973299      33.543584688277093     -1.5743049286000002
  1177   2      62.655992394994016      32.025775426364099      1.5743049286000002
  1178   2      62.655992394994016      32.025775426364099     -1.5743049286000002
  1179   2      65.460176670014732      30.507966164451108      1.5743049286000002
  1180   2      65.460176670014732      30.507966164451108     -1.5743049286000002
  1181   2      68.264360945035435      28.990156902538118      1.5743049286000002
  1182   2      68.264360945035435      28.990156902538118     -1.5743049286000002
  1183   2      71.068545220056151      27.472347640625124      1.5743049286000002
  1184   2      71.068545220056151      27.472347640625124     -1.5743049286000002
  1185   2      37.330703161213215      48.873458233598292      1.5743049286000002
  1186   2      37.330703161213215      48.873458233598292     -1.5743049286000002
  1187   2      40.134887436233925      47.355648971685305      1.5743049286000002
  1188   2      40.134887436233925      47.355648971685305     -1.5743049286000002
  1189   2      42.939071711254641      45.837839709772318      1.5743049286000002
  1190   2      42.939071711254641      45.837839709772318     -1.5743049286000002
  1191   2      45.743255986275351      44.320030447859324      1.5743049286000002
  1192   2      45.743255986275351      44.320030447859324     -1.5743049286000002
  1193   2      48.547440261296053       42.80222118594633      1.5743049286000002
  1194   2      48.547440261296053       42.80222118594633     -1.5743049286000002
  1195   2       51.35162453631677      41.284411924033343      1.5743049286000002
  1196   2       51.35162453631677      41.284411924033343     -1.5743049286000002
  1197   2      54.155808811337479      39.766602662120349      1.5743049286000002
  1198   2      54.155808811337479      39.766602662120349     -1.5743049286000002
  1199   2      56.959993086358196      38.248793400207362      1.5743049286000002
  1200   2      56.959993086358196      38.248793400207362     -1.5743049286000002
  1201   2      59.764177361378906      36.730984138294367      1.5743049286000002
  1202   2      59.764177361378906      36.730984138294367     -1.5743049286000002
  1203   2      62.568361636399615       35.21317487638138      1.5743049286000002
  1204   2      62.568361636399615       35.21317487638138     -1.5743049286000002
  1205   2      65.372545911420332      33.695365614468393      1.5743049286000002
  1206   2      65.372545911420332      33.695365614468393     -1.5743049286000002
  1207   2      68.176730186441048      32.177556352555392      1.5743049286000002
  1208   2      68.176730186441048      32.177556352555392     -1.5743049286000002
  1209   2      70.980914461461751      30.659747090642405      1.5743049286000002
  1210   2      70.980914461461751      30.659747090642405     -1.5743049286000002
  1211   2      73.785098736482468      29.141937828729418      1.5743049286000002
  1212   2      73.785098736482468      29.141937828729418     -1.5743049286000002
  1213   2      42.851440952660241      49.025239159789599      1.5743049286000002
  1214   2      42.851440952660241      49.025239159789599     -1.5743049286000002
  1215   2       45.65562522768095      47.507429897876598      1.5743049286000002
  1216   2       45.65562522768095      47.507429897876598     -1.5743049286000002
  1217   2       48.45980950270166      45.989620635963611      1.5743049286000002
  1218   2       48.45980950270166      45.989620635963611     -1.5743049286000002
  1219   2      51.263993777722369      44.471811374050624      1.5743049286000002
  1220   2      51.263993777722369      44.471811374050624     -1.5743049286000002
  1221   2      54.068178052743086      42.954002112137637      1.5743049286000002
  1222   2      54.068178052743086      42.954002112137637     -1.5743049286000002
  1223   2      56.872362327763796      41.436192850224636      1.5743049286000002
  1224   2      56.872362327763796      41.436192850224636     -1.5743049286000002
  1225   2      59.676546602784512      39.918383588311649      1.5743049286000002
  1226   2      59.676546602784512      39.918383588311649     -1.5743049286000002
  1227   2      62.480730877805222      38.400574326398662      1.5743049286000002
  1228   2      62.480730877805222      38.400574326398662     -1.5743049286000002
  1229   2      65.284915152825931      36.882765064485667      1.5743049286000002
  1230   2      65.284915152825931      36.882765064485667     -1.5743049286000002
  1231   2      68.089099427846634       35.36495580257268      1.5743049286000002
  1232   2      68.089099427846634       35.36495580257268     -1.5743049286000002
  1233   2      70.893283702867365      33.847146540659686      1.5743049286000002
  1234   2      70.893283702867365      33.847146540659686     -1.5743049286000002
  1235   2      73.697467977888067      32.329337278746699      1.5743049286000002
  1236   2      73.697467977888067      32.329337278746699     -1.5743049286000002
  1237   2      48.372178744107266      49.177020085980892      1.5743049286000002
  1238   2      48.372178744107266      49.177020085980892     -1.5743049286000002
  1239   2      51.176363019127976      47.659210824067905      1.5743049286000002
  1240   2      51.176363019127976      47.659210824067905     -1.5743049286000002
  1241   2      53.980547294148685      46.141401562154911      1.5743049286000002
  1242   2      53.980547294148685      46.141401562154911     -1.5743049286000002
  1243   2      56.784731569169402      44.623592300241924      1.5743049286000002
  1244   2      56.784731569169402      44.623592300241924     -1.5743049286000002
  1245   2      59.588915844190112       43.10578303832893      1.5743049286000002
  1246   2      59.588915844190112       43.10578303832893     -1.5743049286000002
  1247   2      62.393100119210828      41.587973776415936      1.5743049286000002
  1248   2      62.393100119210828      41.587973776415936     -1.5743049286000002
  1249   2      65.197284394231531      40.070164514502949      1.5743049286000002
  1250   2      65.197284394231531      40.070164514502949     -1.5743049286000002
  1251   2      68.001468669252247      38.552355252589962      1.5743049286000002
  1252   2      68.001468669252247      38.552355252589962     -1.5743049286000002
  1253   2       70.80565294427295      37.034545990676975      1.5743049286000002
  1254   2       70.80565294427295      37.034545990676975     -1.5743049286000002
  1255   2      73.609837219293681      35.516736728763973      1.5743049286000002
  1256   2      73.609837219293681      35.516736728763973     -1.5743049286000002
  1257   2      76.414021494314383      33.998927466850986      1.5743049286000002
  1258   2      76.414021494314383      33.998927466850986     -1.5743049286000002
  1259   2      53.892916535554292      49.328801012172192      1.5743049286000002
  1260   2      53.892916535554292      49.328801012172192     -1.5743049286000002
  1261   2      56.697100810575002      47.810991750259205      1.5743049286000002
  1262   2      56.697100810575002      47.810991750259205     -1.5743049286000002
  1263   2      59.501285085595718      46.293182488346211      1.5743049286000002
  1264   2      59.501285085595718      46.293182488346211     -1.5743049286000002
  1265   2      62.305469360616421      44.775373226433217      1.5743049286000002
  1266   2      62.305469360616421      44.775373226433217     -1.5743049286000002
  1267   2      65.109653635637144       43.25756396452023      1.5743049286000002
  1268   2      65.109653635637144       43.25756396452023     -1.5743049286000002
  1269   2      67.913837910657847      41.739754702607243      1.5743049286000002
  1270   2      67.913837910657847      41.739754702607243     -1.5743049286000002
  1271   2      70.718022185678564      40.221945440694249      1.5743049286000002
  1272   2      70.718022185678564      40.221945440694249     -1.5743049286000002
  1273   2      73.522206460699266      38.704136178781262      1.5743049286000002
  1274   2      73.522206460699266      38.704136178781262     -1.5743049286000002
  1275   2      76.326390735719997      37.186326916868268      1.5743049286000002
  1276   2      76.326390735719997      37.186326916868268     -1.5743049286000002
  1277   2      59.413654327001311      49.480581938363493      1.5743049286000002
  1278   2      59.413654327001311      49.480581938363493     -1.5743049286000002
  1279   2      62.217838602022034      47.962772676450506      1.5743049286000002
  1280   2      62.217838602022034      47.962772676450506     -1.5743049286000002
  1281   2      65.022022877042744      46.444963414537511      1.5743049286000002
  1282   2      65.022022877042744      46.444963414537511     -1.5743049286000002
  1283   2      67.826207152063461      44.927154152624517      1.5743049286000002
  1284   2      67.826207152063461      44.927154152624517     -1.5743049286000002
  1285   2      70.630391427084163       43.40934489071153      1.5743049286000002
  1286   2      70.630391427084163       43.40934489071153     -1.5743049286000002
  1287   2       73.43457570210488      41.891535628798543      1.5743049286000002
  1288   2       73.43457570210488      41.891535628798543     -1.5743049286000002
  1289   2      76.238759977125582      40.373726366885556      1.5743049286000002
  1290   2      76.238759977125582      40.373726366885556     -1.5743049286000002
  1291   2      79.042944252146313      38.855917104972555      1.5743049286000002
  1292   2      79.042944252146313      38.855917104972555     -1.5743049286000002
  1293   2      64.934392118448343      49.632362864554793      1.5743049286000002
  1294   2      64.934392118448343      49.632362864554793     -1.5743049286000002
  1295   2       67.73857639346906      48.114553602641799      1.5743049286000002
  1296   2       67.73857639346906      48.114553602641799     -1.5743049286000002
  1297   2      70.542760668489777      46.596744340728812      1.5743049286000002
  1298   2      70.542760668489777      46.596744340728812     -1.5743049286000002
  1299   2      73.346944943510479      45.078935078815825      1.5743049286000002
  1300   2      73.346944943510479      45.078935078815825     -1.5743049286000002
  1301   2      76.151129218531196       43.56112581690283      1.5743049286000002
  1302   2      76.151129218531196       43.56112581690283     -1.5743049286000002
  1303   2      78.955313493551898      42.043316554989843      1.5743049286000002
  1304   2      78.955313493551898      42.043316554989843     -1.5743049286000002
  1305   2      70.455129909895362      49.784143790746086      1.5743049286000002
  1306   2      70.455129909895362      49.784143790746086     -1.5743049286000002
  1307   2      73.259314184916079      48.266334528833092      1.5743049286000002
  1308   2      73.259314184916079      48.266334528833092     -1.5743049286000002
  1309   2      76.063498459936781      46.748525266920105      1.5743049286000002
  1310   2      76.063498459936781      46.748525266920105     -1.5743049286000002
  1311   2      78.867682734957498      45.230716005007118      1.5743049286000002
  1312   2      78.867682734957498      45.230716005007118     -1.5743049286000002
  1313   2        81.6718670099782       43.71290674309413      1.5743049286000002
  1314   2        81.6718670099782       43.71290674309413     -1.5743049286000002
  1315   2      75.975867701342395      49.935924716937386      1.5743049286000002
  1316   2      75.975867701342395      49.935924716937386     -1.5743049286000002
  1317   2      78.780051976363097      48.418115455024399      1.5743049286000002
  1318   2      78.780051976363097      48.418115455024399     -1.5743049286000002
  1319   2      81.584236251383814      46.900306193111405      1.5743049286000002
  1320   2      81.584236251383814      46.900306193111405     -1.5743049286000002
  1321   2      81.496605492789413      50.087705643128686      1.5743049286000002
  1322   2      81.496605492789413      50.087705643128686     -1.5743049286000002
  1323   2       84.30078976781013      48.569896381215699      1.5743049286000002
  1324   2       84.30078976781013      48.569896381215699     -1.5743049286000002
  1325   2      2.8041842750207091      1.5178092619129939      8.0743049286000002
  1326   2      2.8041842750207091      1.5178092619129939      4.9256950713999998
  1327   2      2.8918150336151025      4.7052087119302746      8.0743049286000002
  1328   2      2.8918150336151025      4.7052087119302746      4.9256950713999998
  1329   2      5.6083685500414182      3.0356185238259878      8.0743049286000002
  1330   2      5.6083685500414182      3.0356185238259878      4.9256950713999998
  1331   2      8.3249220664677335      1.3660283357217013      8.0743049286000002
  1332   2      8.3249220664677335      1.3660283357217013      4.9256950713999998
  1333   2      5.6959993086358107      6.2230179738432687      8.0743049286000002
  1334   2      5.6959993086358107      6.2230179738432687      4.9256950713999998
  1335   2      8.4125528250621286      4.5534277857389824      8.0743049286000002
  1336   2      8.4125528250621286      4.5534277857389824      4.9256950713999998
  1337   2      11.129106341488445      2.8838375976346957      8.0743049286000002
  1338   2      11.129106341488445      2.8838375976346957      4.9256950713999998
  1339   2      13.845659857914759      1.2142474095304086      8.0743049286000002
  1340   2      13.845659857914759      1.2142474095304086      4.9256950713999998
  1341   2       5.783630067230205      9.4104174238605491      8.0743049286000002
  1342   2       5.783630067230205      9.4104174238605491      4.9256950713999998
  1343   2       8.500183583656522       7.740827235756262      8.0743049286000002
  1344   2       8.500183583656522       7.740827235756262      4.9256950713999998
  1345   2      11.216737100082836      6.0712370476519757      8.0743049286000002
  1346   2      11.216737100082836      6.0712370476519757      4.9256950713999998
  1347   2      13.933290616509153      4.4016468595476903      8.0743049286000002
  1348   2      13.933290616509153      4.4016468595476903      4.9256950713999998
  1349   2      16.649844132935467      2.7320566714434027      8.0743049286000002
  1350   2      16.649844132935467      2.7320566714434027      4.9256950713999998
  1351   2      19.366397649361783      1.0624664833391153      8.0743049286000002
  1352   2      19.366397649361783      1.0624664833391153      4.9256950713999998
  1353   2      8.5878143422509154      10.928226685773543      8.0743049286000002
  1354   2      8.5878143422509154      10.928226685773543      4.9256950713999998
  1355   2       11.30436785867723      9.2586364976692561      8.0743049286000002
  1356   2       11.30436785867723      9.2586364976692561      4.9256950713999998
  1357   2      14.020921375103548      7.5890463095649707      8.0743049286000002
  1358   2      14.020921375103548      7.5890463095649707      4.9256950713999998
  1359   2       16.73747489152986      5.9194561214606827      8.0743049286000002
  1360   2       16.73747489152986      5.9194561214606827      4.9256950713999998
  1361   2      19.454028407956176      4.2498659333563955      8.0743049286000002
  1362   2      19.454028407956176      4.2498659333563955      4.9256950713999998
  1363   2      22.170581924382493      2.5802757452521101      8.0743049286000002
  1364   2      22.170581924382493      2.5802757452521101      4.9256950713999998
  1365   2      24.887135440808812     0.91068555714782384      8.0743049286000002
  1366   2      24.887135440808812     0.91068555714782384      4.9256950713999998
  1367   2      8.6754451008453071      14.115626135790823      8.0743049286000002
  1368   2      8.6754451008453071      14.115626135790823      4.9256950713999998
  1369   2      11.391998617271621      12.446035947686537      8.0743049286000002
  1370   2      11.391998617271621      12.446035947686537      4.9256950713999998
  1371   2      14.108552133697939       10.77644575958225      8.0743049286000002
  1372   2      14.108552133697939       10.77644575958225      4.9256950713999998
  1373   2      16.825105650124257      9.1068555714779649      8.0743049286000002
  1374   2      16.825105650124257      9.1068555714779649      4.9256950713999998
  1375   2      19.541659166550573      7.4372653833736777      8.0743049286000002
  1376   2      19.541659166550573      7.4372653833736777      4.9256950713999998
  1377   2       22.25821268297689      5.7676751952693914      8.0743049286000002
  1378   2       22.25821268297689      5.7676751952693914      4.9256950713999998
  1379   2      24.974766199403206      4.0980850071651052      8.0743049286000002
  1380   2      24.974766199403206      4.0980850071651052      4.9256950713999998
  1381   2      27.691319715829518      2.4284948190608171      8.0743049286000002
  1382   2      27.691319715829518      2.4284948190608171      4.9256950713999998
  1383   2      30.407873232255834     0.75890463095653071      8.0743049286000002
  1384   2      30.407873232255834     0.75890463095653071      4.9256950713999998
  1385   2      11.479629375866017      15.633435397703819      8.0743049286000002
  1386   2      11.479629375866017      15.633435397703819      4.9256950713999998
  1387   2      14.196182892292331       13.96384520959953      8.0743049286000002
  1388   2      14.196182892292331       13.96384520959953      4.9256950713999998
  1389   2      16.912736408718647      12.294255021495244      8.0743049286000002
  1390   2      16.912736408718647      12.294255021495244      4.9256950713999998
  1391   2      19.629289925144963      10.624664833390957      8.0743049286000002
  1392   2      19.629289925144963      10.624664833390957      4.9256950713999998
  1393   2      22.345843441571283      8.9550746452866719      8.0743049286000002
  1394   2      22.345843441571283      8.9550746452866719      4.9256950713999998
  1395   2      25.062396957997596      7.2854844571823847      8.0743049286000002
  1396   2      25.062396957997596      7.2854844571823847      4.9256950713999998
  1397   2      27.778950474423908      5.6158942690780966      8.0743049286000002
  1398   2      27.778950474423908      5.6158942690780966      4.9256950713999998
  1399   2      30.495503990850224      3.9463040809738104      8.0743049286000002
  1400   2      30.495503990850224      3.9463040809738104      4.9256950713999998
  1401   2      33.212057507276548      2.2767138928695241      8.0743049286000002
  1402   2      33.212057507276548      2.2767138928695241      4.9256950713999998
  1403   2      35.928611023702864     0.60712370476523581      8.0743049286000002
  1404   2      35.928611023702864     0.60712370476523581      4.9256950713999998
  1405   2       11.56726013446041      18.820834847721098      8.0743049286000002
  1406   2       11.56726013446041      18.820834847721098      4.9256950713999998
  1407   2      14.283813650886726      17.151244659616811      8.0743049286000002
  1408   2      14.283813650886726      17.151244659616811      4.9256950713999998
  1409   2      17.000367167313044      15.481654471512524      8.0743049286000002
  1410   2      17.000367167313044      15.481654471512524      4.9256950713999998
  1411   2      19.716920683739357      13.812064283408237      8.0743049286000002
  1412   2      19.716920683739357      13.812064283408237      4.9256950713999998
  1413   2      22.433474200165673      12.142474095303951      8.0743049286000002
  1414   2      22.433474200165673      12.142474095303951      4.9256950713999998
  1415   2      25.150027716591989      10.472883907199666      8.0743049286000002
  1416   2      25.150027716591989      10.472883907199666      4.9256950713999998
  1417   2      27.866581233018305      8.8032937190953806      8.0743049286000002
  1418   2      27.866581233018305      8.8032937190953806      4.9256950713999998
  1419   2      30.583134749444621      7.1337035309910917      8.0743049286000002
  1420   2      30.583134749444621      7.1337035309910917      4.9256950713999998
  1421   2      33.299688265870934      5.4641133428868054      8.0743049286000002
  1422   2      33.299688265870934      5.4641133428868054      4.9256950713999998
  1423   2       36.01624178229725      3.7945231547825191      8.0743049286000002
  1424   2       36.01624178229725      3.7945231547825191      4.9256950713999998
  1425   2      38.732795298723566      2.1249329666782306      8.0743049286000002
  1426   2      38.732795298723566      2.1249329666782306      4.9256950713999998
  1427   2      41.449348815149889     0.45534277857394623      8.0743049286000002
  1428   2      41.449348815149889     0.45534277857394623      4.9256950713999998
  1429   2      14.371444409481123      20.338644109634092      8.0743049286000002
  1430   2      14.371444409481123      20.338644109634092      4.9256950713999998
  1431   2      17.087997925907437      18.669053921529805      8.0743049286000002
  1432   2      17.087997925907437      18.669053921529805      4.9256950713999998
  1433   2       19.80455144233375      16.999463733425518      8.0743049286000002
  1434   2       19.80455144233375      16.999463733425518      4.9256950713999998
  1435   2       22.52110495876007      15.329873545321233      8.0743049286000002
  1436   2       22.52110495876007      15.329873545321233      4.9256950713999998
  1437   2      25.237658475186386      13.660283357216946      8.0743049286000002
  1438   2      25.237658475186386      13.660283357216946      4.9256950713999998
  1439   2      27.954211991612702       11.99069316911266      8.0743049286000002
  1440   2      27.954211991612702       11.99069316911266      4.9256950713999998
  1441   2      30.670765508039018      10.321102981008375      8.0743049286000002
  1442   2      30.670765508039018      10.321102981008375      4.9256950713999998
  1443   2      33.387319024465334      8.6515127929040858      8.0743049286000002
  1444   2      33.387319024465334      8.6515127929040858      4.9256950713999998
  1445   2      36.103872540891651      6.9819226047998022      8.0743049286000002
  1446   2      36.103872540891651      6.9819226047998022      4.9256950713999998
  1447   2      38.820426057317967      5.3123324166955124      8.0743049286000002
  1448   2      38.820426057317967      5.3123324166955124      4.9256950713999998
  1449   2      41.536979573744276      3.6427422285912257      8.0743049286000002
  1450   2      41.536979573744276      3.6427422285912257      4.9256950713999998
  1451   2      44.253533090170599      1.9731520404869409      8.0743049286000002
  1452   2      44.253533090170599      1.9731520404869409      4.9256950713999998
  1453   2      46.970086606596908     0.30356185238265304      8.0743049286000002
  1454   2      46.970086606596908     0.30356185238265304      4.9256950713999998
  1455   2      14.459075168075511      23.526043559651374      8.0743049286000002
  1456   2      14.459075168075511      23.526043559651374      4.9256950713999998
  1457   2      17.175628684501831      21.856453371547087      8.0743049286000002
  1458   2      17.175628684501831      21.856453371547087      4.9256950713999998
  1459   2      19.892182200928143      20.186863183442799      8.0743049286000002
  1460   2      19.892182200928143      20.186863183442799      4.9256950713999998
  1461   2       22.60873571735446      18.517272995338512      8.0743049286000002
  1462   2       22.60873571735446      18.517272995338512      4.9256950713999998
  1463   2      25.325289233780776      16.847682807234225      8.0743049286000002
  1464   2      25.325289233780776      16.847682807234225      4.9256950713999998
  1465   2      28.041842750207095      15.178092619129941      8.0743049286000002
  1466   2      28.041842750207095      15.178092619129941      4.9256950713999998
  1467   2      30.758396266633412      13.508502431025654      8.0743049286000002
  1468   2      30.758396266633412      13.508502431025654      4.9256950713999998
  1469   2      33.474949783059721      11.838912242921365      8.0743049286000002
  1470   2      33.474949783059721      11.838912242921365      4.9256950713999998
  1471   2      36.191503299486044      10.169322054817082      8.0743049286000002
  1472   2      36.191503299486044      10.169322054817082      4.9256950713999998
  1473   2      38.908056815912353       8.499731866712791      8.0743049286000002
  1474   2      38.908056815912353       8.499731866712791      4.9256950713999998
  1475   2      41.624610332338669      6.8301416786085056      8.0743049286000002
  1476   2      41.624610332338669      6.8301416786085056      4.9256950713999998
  1477   2      44.341163848764985      5.1605514905042202      8.0743049286000002
  1478   2      44.341163848764985      5.1605514905042202      4.9256950713999998
  1479   2      47.057717365191301      3.4909613023999357      8.0743049286000002
  1480   2      47.057717365191301      3.4909613023999357      4.9256950713999998
  1481   2      49.774270881617625      1.8213711142956477      8.0743049286000002
  1482   2      49.774270881617625      1.8213711142956477      4.9256950713999998
  1483   2      52.490824398043934     0.15178092619135988      8.0743049286000002
  1484   2      52.490824398043934     0.15178092619135988      4.9256950713999998
  1485   2      17.263259443096221      25.043852821564368      8.0743049286000002
  1486   2      17.263259443096221      25.043852821564368      4.9256950713999998
  1487   2      19.979812959522537      23.374262633460081      8.0743049286000002
  1488   2      19.979812959522537      23.374262633460081      4.9256950713999998
  1489   2      22.696366475948857      21.704672445355794      8.0743049286000002
  1490   2      22.696366475948857      21.704672445355794      4.9256950713999998
  1491   2      25.412919992375169      20.035082257251503      8.0743049286000002
  1492   2      25.412919992375169      20.035082257251503      4.9256950713999998
  1493   2      28.129473508801485      18.365492069147223      8.0743049286000002
  1494   2      28.129473508801485      18.365492069147223      4.9256950713999998
  1495   2      30.846027025227798      16.695901881042932      8.0743049286000002
  1496   2      30.846027025227798      16.695901881042932      4.9256950713999998
  1497   2      33.562580541654114      15.026311692938645      8.0743049286000002
  1498   2      33.562580541654114      15.026311692938645      4.9256950713999998
  1499   2       36.27913405808043      13.356721504834363      8.0743049286000002
  1500   2       36.27913405808043      13.356721504834363      4.9256950713999998
  1501   2      38.995687574506753      11.687131316730072      8.0743049286000002
  1502   2      38.995687574506753      11.687131316730072      4.9256950713999998
  1503   2       41.71224109093307      10.017541128625789      8.0743049286000002
  1504   2       41.71224109093307      10.017541128625789      4.9256950713999998
  1505   2      44.428794607359379      8.3479509405214998      8.0743049286000002
  1506   2      44.428794607359379      8.3479509405214998      4.9256950713999998
  1507   2      47.145348123785702      6.6783607524172162      8.0743049286000002
  1508   2      47.145348123785702      6.6783607524172162      4.9256950713999998
  1509   2      49.861901640212011      5.0087705643129272      8.0743049286000002
  1510   2      49.861901640212011      5.0087705643129272      4.9256950713999998
  1511   2      52.578455156638327      3.3391803762086396      8.0743049286000002
  1512   2      52.578455156638327      3.3391803762086396      4.9256950713999998
  1513   2      55.295008673064643      1.6695901881043516      8.0743049286000002
  1514   2      55.295008673064643      1.6695901881043516      4.9256950713999998
  1515   2      17.350890201690614      28.231252271581646      8.0743049286000002
  1516   2      17.350890201690614      28.231252271581646      4.9256950713999998
  1517   2      20.067443718116934      26.561662083477358      8.0743049286000002
  1518   2      20.067443718116934      26.561662083477358      4.9256950713999998
  1519   2      22.783997234543243      24.892071895373075      8.0743049286000002
  1520   2      22.783997234543243      24.892071895373075      4.9256950713999998
  1521   2      25.500550750969563      23.222481707268788      8.0743049286000002
  1522   2      25.500550750969563      23.222481707268788      4.9256950713999998
  1523   2      28.217104267395879      21.552891519164501      8.0743049286000002
  1524   2      28.217104267395879      21.552891519164501      4.9256950713999998
  1525   2      30.933657783822198      19.883301331060213      8.0743049286000002
  1526   2      30.933657783822198      19.883301331060213      4.9256950713999998
  1527   2      33.650211300248515       18.21371114295593      8.0743049286000002
  1528   2      33.650211300248515       18.21371114295593      4.9256950713999998
  1529   2      36.366764816674824      16.544120954851639      8.0743049286000002
  1530   2      36.366764816674824      16.544120954851639      4.9256950713999998
  1531   2      39.083318333101147      14.874530766747355      8.0743049286000002
  1532   2      39.083318333101147      14.874530766747355      4.9256950713999998
  1533   2      41.799871849527456      13.204940578643065      8.0743049286000002
  1534   2      41.799871849527456      13.204940578643065      4.9256950713999998
  1535   2      44.516425365953779      11.535350390538783      8.0743049286000002
  1536   2      44.516425365953779      11.535350390538783      4.9256950713999998
  1537   2      47.232978882380088      9.8657602024344921      8.0743049286000002
  1538   2      47.232978882380088      9.8657602024344921      4.9256950713999998
  1539   2      49.949532398806411      8.1961700143302103      8.0743049286000002
  1540   2      49.949532398806411      8.1961700143302103      4.9256950713999998
  1541   2      52.666085915232721      6.5265798262259258      8.0743049286000002
  1542   2      52.666085915232721      6.5265798262259258      4.9256950713999998
  1543   2      55.382639431659037      4.8569896381216342      8.0743049286000002
  1544   2      55.382639431659037      4.8569896381216342      4.9256950713999998
  1545   2       58.09919294808536      3.1873994500173497      8.0743049286000002
  1546   2       58.09919294808536      3.1873994500173497      4.9256950713999998
  1547   2      20.155074476711324       29.74906153349464      8.0743049286000002
  1548   2      20.155074476711324       29.74906153349464      4.9256950713999998
  1549   2      22.871627993137643      28.079471345390356      8.0743049286000002
  1550   2      22.871627993137643      28.079471345390356      4.9256950713999998
  1551   2      25.588181509563956      26.409881157286065      8.0743049286000002
  1552   2      25.588181509563956      26.409881157286065      4.9256950713999998
  1553   2      28.304735025990276      24.740290969181785      8.0743049286000002
  1554   2      28.304735025990276      24.740290969181785      4.9256950713999998
  1555   2      31.021288542416592      23.070700781077495      8.0743049286000002
  1556   2      31.021288542416592      23.070700781077495      4.9256950713999998
  1557   2      33.737842058842908      21.401110592973211      8.0743049286000002
  1558   2      33.737842058842908      21.401110592973211      4.9256950713999998
  1559   2      36.454395575269224       19.73152040486892      8.0743049286000002
  1560   2      36.454395575269224       19.73152040486892      4.9256950713999998
  1561   2      39.170949091695533      18.061930216764637      8.0743049286000002
  1562   2      39.170949091695533      18.061930216764637      4.9256950713999998
  1563   2      41.887502608121856       16.39234002866035      8.0743049286000002
  1564   2      41.887502608121856       16.39234002866035      4.9256950713999998
  1565   2      44.604056124548165      14.722749840556062      8.0743049286000002
  1566   2      44.604056124548165      14.722749840556062      4.9256950713999998
  1567   2      47.320609640974489      13.053159652451775      8.0743049286000002
  1568   2      47.320609640974489      13.053159652451775      4.9256950713999998
  1569   2      50.037163157400798       11.38356946434749      8.0743049286000002
  1570   2      50.037163157400798       11.38356946434749      4.9256950713999998
  1571   2      52.753716673827121      9.7139792762432027      8.0743049286000002
  1572   2      52.753716673827121      9.7139792762432027      4.9256950713999998
  1573   2      55.470270190253437      8.0443890881389173      8.0743049286000002
  1574   2      55.470270190253437      8.0443890881389173      4.9256950713999998
  1575   2      58.186823706679753      6.3747989000346257      8.0743049286000002
  1576   2      58.186823706679753      6.3747989000346257      4.9256950713999998
  1577   2      20.242705235305714      32.936460983511921      8.0743049286000002
  1578   2      20.242705235305714      32.936460983511921      4.9256950713999998
  1579   2      22.959258751732033      31.266870795407637      8.0743049286000002
  1580   2      22.959258751732033      31.266870795407637      4.9256950713999998
  1581   2      25.675812268158349      29.597280607303347      8.0743049286000002
  1582   2      25.675812268158349      29.597280607303347      4.9256950713999998
  1583   2      28.392365784584662       27.92769041919906      8.0743049286000002
  1584   2      28.392365784584662       27.92769041919906      4.9256950713999998
  1585   2      31.108919301010982      26.258100231094776      8.0743049286000002
  1586   2      31.108919301010982      26.258100231094776      4.9256950713999998
  1587   2      33.825472817437294      24.588510042990489      8.0743049286000002
  1588   2      33.825472817437294      24.588510042990489      4.9256950713999998
  1589   2       36.54202633386361      22.918919854886202      8.0743049286000002
  1590   2       36.54202633386361      22.918919854886202      4.9256950713999998
  1591   2      39.258579850289927      21.249329666781914      8.0743049286000002
  1592   2      39.258579850289927      21.249329666781914      4.9256950713999998
  1593   2      41.975133366716243      19.579739478677624      8.0743049286000002
  1594   2      41.975133366716243      19.579739478677624      4.9256950713999998
  1595   2      44.691686883142566      17.910149290573344      8.0743049286000002
  1596   2      44.691686883142566      17.910149290573344      4.9256950713999998
  1597   2      47.408240399568875      16.240559102469053      8.0743049286000002
  1598   2      47.408240399568875      16.240559102469053      4.9256950713999998
  1599   2      50.124793915995191      14.570968914364769      8.0743049286000002
  1600   2      50.124793915995191      14.570968914364769      4.9256950713999998
  1601   2      52.841347432421507      12.901378726260479      8.0743049286000002
  1602   2      52.841347432421507      12.901378726260479      4.9256950713999998
  1603   2      55.557900948847816      11.231788538156193      8.0743049286000002
  1604   2      55.557900948847816      11.231788538156193      4.9256950713999998
  1605   2       58.27445446527414      9.5621983500519079      8.0743049286000002
  1606   2       58.27445446527414      9.5621983500519079      4.9256950713999998
  1607   2      60.991007981700449      7.8926081619476207      8.0743049286000002
  1608   2      60.991007981700449      7.8926081619476207      4.9256950713999998
  1609   2      23.046889510326427      34.454270245424915      8.0743049286000002
  1610   2      23.046889510326427      34.454270245424915      4.9256950713999998
  1611   2      25.763443026752746      32.784680057320628      8.0743049286000002
  1612   2      25.763443026752746      32.784680057320628      4.9256950713999998
  1613   2      28.479996543179055      31.115089869216341      8.0743049286000002
  1614   2      28.479996543179055      31.115089869216341      4.9256950713999998
  1615   2      31.196550059605368      29.445499681112054      8.0743049286000002
  1616   2      31.196550059605368      29.445499681112054      4.9256950713999998
  1617   2      33.913103576031688      27.775909493007767      8.0743049286000002
  1618   2      33.913103576031688      27.775909493007767      4.9256950713999998
  1619   2      36.629657092458011      26.106319304903483      8.0743049286000002
  1620   2      36.629657092458011      26.106319304903483      4.9256950713999998
  1621   2      39.346210608884327      24.436729116799199      8.0743049286000002
  1622   2      39.346210608884327      24.436729116799199      4.9256950713999998
  1623   2      42.062764125310643      22.767138928694909      8.0743049286000002
  1624   2      42.062764125310643      22.767138928694909      4.9256950713999998
  1625   2      44.779317641736952      21.097548740590621      8.0743049286000002
  1626   2      44.779317641736952      21.097548740590621      4.9256950713999998
  1627   2      47.495871158163268      19.427958552486334      8.0743049286000002
  1628   2      47.495871158163268      19.427958552486334      4.9256950713999998
  1629   2      50.212424674589585      17.758368364382051      8.0743049286000002
  1630   2      50.212424674589585      17.758368364382051      4.9256950713999998
  1631   2      52.928978191015901      16.088778176277764      8.0743049286000002
  1632   2      52.928978191015901      16.088778176277764      4.9256950713999998
  1633   2      55.645531707442217      14.419187988173476      8.0743049286000002
  1634   2      55.645531707442217      14.419187988173476      4.9256950713999998
  1635   2      58.362085223868526      12.749597800069186      8.0743049286000002
  1636   2      58.362085223868526      12.749597800069186      4.9256950713999998
  1637   2      61.078638740294842      11.080007611964907      8.0743049286000002
  1638   2      61.078638740294842      11.080007611964907      4.9256950713999998
  1639   2       23.13452026892082      37.641669695442197      8.0743049286000002
  1640   2       23.13452026892082      37.641669695442197      4.9256950713999998
  1641   2      25.851073785347136      35.972079507337909      8.0743049286000002
  1642   2      25.851073785347136      35.972079507337909      4.9256950713999998
  1643   2      28.567627301773452      34.302489319233622      8.0743049286000002
  1644   2      28.567627301773452      34.302489319233622      4.9256950713999998
  1645   2      31.284180818199772      32.632899131129335      8.0743049286000002
  1646   2      31.284180818199772      32.632899131129335      4.9256950713999998
  1647   2      34.000734334626088      30.963308943025048      8.0743049286000002
  1648   2      34.000734334626088      30.963308943025048      4.9256950713999998
  1649   2      36.717287851052404      29.293718754920764      8.0743049286000002
  1650   2      36.717287851052404      29.293718754920764      4.9256950713999998
  1651   2      39.433841367478713      27.624128566816474      8.0743049286000002
  1652   2      39.433841367478713      27.624128566816474      4.9256950713999998
  1653   2      42.150394883905037      25.954538378712193      8.0743049286000002
  1654   2      42.150394883905037      25.954538378712193      4.9256950713999998
  1655   2      44.866948400331346      24.284948190607903      8.0743049286000002
  1656   2      44.866948400331346      24.284948190607903      4.9256950713999998
  1657   2      47.583501916757662      22.615358002503616      8.0743049286000002
  1658   2      47.583501916757662      22.615358002503616      4.9256950713999998
  1659   2      50.300055433183978      20.945767814399332      8.0743049286000002
  1660   2      50.300055433183978      20.945767814399332      4.9256950713999998
  1661   2      53.016608949610294      19.276177626295041      8.0743049286000002
  1662   2      53.016608949610294      19.276177626295041      4.9256950713999998
  1663   2       55.73316246603661      17.606587438190761      8.0743049286000002
  1664   2       55.73316246603661      17.606587438190761      4.9256950713999998
  1665   2      58.449715982462926      15.936997250086472      8.0743049286000002
  1666   2      58.449715982462926      15.936997250086472      4.9256950713999998
  1667   2      61.166269498889243      14.267407061982183      8.0743049286000002
  1668   2      61.166269498889243      14.267407061982183      4.9256950713999998
  1669   2      63.882823015315559      12.597816873877898      8.0743049286000002
  1670   2      63.882823015315559      12.597816873877898      4.9256950713999998
  1671   2       25.93870454394153      39.159478957355191      8.0743049286000002
  1672   2       25.93870454394153      39.159478957355191      4.9256950713999998
  1673   2      28.655258060367853      37.489888769250904      8.0743049286000002
  1674   2      28.655258060367853      37.489888769250904      4.9256950713999998
  1675   2      31.371811576794169      35.820298581146623      8.0743049286000002
  1676   2      31.371811576794169      35.820298581146623      4.9256950713999998
  1677   2      34.088365093220482      34.150708393042329      8.0743049286000002
  1678   2      34.088365093220482      34.150708393042329      4.9256950713999998
  1679   2      36.804918609646791      32.481118204938042      8.0743049286000002
  1680   2      36.804918609646791      32.481118204938042      4.9256950713999998
  1681   2      39.521472126073114      30.811528016833758      8.0743049286000002
  1682   2      39.521472126073114      30.811528016833758      4.9256950713999998
  1683   2      42.238025642499423      29.141937828729471      8.0743049286000002
  1684   2      42.238025642499423      29.141937828729471      4.9256950713999998
  1685   2      44.954579158925746      27.472347640625184      8.0743049286000002
  1686   2      44.954579158925746      27.472347640625184      4.9256950713999998
  1687   2      47.671132675352055      25.802757452520897      8.0743049286000002
  1688   2      47.671132675352055      25.802757452520897      4.9256950713999998
  1689   2      50.387686191778378       24.13316726441661      8.0743049286000002
  1690   2      50.387686191778378       24.13316726441661      4.9256950713999998
  1691   2      53.104239708204695      22.463577076312326      8.0743049286000002
  1692   2      53.104239708204695      22.463577076312326      4.9256950713999998
  1693   2      55.820793224631011      20.793986888208035      8.0743049286000002
  1694   2      55.820793224631011      20.793986888208035      4.9256950713999998
  1695   2      58.537346741057327      19.124396700103752      8.0743049286000002
  1696   2      58.537346741057327      19.124396700103752      4.9256950713999998
  1697   2      61.253900257483636      17.454806511999465      8.0743049286000002
  1698   2      61.253900257483636      17.454806511999465      4.9256950713999998
  1699   2      63.970453773909952      15.785216323895177      8.0743049286000002
  1700   2      63.970453773909952      15.785216323895177      4.9256950713999998
  1701   2      26.026335302535927      42.346878407372472      8.0743049286000002
  1702   2      26.026335302535927      42.346878407372472      4.9256950713999998
  1703   2      28.742888818962246      40.677288219268185      8.0743049286000002
  1704   2      28.742888818962246      40.677288219268185      4.9256950713999998
  1705   2      31.459442335388559      39.007698031163898      8.0743049286000002
  1706   2      31.459442335388559      39.007698031163898      4.9256950713999998
  1707   2      34.175995851814875      37.338107843059611      8.0743049286000002
  1708   2      34.175995851814875      37.338107843059611      4.9256950713999998
  1709   2      36.892549368241191       35.66851765495533      8.0743049286000002
  1710   2      36.892549368241191       35.66851765495533      4.9256950713999998
  1711   2        39.6091028846675      33.998927466851036      8.0743049286000002
  1712   2        39.6091028846675      33.998927466851036      4.9256950713999998
  1713   2      42.325656401093823      32.329337278746756      8.0743049286000002
  1714   2      42.325656401093823      32.329337278746756      4.9256950713999998
  1715   2       45.04220991752014      30.659747090642465      8.0743049286000002
  1716   2       45.04220991752014      30.659747090642465      4.9256950713999998
  1717   2      47.758763433946463      28.990156902538182      8.0743049286000002
  1718   2      47.758763433946463      28.990156902538182      4.9256950713999998
  1719   2      50.475316950372772      27.320566714433891      8.0743049286000002
  1720   2      50.475316950372772      27.320566714433891      4.9256950713999998
  1721   2      53.191870466799088      25.650976526329604      8.0743049286000002
  1722   2      53.191870466799088      25.650976526329604      4.9256950713999998
  1723   2      55.908423983225404       23.98138633822532      8.0743049286000002
  1724   2      55.908423983225404       23.98138633822532      4.9256950713999998
  1725   2      58.624977499651713       22.31179615012103      8.0743049286000002
  1726   2      58.624977499651713       22.31179615012103      4.9256950713999998
  1727   2      61.341531016078036       20.64220596201675      8.0743049286000002
  1728   2      61.341531016078036       20.64220596201675      4.9256950713999998
  1729   2      64.058084532504338      18.972615773912459      8.0743049286000002
  1730   2      64.058084532504338      18.972615773912459      4.9256950713999998
  1731   2      66.774638048930669      17.303025585808172      8.0743049286000002
  1732   2      66.774638048930669      17.303025585808172      4.9256950713999998
  1733   2      28.830519577556625      43.864687669285466      8.0743049286000002
  1734   2      28.830519577556625      43.864687669285466      4.9256950713999998
  1735   2      31.547073093982945      42.195097481181179      8.0743049286000002
  1736   2      31.547073093982945      42.195097481181179      4.9256950713999998
  1737   2      34.263626610409261      40.525507293076892      8.0743049286000002
  1738   2      34.263626610409261      40.525507293076892      4.9256950713999998
  1739   2      36.980180126835577      38.855917104972605      8.0743049286000002
  1740   2      36.980180126835577      38.855917104972605      4.9256950713999998
  1741   2      39.696733643261901      37.186326916868317      8.0743049286000002
  1742   2      39.696733643261901      37.186326916868317      4.9256950713999998
  1743   2       42.41328715968821       35.51673672876403      8.0743049286000002
  1744   2       42.41328715968821       35.51673672876403      4.9256950713999998
  1745   2      45.129840676114526      33.847146540659743      8.0743049286000002
  1746   2      45.129840676114526      33.847146540659743      4.9256950713999998
  1747   2      47.846394192540842      32.177556352555456      8.0743049286000002
  1748   2      47.846394192540842      32.177556352555456      4.9256950713999998
  1749   2      50.562947708967158      30.507966164451172      8.0743049286000002
  1750   2      50.562947708967158      30.507966164451172      4.9256950713999998
  1751   2      53.279501225393474      28.838375976346885      8.0743049286000002
  1752   2      53.279501225393474      28.838375976346885      4.9256950713999998
  1753   2      55.996054741819783      27.168785788242594      8.0743049286000002
  1754   2      55.996054741819783      27.168785788242594      4.9256950713999998
  1755   2      58.712608258246107      25.499195600138311      8.0743049286000002
  1756   2      58.712608258246107      25.499195600138311      4.9256950713999998
  1757   2      61.429161774672423      23.829605412034031      8.0743049286000002
  1758   2      61.429161774672423      23.829605412034031      4.9256950713999998
  1759   2      64.145715291098739      22.160015223929737      8.0743049286000002
  1760   2      64.145715291098739      22.160015223929737      4.9256950713999998
  1761   2      66.862268807525055      20.490425035825449      8.0743049286000002
  1762   2      66.862268807525055      20.490425035825449      4.9256950713999998
  1763   2      28.918150336151022      47.052087119302747      8.0743049286000002
  1764   2      28.918150336151022      47.052087119302747      4.9256950713999998
  1765   2      31.634703852577342       45.38249693119846      8.0743049286000002
  1766   2      31.634703852577342       45.38249693119846      4.9256950713999998
  1767   2      34.351257369003662      43.712906743094173      8.0743049286000002
  1768   2      34.351257369003662      43.712906743094173      4.9256950713999998
  1769   2      37.067810885429978      42.043316554989879      8.0743049286000002
  1770   2      37.067810885429978      42.043316554989879      4.9256950713999998
  1771   2      39.784364401856287      40.373726366885599      8.0743049286000002
  1772   2      39.784364401856287      40.373726366885599      4.9256950713999998
  1773   2      42.500917918282603      38.704136178781312      8.0743049286000002
  1774   2      42.500917918282603      38.704136178781312      4.9256950713999998
  1775   2      45.217471434708919      37.034545990677024      8.0743049286000002
  1776   2      45.217471434708919      37.034545990677024      4.9256950713999998
  1777   2      47.934024951135235      35.364955802572744      8.0743049286000002
  1778   2      47.934024951135235      35.364955802572744      4.9256950713999998
  1779   2      50.650578467561552       33.69536561446845      8.0743049286000002
  1780   2      50.650578467561552       33.69536561446845      4.9256950713999998
  1781   2      53.367131983987868       32.02577542636417      8.0743049286000002
  1782   2      53.367131983987868       32.02577542636417      4.9256950713999998
  1783   2      56.083685500414191      30.356185238259883      8.0743049286000002
  1784   2      56.083685500414191      30.356185238259883      4.9256950713999998
  1785   2        58.8002390168405      28.686595050155589      8.0743049286000002
  1786   2        58.8002390168405      28.686595050155589      4.9256950713999998
  1787   2      61.516792533266823      27.017004862051309      8.0743049286000002
  1788   2      61.516792533266823      27.017004862051309      4.9256950713999998
  1789   2      64.233346049693139      25.347414673947025      8.0743049286000002
  1790   2      64.233346049693139      25.347414673947025      4.9256950713999998
  1791   2      66.949899566119441      23.677824485842731      8.0743049286000002
  1792   2      66.949899566119441      23.677824485842731      4.9256950713999998
  1793   2      69.666453082545758      22.008234297738444      8.0743049286000002
  1794   2      69.666453082545758      22.008234297738444      4.9256950713999998
  1795   2      29.005781094745412      50.239486569320022      8.0743049286000002
  1796   2      29.005781094745412      50.239486569320022      4.9256950713999998
  1797   2      31.722334611171732      48.569896381215734      8.0743049286000002
  1798   2      31.722334611171732      48.569896381215734      4.9256950713999998
  1799   2      34.438888127598041      46.900306193111454      8.0743049286000002
  1800   2      34.438888127598041      46.900306193111454      4.9256950713999998
  1801   2      37.155441644024364      45.230716005007167      8.0743049286000002
  1802   2      37.155441644024364      45.230716005007167      4.9256950713999998
  1803   2      39.871995160450673      43.561125816902873      8.0743049286000002
  1804   2      39.871995160450673      43.561125816902873      4.9256950713999998
  1805   2      42.588548676876997      41.891535628798593      8.0743049286000002
  1806   2      42.588548676876997      41.891535628798593      4.9256950713999998
  1807   2      45.305102193303313      40.221945440694306      8.0743049286000002
  1808   2      45.305102193303313      40.221945440694306      4.9256950713999998
  1809   2      48.021655709729629      38.552355252590012      8.0743049286000002
  1810   2      48.021655709729629      38.552355252590012      4.9256950713999998
  1811   2      50.738209226155945      36.882765064485731      8.0743049286000002
  1812   2      50.738209226155945      36.882765064485731      4.9256950713999998
  1813   2      53.454762742582261      35.213174876381444      8.0743049286000002
  1814   2      53.454762742582261      35.213174876381444      4.9256950713999998
  1815   2       56.17131625900857      33.543584688277157      8.0743049286000002
  1816   2       56.17131625900857      33.543584688277157      4.9256950713999998
  1817   2      58.887869775434893       31.87399450017287      8.0743049286000002
  1818   2      58.887869775434893       31.87399450017287      4.9256950713999998
  1819   2       61.60442329186121       30.20440431206859      8.0743049286000002
  1820   2       61.60442329186121       30.20440431206859      4.9256950713999998
  1821   2      64.320976808287512      28.534814123964296      8.0743049286000002
  1822   2      64.320976808287512      28.534814123964296      4.9256950713999998
  1823   2      67.037530324713828      26.865223935860008      8.0743049286000002
  1824   2      67.037530324713828      26.865223935860008      4.9256950713999998
  1825   2      69.754083841140158      25.195633747755725      8.0743049286000002
  1826   2      69.754083841140158      25.195633747755725      4.9256950713999998
  1827   2      34.526518886192441      50.087705643128736      8.0743049286000002
  1828   2      34.526518886192441      50.087705643128736      4.9256950713999998
  1829   2      37.243072402618751      48.418115455024441      8.0743049286000002
  1830   2      37.243072402618751      48.418115455024441      4.9256950713999998
  1831   2      39.959625919045074      46.748525266920161      8.0743049286000002
  1832   2      39.959625919045074      46.748525266920161      4.9256950713999998
  1833   2       42.67617943547139      45.078935078815867      8.0743049286000002
  1834   2       42.67617943547139      45.078935078815867      4.9256950713999998
  1835   2      45.392732951897713      43.409344890711587      8.0743049286000002
  1836   2      45.392732951897713      43.409344890711587      4.9256950713999998
  1837   2      48.109286468324022        41.7397547026073      8.0743049286000002
  1838   2      48.109286468324022        41.7397547026073      4.9256950713999998
  1839   2      50.825839984750338      40.070164514503006      8.0743049286000002
  1840   2      50.825839984750338      40.070164514503006      4.9256950713999998
  1841   2      53.542393501176655      38.400574326398726      8.0743049286000002
  1842   2      53.542393501176655      38.400574326398726      4.9256950713999998
  1843   2      56.258947017602971      36.730984138294446      8.0743049286000002
  1844   2      56.258947017602971      36.730984138294446      4.9256950713999998
  1845   2       58.97550053402928      35.061393950190151      8.0743049286000002
  1846   2       58.97550053402928      35.061393950190151      4.9256950713999998
  1847   2      61.692054050455596      33.391803762085864      8.0743049286000002
  1848   2      61.692054050455596      33.391803762085864      4.9256950713999998
  1849   2      64.408607566881912      31.722213573981584      8.0743049286000002
  1850   2      64.408607566881912      31.722213573981584      4.9256950713999998
  1851   2      67.125161083308228       30.05262338587729      8.0743049286000002
  1852   2      67.125161083308228       30.05262338587729      4.9256950713999998
  1853   2      69.841714599734544      28.383033197773003      8.0743049286000002
  1854   2      69.841714599734544      28.383033197773003      4.9256950713999998
  1855   2       72.55826811616086      26.713443009668726      8.0743049286000002
  1856   2       72.55826811616086      26.713443009668726      4.9256950713999998
  1857   2      40.047256677639467      49.935924716937443      8.0743049286000002
  1858   2      40.047256677639467      49.935924716937443      4.9256950713999998
  1859   2       42.76381019406579      48.266334528833156      8.0743049286000002
  1860   2       42.76381019406579      48.266334528833156      4.9256950713999998
  1861   2      45.480363710492099      46.596744340728868      8.0743049286000002
  1862   2      45.480363710492099      46.596744340728868      4.9256950713999998
  1863   2      48.196917226918416      44.927154152624581      8.0743049286000002
  1864   2      48.196917226918416      44.927154152624581      4.9256950713999998
  1865   2      50.913470743344739      43.257563964520294      8.0743049286000002
  1866   2      50.913470743344739      43.257563964520294      4.9256950713999998
  1867   2      53.630024259771041      41.587973776416007      8.0743049286000002
  1868   2      53.630024259771041      41.587973776416007      4.9256950713999998
  1869   2      56.346577776197364       39.91838358831172      8.0743049286000002
  1870   2      56.346577776197364       39.91838358831172      4.9256950713999998
  1871   2       59.06313129262368      38.248793400207433      8.0743049286000002
  1872   2       59.06313129262368      38.248793400207433      4.9256950713999998
  1873   2      61.779684809049996      36.579203212103145      8.0743049286000002
  1874   2      61.779684809049996      36.579203212103145      4.9256950713999998
  1875   2      64.496238325476313      34.909613023998865      8.0743049286000002
  1876   2      64.496238325476313      34.909613023998865      4.9256950713999998
  1877   2      67.212791841902629      33.240022835894578      8.0743049286000002
  1878   2      67.212791841902629      33.240022835894578      4.9256950713999998
  1879   2      69.929345358328945      31.570432647790284      8.0743049286000002
  1880   2      69.929345358328945      31.570432647790284      4.9256950713999998
  1881   2      72.645898874755261      29.900842459685997      8.0743049286000002
  1882   2      72.645898874755261      29.900842459685997      4.9256950713999998
  1883   2      45.567994469086486       49.78414379074615      8.0743049286000002
  1884   2      45.567994469086486       49.78414379074615      4.9256950713999998
  1885   2      48.284547985512809      48.114553602641863      8.0743049286000002
  1886   2      48.284547985512809      48.114553602641863      4.9256950713999998
  1887   2      51.001101501939125      46.444963414537575      8.0743049286000002
  1888   2      51.001101501939125      46.444963414537575      4.9256950713999998
  1889   2      53.717655018365441      44.775373226433288      8.0743049286000002
  1890   2      53.717655018365441      44.775373226433288      4.9256950713999998
  1891   2      56.434208534791757      43.105783038329001      8.0743049286000002
  1892   2      56.434208534791757      43.105783038329001      4.9256950713999998
  1893   2      59.150762051218081      41.436192850224714      8.0743049286000002
  1894   2      59.150762051218081      41.436192850224714      4.9256950713999998
  1895   2      61.867315567644397      39.766602662120427      8.0743049286000002
  1896   2      61.867315567644397      39.766602662120427      4.9256950713999998
  1897   2      64.583869084070699       38.09701247401614      8.0743049286000002
  1898   2      64.583869084070699       38.09701247401614      4.9256950713999998
  1899   2      67.300422600497029      36.427422285911859      8.0743049286000002
  1900   2      67.300422600497029      36.427422285911859      4.9256950713999998
  1901   2      70.016976116923345      34.757832097807572      8.0743049286000002
  1902   2      70.016976116923345      34.757832097807572      4.9256950713999998
  1903   2      72.733529633349647      33.088241909703278      8.0743049286000002
  1904   2      72.733529633349647      33.088241909703278      4.9256950713999998
  1905   2      75.450083149775963      31.418651721598998      8.0743049286000002
  1906   2      75.450083149775963      31.418651721598998      4.9256950713999998
  1907   2      51.088732260533526       49.63236286455485      8.0743049286000002
  1908   2      51.088732260533526       49.63236286455485      4.9256950713999998
  1909   2      53.805285776959842      47.962772676450577      8.0743049286000002
  1910   2      53.805285776959842      47.962772676450577      4.9256950713999998
  1911   2      56.521839293386165      46.293182488346289      8.0743049286000002
  1912   2      56.521839293386165      46.293182488346289      4.9256950713999998
  1913   2      59.238392809812467      44.623592300241995      8.0743049286000002
  1914   2      59.238392809812467      44.623592300241995      4.9256950713999998
  1915   2       61.95494632623879      42.954002112137708      8.0743049286000002
  1916   2       61.95494632623879      42.954002112137708      4.9256950713999998
  1917   2      64.671499842665114      41.284411924033428      8.0743049286000002
  1918   2      64.671499842665114      41.284411924033428      4.9256950713999998
  1919   2      67.388053359091415      39.614821735929134      8.0743049286000002
  1920   2      67.388053359091415      39.614821735929134      4.9256950713999998
  1921   2      70.104606875517732      37.945231547824847      8.0743049286000002
  1922   2      70.104606875517732      37.945231547824847      4.9256950713999998
  1923   2      72.821160391944048      36.275641359720566      8.0743049286000002
  1924   2      72.821160391944048      36.275641359720566      4.9256950713999998
  1925   2      75.537713908370364      34.606051171616279      8.0743049286000002
  1926   2      75.537713908370364      34.606051171616279      4.9256950713999998
  1927   2      56.609470051980551      49.480581938363571      8.0743049286000002
  1928   2      56.609470051980551      49.480581938363571      4.9256950713999998
  1929   2      59.326023568406853      47.810991750259277      8.0743049286000002
  1930   2      59.326023568406853      47.810991750259277      4.9256950713999998
  1931   2      62.042577084833184      46.141401562154989      8.0743049286000002
  1932   2      62.042577084833184      46.141401562154989      4.9256950713999998
  1933   2        64.7591306012595      44.471811374050702      8.0743049286000002
  1934   2        64.7591306012595      44.471811374050702      4.9256950713999998
  1935   2      67.475684117685816      42.802221185946422      8.0743049286000002
  1936   2      67.475684117685816      42.802221185946422      4.9256950713999998
  1937   2      70.192237634112118      41.132630997842128      8.0743049286000002
  1938   2      70.192237634112118      41.132630997842128      4.9256950713999998
  1939   2      72.908791150538448      39.463040809737841      8.0743049286000002
  1940   2      72.908791150538448      39.463040809737841      4.9256950713999998
  1941   2      75.625344666964764      37.793450621633561      8.0743049286000002
  1942   2      75.625344666964764      37.793450621633561      4.9256950713999998
  1943   2      78.341898183391066      36.123860433529273      8.0743049286000002
  1944   2      78.341898183391066      36.123860433529273      4.9256950713999998
  1945   2      62.130207843427577      49.328801012172278      8.0743049286000002
  1946   2      62.130207843427577      49.328801012172278      4.9256950713999998
  1947   2      64.846761359853886      47.659210824067983      8.0743049286000002
  1948   2      64.846761359853886      47.659210824067983      4.9256950713999998
  1949   2      67.563314876280202      45.989620635963703      8.0743049286000002
  1950   2      67.563314876280202      45.989620635963703      4.9256950713999998
  1951   2      70.279868392706533      44.320030447859416      8.0743049286000002
  1952   2      70.279868392706533      44.320030447859416      4.9256950713999998
  1953   2      72.996421909132849      42.650440259755122      8.0743049286000002
  1954   2      72.996421909132849      42.650440259755122      4.9256950713999998
  1955   2      75.712975425559151      40.980850071650835      8.0743049286000002
  1956   2      75.712975425559151      40.980850071650835      4.9256950713999998
  1957   2      78.429528941985481      39.311259883546555      8.0743049286000002
  1958   2      78.429528941985481      39.311259883546555      4.9256950713999998
  1959   2      67.650945634874589      49.177020085980978      8.0743049286000002
  1960   2      67.650945634874589      49.177020085980978      4.9256950713999998
  1961   2      70.367499151300919       47.50742989787669      8.0743049286000002
  1962   2      70.367499151300919       47.50742989787669      4.9256950713999998
  1963   2      73.084052667727221      45.837839709772403      8.0743049286000002
  1964   2      73.084052667727221      45.837839709772403      4.9256950713999998
  1965   2      75.800606184153537      44.168249521668109      8.0743049286000002
  1966   2      75.800606184153537      44.168249521668109      4.9256950713999998
  1967   2      78.517159700579853      42.498659333563829      8.0743049286000002
  1968   2      78.517159700579853      42.498659333563829      4.9256950713999998
  1969   2      81.233713217006169      40.829069145459542      8.0743049286000002
  1970   2      81.233713217006169      40.829069145459542      4.9256950713999998
  1971   2      73.171683426321621      49.025239159789685      8.0743049286000002
  1972   2      73.171683426321621      49.025239159789685      4.9256950713999998
  1973   2      75.888236942747938      47.355648971685397      8.0743049286000002
  1974   2      75.888236942747938      47.355648971685397      4.9256950713999998
  1975   2      78.604790459174239       45.68605878358111      8.0743049286000002
  1976   2      78.604790459174239       45.68605878358111      4.9256950713999998
  1977   2       81.32134397560057      44.016468595476823      8.0743049286000002
  1978   2       81.32134397560057      44.016468595476823      4.9256950713999998
  1979   2      78.692421217768654      48.873458233598399      8.0743049286000002
  1980   2      78.692421217768654      48.873458233598399      4.9256950713999998
  1981   2      81.408974734194956      47.203868045494104      8.0743049286000002
  1982   2      81.408974734194956      47.203868045494104      4.9256950713999998
  1983   2      84.125528250621286      45.534277857389817      8.0743049286000002
  1984   2      84.125528250621286      45.534277857389817      4.9256950713999998
  1985   2      84.213159009215659      48.721677307407099      8.0743049286000002
  1986   2      84.213159009215659      48.721677307407099      4.9256950713999998
