rigid_bilayers/data_WSe2_WSe2_AP_5 (written by ASE) 

546 	 atoms 
2  atom types
0.0      31.698200599666489  xlo xhi
0.0      27.451446973566309  ylo yhi
0.0                      30  zlo zhi
    -15.849100299833239                       0                       0  xy xz yz


Atoms 

     1   1     0.87082968680402439      1.7094307639217117                       0
     2   1      3.8316506219377078     0.20110950163784949                       0
     3   1      3.6574846845769033       3.519416278662348                       0
     4   1      6.6183056197105863      2.0110950163784853                       0
     5   1      9.5791265548442706     0.50277375409462299                       0
     6   1      3.4833187472160989      6.8377230556868467                       0
     7   1      6.4441396823497819       5.329401793402984                       0
     8   1      9.4049606174834661      3.8210805311191223                       0
     9   1      12.365781552617149      2.3127592688352592                       0
    10   1      15.326602487750833     0.80443800655139641                       0
    11   1      6.2699737449889765      8.6477085704274828                       0
    12   1      9.2307946801226599      7.1393873081436201                       0
    13   1      12.191615615256344      5.6310660458597575                       0
    14   1      15.152436550390025      4.1227447835758939                       0
    15   1      18.113257485523707      2.6144235212920308                       0
    16   1      21.074078420657393      1.1061022590081704                       0
    17   1      6.0958078076281721      11.966015347451981                       0
    18   1      9.0566287427618555      10.457694085168118                       0
    19   1      12.017449677895536      8.9493728228842553                       0
    20   1       14.97827061302922      7.4410515606003926                       0
    21   1      17.939091548162903      5.9327302983165291                       0
    22   1      20.899912483296585      4.4244090360326656                       0
    23   1      23.860733418430268      2.9160877737488038                       0
    24   1      26.821554353563954      1.4077665114649436                       0
    25   1       8.882462805401051      13.776000862192618                       0
    26   1      11.843283740534732      12.267679599908753                       0
    27   1      14.804104675668416      10.759358337624892                       0
    28   1      17.764925610802102      9.2510370753410314                       0
    29   1      20.725746545935781      7.7427158130571661                       0
    30   1      23.686567481069467      6.2343945507733043                       0
    31   1       26.64738841620315      4.7260732884894407                       0
    32   1      29.608209351336836      3.2177520262055808                       0
    33   1      8.7082968680402431      17.094307639217114                       0
    34   1      11.669117803173927      15.585986376933253                       0
    35   1       14.62993873830761      14.077665114649388                       0
    36   1      17.590759673441294      12.569343852365527                       0
    37   1       20.55158060857498      11.061022590081667                       0
    38   1      23.512401543708659      9.5527013277978021                       0
    39   1      26.473222478842345      8.0443800655139395                       0
    40   1      29.434043413976031      6.5360588032300795                       0
    41   1       32.39486434910971      5.0277375409462159                       0
    42   1      11.494951865813121      18.904293153957749                       0
    43   1      14.455772800946804      17.395971891673888                       0
    44   1      17.416593736080486      15.887650629390025                       0
    45   1      20.377414671214172      14.379329367106163                       0
    46   1      23.338235606347858      12.871008104822302                       0
    47   1      26.299056541481537      11.362686842538439                       0
    48   1       29.25987747661522      9.8543655802545747                       0
    49   1      32.220698411748906       8.346044317970712                       0
    50   1      11.320785928452311      22.222599930982248                       0
    51   1      14.281606863585999      20.714278668698388                       0
    52   1      17.242427798719682      19.205957406414523                       0
    53   1      20.203248733853364      17.697636144130662                       0
    54   1       23.16406966898705      16.189314881846801                       0
    55   1      26.124890604120733      14.680993619562937                       0
    56   1      29.085711539254415      13.172672357279072                       0
    57   1      32.046532474388108      11.664351094995213                       0
    58   1      35.007353409521784      10.156029832711354                       0
    59   1      14.107440926225193      24.032585445722884                       0
    60   1      17.068261861358877      22.524264183439023                       0
    61   1       20.02908279649256      21.015942921155162                       0
    62   1      22.989903731626242      19.507621658871297                       0
    63   1      25.950724666759928      17.999300396587433                       0
    64   1      28.911545601893611      16.490979134303572                       0
    65   1      31.872366537027297      14.982657872019715                       0
    66   1      34.833187472160979      13.474336609735849                       0
    67   1      13.933274988864392      27.350892222747383                       0
    68   1      16.894095923998076      25.842570960463522                       0
    69   1      19.854916859131755      24.334249698179658                       0
    70   1      22.815737794265438      22.825928435895793                       0
    71   1      25.776558729399127      21.317607173611936                       0
    72   1       28.73737966453281      19.809285911328075                       0
    73   1      31.698200599666492      18.300964649044211                       0
    74   1      34.659021534800182       16.79264338676035                       0
    75   1      37.619842469933864      15.284322124476487                       0
    76   1       22.64157185690464      26.144235212920297                       0
    77   1      25.602392792038319      24.635913950636436                       0
    78   1      28.563213727172009      23.127592688352575                       0
    79   1      31.524034662305695       21.61927142606871                       0
    80   1       34.48485559743937       20.11095016378485                       0
    81   1       37.44567653257306      18.602628901500989                       0
    82   1      28.389047789811197      26.445899465377067                       0
    83   1      31.349868724944884       24.93757820309321                       0
    84   1      34.310689660078566      23.429256940809346                       0
    85   1      37.271510595212241      21.920935678525481                       0
    86   1      40.232331530345931       20.41261441624162                       0
    87   1      34.136523722717762      26.747563717833845                       0
    88   1      37.097344657851444      25.239242455549981                       0
    89   1      40.058165592985127       23.73092119326612                       0
    90   1      39.883999655624322      27.049227970290616                       0
    91   1      42.844820590757998      25.540906708006752                       0
    92   1      4.7847784989232123       1.549206160968478                     6.5
    93   1      4.9589444362840203      4.8675129379929771                     6.5
    94   1      7.7455994340568965      3.0575274232523384                     6.5
    95   1      10.532254431829774      1.2475419085117008                     6.5
    96   1      7.9197653714177045      6.3758342002768371                     6.5
    97   1      10.706420369190583      4.5658486855362002                     6.5
    98   1      13.493075366963458      2.7558631707955636                     6.5
    99   1      16.279730364736334     0.94587765605492469                     6.5
   100   1      8.0939313087785116      9.6941409773013358                     6.5
   101   1      10.880586306551388       7.884155462560698                     6.5
   102   1      13.667241304324266      6.0741699478200619                     6.5
   103   1      16.453896302097142      4.2641844330794223                     6.5
   104   1       19.24055129987002      2.4541989183387862                     6.5
   105   1      22.027206297642895     0.64421340359814905                     6.5
   106   1      11.054752243912198      11.202462239585197                     6.5
   107   1      13.841407241685076      9.3924767248445598                     6.5
   108   1       16.62806223945795      7.5824912101039228                     6.5
   109   1      19.414717237230828      5.7725056953632858                     6.5
   110   1      22.201372235003706      3.9625201806226484                     6.5
   111   1      24.988027232776581      2.1525346658820093                     6.5
   112   1      27.774682230549459     0.34254915114137219                     6.5
   113   1      11.228918181273006      14.520769016609696                     6.5
   114   1       14.01557317904588      12.710783501869058                     6.5
   115   1      16.802228176818758      10.900797987128421                     6.5
   116   1      19.588883174591636      9.0908124723877837                     6.5
   117   1      22.375538172364514      7.2808269576471458                     6.5
   118   1      25.162193170137392      5.4708414429065098                     6.5
   119   1      27.948848167910263       3.660855928165871                     6.5
   120   1      30.735503165683141      1.8508704134252338                     6.5
   121   1       14.18973911640669      16.029090278893555                     6.5
   122   1      16.976394114179566      14.219104764152918                     6.5
   123   1      19.763049111952441      12.409119249412282                     6.5
   124   1      22.549704109725322      10.599133734671645                     6.5
   125   1      25.336359107498197      8.7891482199310076                     6.5
   126   1      28.123014105271075      6.9791627051903706                     6.5
   127   1      30.909669103043949       5.169177190449731                     6.5
   128   1      33.696324100816824      3.3591916757090923                     6.5
   129   1      14.363905053767498      19.347397055918059                     6.5
   130   1      17.150560051540374       17.53741154117742                     6.5
   131   1      19.937215049313252      15.727426026436779                     6.5
   132   1      22.723870047086127      13.917440511696142                     6.5
   133   1      25.510525044859005      12.107454996955505                     6.5
   134   1      28.297180042631883      10.297469482214868                     6.5
   135   1      31.083835040404757      8.4874839674742315                     6.5
   136   1      33.870490038177635       6.677498452733591                     6.5
   137   1      17.324725988901179      20.855718318201916                     6.5
   138   1       20.11138098667406      19.045732803461277                     6.5
   139   1      22.898035984446931      17.235747288720638                     6.5
   140   1      25.684690982219813      15.425761773980001                     6.5
   141   1      28.471345979992687      13.615776259239366                     6.5
   142   1      31.258000977765565      11.805790744498726                     6.5
   143   1       34.04465597553844      9.9958052297580906                     6.5
   144   1      36.831310973311318      8.1858197150174536                     6.5
   145   1      17.498891926261987      24.174025095226416                     6.5
   146   1      20.285546924034865      22.364039580485777                     6.5
   147   1      23.072201921807743      20.554054065745142                     6.5
   148   1      25.858856919580621      18.744068551004503                     6.5
   149   1      28.645511917353499      16.934083036263864                     6.5
   150   1      31.432166915126377      15.124097521523229                     6.5
   151   1      34.218821912899251      13.314112006782592                     6.5
   152   1       37.00547691067213      11.504126492041953                     6.5
   153   1      17.673057863622798      27.492331872250912                     6.5
   154   1      20.459712861395669      25.682346357510276                     6.5
   155   1      23.246367859168551      23.872360842769638                     6.5
   156   1      26.033022856941429      22.062375328028999                     6.5
   157   1      28.819677854714307      20.252389813288364                     6.5
   158   1      31.606332852487181      18.442404298547729                     6.5
   159   1      34.392987850260056       16.63241878380709                     6.5
   160   1      37.179642848032941      14.822433269066451                     6.5
   161   1      39.966297845805819      13.012447754325816                     6.5
   162   1      23.420533796529355      27.190667619794137                     6.5
   163   1      26.207188794302237      25.380682105053499                     6.5
   164   1      28.993843792075111       23.57069659031286                     6.5
   165   1      31.780498789847993      21.760711075572225                     6.5
   166   1      34.567153787620867      19.950725560831586                     6.5
   167   1      37.353808785393745      18.140740046090951                     6.5
   168   1      40.140463783166624      16.330754531350312                     6.5
   169   1      29.168009729435916      26.889003367337359                     6.5
   170   1      31.954664727208797      25.079017852596721                     6.5
   171   1      34.741319724981672      23.269032337856085                     6.5
   172   1       37.52797472275455      21.459046823115447                     6.5
   173   1      40.314629720527428      19.649061308374812                     6.5
   174   1      43.101284718300313      17.839075793634173                     6.5
   175   1      34.915485662342483      26.587339114880582                     6.5
   176   1      37.702140660115354      24.777353600139946                     6.5
   177   1      40.488795657888232      22.967368085399308                     6.5
   178   1      43.275450655661118      21.157382570658669                     6.5
   179   1      40.662961595249037      26.285674862423804                     6.5
   180   1      43.449616593021922      24.475689347683172                     6.5
   181   1        46.2362715907948      22.665703832942533                     6.5
   182   1      46.410437528155605      25.984010609967029                     6.5
   183   2      2.7866549977728785      1.8099855147406363            1.6835894055
   184   2      2.7866549977728785      1.8099855147406363           -1.6835894055
   185   2      5.7474759329065623     0.30166425245677414            1.6835894055
   186   2      5.7474759329065623     0.30166425245677414           -1.6835894055
   187   2       5.573309995545757      3.6199710294812721            1.6835894055
   188   2       5.573309995545757      3.6199710294812721           -1.6835894055
   189   2      8.5341309306794386      2.1116497671974095            1.6835894055
   190   2      8.5341309306794386      2.1116497671974095           -1.6835894055
   191   2      11.494951865813125     0.60332850491354828            1.6835894055
   192   2      11.494951865813125     0.60332850491354828           -1.6835894055
   193   2      5.3991440581849526      6.9382778065057709            1.6835894055
   194   2      5.3991440581849526      6.9382778065057709           -1.6835894055
   195   2       8.359964993318636      5.4299565442219091            1.6835894055
   196   2       8.359964993318636      5.4299565442219091           -1.6835894055
   197   2      11.320785928452318      3.9216352819380464            1.6835894055
   198   2      11.320785928452318      3.9216352819380464           -1.6835894055
   199   2      14.281606863586003      2.4133140196541834            1.6835894055
   200   2      14.281606863586003      2.4133140196541834           -1.6835894055
   201   2      17.242427798719689      0.9049927573703217            1.6835894055
   202   2      17.242427798719689      0.9049927573703217           -1.6835894055
   203   2      8.1857990559578315      8.7482633212464069            1.6835894055
   204   2      8.1857990559578315      8.7482633212464069           -1.6835894055
   205   2      11.146619991091514      7.2399420589625443            1.6835894055
   206   2      11.146619991091514      7.2399420589625443           -1.6835894055
   207   2      14.107440926225195      5.7316207966786816            1.6835894055
   208   2      14.107440926225195      5.7316207966786816           -1.6835894055
   209   2      17.068261861358877       4.223299534394819            1.6835894055
   210   2      17.068261861358877       4.223299534394819           -1.6835894055
   211   2      20.029082796492563      2.7149782721109568            1.6835894055
   212   2      20.029082796492563      2.7149782721109568           -1.6835894055
   213   2      22.989903731626249      1.2066570098270966            1.6835894055
   214   2      22.989903731626249      1.2066570098270966           -1.6835894055
   215   2      8.0116331185970253      12.066570098270905            1.6835894055
   216   2      8.0116331185970253      12.066570098270905           -1.6835894055
   217   2      10.972454053730708      10.558248835987042            1.6835894055
   218   2      10.972454053730708      10.558248835987042           -1.6835894055
   219   2       13.93327498886439      9.0499275737031795            1.6835894055
   220   2       13.93327498886439      9.0499275737031795           -1.6835894055
   221   2      16.894095923998076      7.5416063114193186            1.6835894055
   222   2      16.894095923998076      7.5416063114193186           -1.6835894055
   223   2      19.854916859131755      6.0332850491354542            1.6835894055
   224   2      19.854916859131755      6.0332850491354542           -1.6835894055
   225   2      22.815737794265441      4.5249637868515924            1.6835894055
   226   2      22.815737794265441      4.5249637868515924           -1.6835894055
   227   2      25.776558729399124      3.0166425245677302            1.6835894055
   228   2      25.776558729399124      3.0166425245677302           -1.6835894055
   229   2      28.737379664532806       1.508321262283868            1.6835894055
   230   2      28.737379664532806       1.508321262283868           -1.6835894055
   231   2      10.798288116369905      13.876555613011542            1.6835894055
   232   2      10.798288116369905      13.876555613011542           -1.6835894055
   233   2      13.759109051503588      12.368234350727679            1.6835894055
   234   2      13.759109051503588      12.368234350727679           -1.6835894055
   235   2      16.719929986637272      10.859913088443818            1.6835894055
   236   2      16.719929986637272      10.859913088443818           -1.6835894055
   237   2      19.680750921770954      9.3515918261599555            1.6835894055
   238   2      19.680750921770954      9.3515918261599555           -1.6835894055
   239   2      22.641571856904637      7.8432705638760929            1.6835894055
   240   2      22.641571856904637      7.8432705638760929           -1.6835894055
   241   2      25.602392792038323      6.3349493015922294            1.6835894055
   242   2      25.602392792038323      6.3349493015922294           -1.6835894055
   243   2      28.563213727172005      4.8266280393083667            1.6835894055
   244   2      28.563213727172005      4.8266280393083667           -1.6835894055
   245   2      31.524034662305688      3.3183067770245067            1.6835894055
   246   2      31.524034662305688      3.3183067770245067           -1.6835894055
   247   2      10.624122179009097       17.19486239003604            1.6835894055
   248   2      10.624122179009097       17.19486239003604           -1.6835894055
   249   2      13.584943114142783      15.686541127752179            1.6835894055
   250   2      13.584943114142783      15.686541127752179           -1.6835894055
   251   2      16.545764049276464      14.178219865468314            1.6835894055
   252   2      16.545764049276464      14.178219865468314           -1.6835894055
   253   2       19.50658498441015      12.669898603184453            1.6835894055
   254   2       19.50658498441015      12.669898603184453           -1.6835894055
   255   2      22.467405919543832      11.161577340900591            1.6835894055
   256   2      22.467405919543832      11.161577340900591           -1.6835894055
   257   2      25.428226854677515      9.6532560786167281            1.6835894055
   258   2      25.428226854677515      9.6532560786167281           -1.6835894055
   259   2      28.389047789811201      8.1449348163328654            1.6835894055
   260   2      28.389047789811201      8.1449348163328654           -1.6835894055
   261   2      31.349868724944884      6.6366135540490054            1.6835894055
   262   2      31.349868724944884      6.6366135540490054           -1.6835894055
   263   2      34.310689660078559      5.1282922917651383            1.6835894055
   264   2      34.310689660078559      5.1282922917651383           -1.6835894055
   265   2      13.410777176781973      19.004847904776675            1.6835894055
   266   2      13.410777176781973      19.004847904776675           -1.6835894055
   267   2      16.371598111915663      17.496526642492814            1.6835894055
   268   2      16.371598111915663      17.496526642492814           -1.6835894055
   269   2      19.332419047049342      15.988205380208949            1.6835894055
   270   2      19.332419047049342      15.988205380208949           -1.6835894055
   271   2      22.293239982183028      14.479884117925089            1.6835894055
   272   2      22.293239982183028      14.479884117925089           -1.6835894055
   273   2      25.254060917316711      12.971562855641228            1.6835894055
   274   2      25.254060917316711      12.971562855641228           -1.6835894055
   275   2      28.214881852450389      11.463241593357363            1.6835894055
   276   2      28.214881852450389      11.463241593357363           -1.6835894055
   277   2      31.175702787584076      9.9549203310734971            1.6835894055
   278   2      31.175702787584076      9.9549203310734971           -1.6835894055
   279   2      34.136523722717754       8.446599068789638            1.6835894055
   280   2      34.136523722717754       8.446599068789638           -1.6835894055
   281   2      13.236611239421169      22.323154681801174            1.6835894055
   282   2      13.236611239421169      22.323154681801174           -1.6835894055
   283   2      16.197432174554852       20.81483341951731            1.6835894055
   284   2      16.197432174554852       20.81483341951731           -1.6835894055
   285   2      19.158253109688541      19.306512157233449            1.6835894055
   286   2      19.158253109688541      19.306512157233449           -1.6835894055
   287   2       22.11907404482222      17.798190894949588            1.6835894055
   288   2       22.11907404482222      17.798190894949588           -1.6835894055
   289   2      25.079894979955903      16.289869632665724            1.6835894055
   290   2      25.079894979955903      16.289869632665724           -1.6835894055
   291   2      28.040715915089585      14.781548370381859            1.6835894055
   292   2      28.040715915089585      14.781548370381859           -1.6835894055
   293   2      31.001536850223268      13.273227108097998            1.6835894055
   294   2      31.001536850223268      13.273227108097998           -1.6835894055
   295   2      33.962357785356957      11.764905845814139            1.6835894055
   296   2      33.962357785356957      11.764905845814139           -1.6835894055
   297   2       36.92317872049064      10.256584583530277            1.6835894055
   298   2       36.92317872049064      10.256584583530277           -1.6835894055
   299   2      16.023266237194051       24.13314019654181            1.6835894055
   300   2      16.023266237194051       24.13314019654181           -1.6835894055
   301   2       18.98408717232773      22.624818934257949            1.6835894055
   302   2       18.98408717232773      22.624818934257949           -1.6835894055
   303   2      21.944908107461416      21.116497671974084            1.6835894055
   304   2      21.944908107461416      21.116497671974084           -1.6835894055
   305   2      24.905729042595098       19.60817640969022            1.6835894055
   306   2      24.905729042595098       19.60817640969022           -1.6835894055
   307   2      27.866549977728781      18.099855147406359            1.6835894055
   308   2      27.866549977728781      18.099855147406359           -1.6835894055
   309   2      30.827370912862463      16.591533885122498            1.6835894055
   310   2      30.827370912862463      16.591533885122498           -1.6835894055
   311   2      33.788191847996153      15.083212622838637            1.6835894055
   312   2      33.788191847996153      15.083212622838637           -1.6835894055
   313   2      36.749012783129835      13.574891360554771            1.6835894055
   314   2      36.749012783129835      13.574891360554771           -1.6835894055
   315   2      15.849100299833246      27.451446973566309            1.6835894055
   316   2      15.849100299833246      27.451446973566309           -1.6835894055
   317   2      18.809921234966929      25.943125711282448            1.6835894055
   318   2      18.809921234966929      25.943125711282448           -1.6835894055
   319   2      21.770742170100608       24.43480444899858            1.6835894055
   320   2      21.770742170100608       24.43480444899858           -1.6835894055
   321   2      24.731563105234294      22.926483186714719            1.6835894055
   322   2      24.731563105234294      22.926483186714719           -1.6835894055
   323   2       27.69238404036798      21.418161924430862            1.6835894055
   324   2       27.69238404036798      21.418161924430862           -1.6835894055
   325   2      30.653204975501662      19.909840662146998            1.6835894055
   326   2      30.653204975501662      19.909840662146998           -1.6835894055
   327   2      33.614025910635348      18.401519399863133            1.6835894055
   328   2      33.614025910635348      18.401519399863133           -1.6835894055
   329   2      36.574846845769031      16.893198137579276            1.6835894055
   330   2      36.574846845769031      16.893198137579276           -1.6835894055
   331   2      39.535667780902713       15.38487687529541            1.6835894055
   332   2      39.535667780902713       15.38487687529541           -1.6835894055
   333   2      24.557397167873489      26.244789963739223            1.6835894055
   334   2      24.557397167873489      26.244789963739223           -1.6835894055
   335   2      27.518218103007175      24.736468701455358            1.6835894055
   336   2      27.518218103007175      24.736468701455358           -1.6835894055
   337   2      30.479039038140865      23.228147439171497            1.6835894055
   338   2      30.479039038140865      23.228147439171497           -1.6835894055
   339   2      33.439859973274544      21.719826176887636            1.6835894055
   340   2      33.439859973274544      21.719826176887636           -1.6835894055
   341   2      36.400680908408226      20.211504914603772            1.6835894055
   342   2      36.400680908408226      20.211504914603772           -1.6835894055
   343   2      39.361501843541909      18.703183652319911            1.6835894055
   344   2      39.361501843541909      18.703183652319911           -1.6835894055
   345   2       30.30487310078005       26.54645421619599            1.6835894055
   346   2       30.30487310078005       26.54645421619599           -1.6835894055
   347   2      33.265694035913732      25.038132953912132            1.6835894055
   348   2      33.265694035913732      25.038132953912132           -1.6835894055
   349   2      36.226514971047415      23.529811691628268            1.6835894055
   350   2      36.226514971047415      23.529811691628268           -1.6835894055
   351   2      39.187335906181104      22.021490429344404            1.6835894055
   352   2      39.187335906181104      22.021490429344404           -1.6835894055
   353   2      42.148156841314787      20.513169167060546            1.6835894055
   354   2      42.148156841314787      20.513169167060546           -1.6835894055
   355   2       36.05234903368661      26.848118468652768            1.6835894055
   356   2       36.05234903368661      26.848118468652768           -1.6835894055
   357   2        39.0131699688203      25.339797206368907            1.6835894055
   358   2        39.0131699688203      25.339797206368907           -1.6835894055
   359   2      41.973990903953982      23.831475944085042            1.6835894055
   360   2      41.973990903953982      23.831475944085042           -1.6835894055
   361   2      41.799824966593171      27.149782721109538            1.6835894055
   362   2      41.799824966593171      27.149782721109538           -1.6835894055
   363   2      44.760645901726853      25.641461458825678            1.6835894055
   364   2      44.760645901726853      25.641461458825678           -1.6835894055
   365   2      2.9608209351336847      1.5083212622838609      8.1835894054999994
   366   2      2.9608209351336847      1.5083212622838609      4.8164105944999998
   367   2      3.1349868724944923      4.8266280393083596      8.1835894054999994
   368   2      3.1349868724944923      4.8266280393083596      4.8164105944999998
   369   2      5.9216418702673694      3.0166425245677218      8.1835894054999994
   370   2      5.9216418702673694      3.0166425245677218      4.8164105944999998
   371   2      8.7082968680402466      1.2066570098270839      8.1835894054999994
   372   2      8.7082968680402466      1.2066570098270839      4.8164105944999998
   373   2      6.0958078076281765      6.3349493015922196      8.1835894054999994
   374   2      6.0958078076281765      6.3349493015922196      4.8164105944999998
   375   2      8.8824628054010546      4.5249637868515826      8.1835894054999994
   376   2      8.8824628054010546      4.5249637868515826      4.8164105944999998
   377   2      11.669117803173933      2.7149782721109457      8.1835894054999994
   378   2      11.669117803173933      2.7149782721109457      4.8164105944999998
   379   2      14.455772800946809      0.9049927573703076      8.1835894054999994
   380   2      14.455772800946809      0.9049927573703076      4.8164105944999998
   381   2      6.2699737449889845      9.6532560786167192      8.1835894054999994
   382   2      6.2699737449889845      9.6532560786167192      4.8164105944999998
   383   2      9.0566287427618608      7.8432705638760813      8.1835894054999994
   384   2      9.0566287427618608      7.8432705638760813      4.8164105944999998
   385   2      11.843283740534739      6.0332850491354435      8.1835894054999994
   386   2      11.843283740534739      6.0332850491354435      4.8164105944999998
   387   2      14.629938738307615      4.2232995343948065      8.1835894054999994
   388   2      14.629938738307615      4.2232995343948065      4.8164105944999998
   389   2      17.416593736080493      2.4133140196541678      8.1835894054999994
   390   2      17.416593736080493      2.4133140196541678      4.8164105944999998
   391   2      20.203248733853368     0.60332850491353218      8.1835894054999994
   392   2      20.203248733853368     0.60332850491353218      4.8164105944999998
   393   2      9.2307946801226688       11.16157734090058      8.1835894054999994
   394   2      9.2307946801226688       11.16157734090058      4.8164105944999998
   395   2      12.017449677895547      9.3515918261599431      8.1835894054999994
   396   2      12.017449677895547      9.3515918261599431      4.8164105944999998
   397   2      14.804104675668425      7.5416063114193044      8.1835894054999994
   398   2      14.804104675668425      7.5416063114193044      4.8164105944999998
   399   2      17.590759673441301      5.7316207966786683      8.1835894054999994
   400   2      17.590759673441301      5.7316207966786683      4.8164105944999998
   401   2      20.377414671214179      3.9216352819380305      8.1835894054999994
   402   2      20.377414671214179      3.9216352819380305      4.8164105944999998
   403   2      23.164069668987054      2.1116497671973926      8.1835894054999994
   404   2      23.164069668987054      2.1116497671973926      4.8164105944999998
   405   2      25.950724666759932     0.30166425245675355      8.1835894054999994
   406   2      25.950724666759932     0.30166425245675355      4.8164105944999998
   407   2      9.4049606174834768      14.479884117925078      8.1835894054999994
   408   2      9.4049606174834768      14.479884117925078      4.8164105944999998
   409   2      12.191615615256353      12.669898603184439      8.1835894054999994
   410   2      12.191615615256353      12.669898603184439      4.8164105944999998
   411   2      14.978270613029231      10.859913088443804      8.1835894054999994
   412   2      14.978270613029231      10.859913088443804      4.8164105944999998
   413   2      17.764925610802109      9.0499275737031653      8.1835894054999994
   414   2      17.764925610802109      9.0499275737031653      4.8164105944999998
   415   2      20.551580608574987      7.2399420589625292      8.1835894054999994
   416   2      20.551580608574987      7.2399420589625292      4.8164105944999998
   417   2      23.338235606347865      5.4299565442218913      8.1835894054999994
   418   2      23.338235606347865      5.4299565442218913      4.8164105944999998
   419   2      26.124890604120736      3.6199710294812539      8.1835894054999994
   420   2      26.124890604120736      3.6199710294812539      4.8164105944999998
   421   2      28.911545601893618      1.8099855147406152      8.1835894054999994
   422   2      28.911545601893618      1.8099855147406152      4.8164105944999998
   423   2      12.365781552617165      15.988205380208941      8.1835894054999994
   424   2      12.365781552617165      15.988205380208941      4.8164105944999998
   425   2      15.152436550390037      14.178219865468302      8.1835894054999994
   426   2      15.152436550390037      14.178219865468302      4.8164105944999998
   427   2      17.939091548162914      12.368234350727665      8.1835894054999994
   428   2      17.939091548162914      12.368234350727665      4.8164105944999998
   429   2      20.725746545935792      10.558248835987026      8.1835894054999994
   430   2      20.725746545935792      10.558248835987026      4.8164105944999998
   431   2       23.51240154370867      8.7482633212463909      8.1835894054999994
   432   2       23.51240154370867      8.7482633212463909      4.8164105944999998
   433   2      26.299056541481548      6.9382778065057513      8.1835894054999994
   434   2      26.299056541481548      6.9382778065057513      4.8164105944999998
   435   2      29.085711539254422      5.1282922917651144      8.1835894054999994
   436   2      29.085711539254422      5.1282922917651144      4.8164105944999998
   437   2      31.872366537027297      3.3183067770244756      8.1835894054999994
   438   2      31.872366537027297      3.3183067770244756      4.8164105944999998
   439   2      12.539947489977969      19.306512157233438      8.1835894054999994
   440   2      12.539947489977969      19.306512157233438      4.8164105944999998
   441   2      15.326602487750845        17.4965266424928      8.1835894054999994
   442   2      15.326602487750845        17.4965266424928      4.8164105944999998
   443   2      18.113257485523722      15.686541127752163      8.1835894054999994
   444   2      18.113257485523722      15.686541127752163      4.8164105944999998
   445   2        20.8999124832966      13.876555613011526      8.1835894054999994
   446   2        20.8999124832966      13.876555613011526      4.8164105944999998
   447   2      23.686567481069478      12.066570098270887      8.1835894054999994
   448   2      23.686567481069478      12.066570098270887      4.8164105944999998
   449   2      26.473222478842356       10.25658458353025      8.1835894054999994
   450   2      26.473222478842356       10.25658458353025      4.8164105944999998
   451   2       29.25987747661523      8.4465990687896131      8.1835894054999994
   452   2       29.25987747661523      8.4465990687896131      4.8164105944999998
   453   2      32.046532474388108      6.6366135540489744      8.1835894054999994
   454   2      32.046532474388108      6.6366135540489744      4.8164105944999998
   455   2      15.500768425111655      20.814833419517299      8.1835894054999994
   456   2      15.500768425111655      20.814833419517299      4.8164105944999998
   457   2      18.287423422884533      19.004847904776661      8.1835894054999994
   458   2      18.287423422884533      19.004847904776661      4.8164105944999998
   459   2      21.074078420657408      17.194862390036022      8.1835894054999994
   460   2      21.074078420657408      17.194862390036022      4.8164105944999998
   461   2      23.860733418430282      15.384876875295385      8.1835894054999994
   462   2      23.860733418430282      15.384876875295385      4.8164105944999998
   463   2       26.64738841620316      13.574891360554746      8.1835894054999994
   464   2       26.64738841620316      13.574891360554746      4.8164105944999998
   465   2      29.434043413976038      11.764905845814113      8.1835894054999994
   466   2      29.434043413976038      11.764905845814113      4.8164105944999998
   467   2      32.220698411748913      9.9549203310734704      8.1835894054999994
   468   2      32.220698411748913      9.9549203310734704      4.8164105944999998
   469   2      35.007353409521791       8.144934816332837      8.1835894054999994
   470   2      35.007353409521791       8.144934816332837      4.8164105944999998
   471   2       15.67493436247246      24.133140196541799      8.1835894054999994
   472   2       15.67493436247246      24.133140196541799      4.8164105944999998
   473   2      18.461589360245338       22.32315468180116      8.1835894054999994
   474   2      18.461589360245338       22.32315468180116      4.8164105944999998
   475   2      21.248244358018216      20.513169167060525      8.1835894054999994
   476   2      21.248244358018216      20.513169167060525      4.8164105944999998
   477   2      24.034899355791094      18.703183652319886      8.1835894054999994
   478   2      24.034899355791094      18.703183652319886      4.8164105944999998
   479   2      26.821554353563968      16.893198137579247      8.1835894054999994
   480   2      26.821554353563968      16.893198137579247      4.8164105944999998
   481   2       29.60820935133685      15.083212622838609      8.1835894054999994
   482   2       29.60820935133685      15.083212622838609      4.8164105944999998
   483   2      32.394864349109724      13.273227108097975      8.1835894054999994
   484   2      32.394864349109724      13.273227108097975      4.8164105944999998
   485   2      35.181519346882602      11.463241593357337      8.1835894054999994
   486   2      35.181519346882602      11.463241593357337      4.8164105944999998
   487   2      15.849100299833271      27.451446973566295      8.1835894054999994
   488   2      15.849100299833271      27.451446973566295      4.8164105944999998
   489   2      18.635755297606146       25.64146145882566      8.1835894054999994
   490   2      18.635755297606146       25.64146145882566      4.8164105944999998
   491   2      21.422410295379024      23.831475944085021      8.1835894054999994
   492   2      21.422410295379024      23.831475944085021      4.8164105944999998
   493   2      24.209065293151898      22.021490429344382      8.1835894054999994
   494   2      24.209065293151898      22.021490429344382      4.8164105944999998
   495   2      26.995720290924776      20.211504914603744      8.1835894054999994
   496   2      26.995720290924776      20.211504914603744      4.8164105944999998
   497   2      29.782375288697654      18.401519399863112      8.1835894054999994
   498   2      29.782375288697654      18.401519399863112      4.8164105944999998
   499   2      32.569030286470536      16.591533885122473      8.1835894054999994
   500   2      32.569030286470536      16.591533885122473      4.8164105944999998
   501   2      35.355685284243407      14.781548370381834      8.1835894054999994
   502   2      35.355685284243407      14.781548370381834      4.8164105944999998
   503   2      38.142340282016292      12.971562855641196      8.1835894054999994
   504   2      38.142340282016292      12.971562855641196      4.8164105944999998
   505   2      21.596576232739828      27.149782721109521      8.1835894054999994
   506   2      21.596576232739828      27.149782721109521      4.8164105944999998
   507   2      24.383231230512706      25.339797206368878      8.1835894054999994
   508   2      24.383231230512706      25.339797206368878      4.8164105944999998
   509   2      27.169886228285584      23.529811691628243      8.1835894054999994
   510   2      27.169886228285584      23.529811691628243      4.8164105944999998
   511   2      29.956541226058462      21.719826176887608      8.1835894054999994
   512   2      29.956541226058462      21.719826176887608      4.8164105944999998
   513   2      32.743196223831333      19.909840662146969      8.1835894054999994
   514   2      32.743196223831333      19.909840662146969      4.8164105944999998
   515   2      35.529851221604218      18.099855147406331      8.1835894054999994
   516   2      35.529851221604218      18.099855147406331      4.8164105944999998
   517   2      38.316506219377096      16.289869632665695      8.1835894054999994
   518   2      38.316506219377096      16.289869632665695      4.8164105944999998
   519   2      27.344052165646392      26.848118468652743      8.1835894054999994
   520   2      27.344052165646392      26.848118468652743      4.8164105944999998
   521   2       30.13070716341927      25.038132953912104      8.1835894054999994
   522   2       30.13070716341927      25.038132953912104      4.8164105944999998
   523   2      32.917362161192152      23.228147439171465      8.1835894054999994
   524   2      32.917362161192152      23.228147439171465      4.8164105944999998
   525   2      35.704017158965023      21.418161924430834      8.1835894054999994
   526   2      35.704017158965023      21.418161924430834      4.8164105944999998
   527   2      38.490672156737901      19.608176409690195      8.1835894054999994
   528   2      38.490672156737901      19.608176409690195      4.8164105944999998
   529   2      41.277327154510779      17.798190894949556      8.1835894054999994
   530   2      41.277327154510779      17.798190894949556      4.8164105944999998
   531   2      33.091528098552956      26.546454216195965      8.1835894054999994
   532   2      33.091528098552956      26.546454216195965      4.8164105944999998
   533   2      35.878183096325827       24.73646870145533      8.1835894054999994
   534   2      35.878183096325827       24.73646870145533      4.8164105944999998
   535   2      38.664838094098705      22.926483186714691      8.1835894054999994
   536   2      38.664838094098705      22.926483186714691      4.8164105944999998
   537   2      41.451493091871583      21.116497671974052      8.1835894054999994
   538   2      41.451493091871583      21.116497671974052      4.8164105944999998
   539   2       38.83900403145951      26.244789963739187      8.1835894054999994
   540   2       38.83900403145951      26.244789963739187      4.8164105944999998
   541   2      41.625659029232395      24.434804448998552      8.1835894054999994
   542   2      41.625659029232395      24.434804448998552      4.8164105944999998
   543   2      44.412314027005273      22.624818934257917      8.1835894054999994
   544   2      44.412314027005273      22.624818934257917      4.8164105944999998
   545   2      44.586479964366077      25.943125711282413      8.1835894054999994
   546   2      44.586479964366077      25.943125711282413      4.8164105944999998
