rigid_bilayers/data_WS2_WS2_P_5 (written by ASE) 

546 	 atoms 
2  atom types
0.0      30.439266315997095  xlo xhi
0.0      26.361177902213441  ylo yhi
0.0                      30  zlo zhi
     15.219633157998544                       0                       0  xy xz yz


Atoms 

     1   1     0.83624358010981037      1.6415385506872842                       0
     2   1      3.6794717524831655     0.19312218243379789                       0
     3   1      3.5122230364612039      3.3796381925914671                       0
     4   1      6.3554512088345581      1.9312218243379806                       0
     5   1      9.1986793812079135     0.48280545608449471                       0
     6   1      3.3449743204392424      6.5661542027491366                       0
     7   1      6.1882024928125965      5.1177378344956503                       0
     8   1      9.0314306651859528      3.6693214662421636                       0
     9   1      11.874658837559304      2.2209050979886769                       0
    10   1       14.71788700993266     0.77248872973519145                       0
    11   1       6.020953776790634       8.304253844653319                       0
    12   1      8.8641819491639886      6.8558374763998327                       0
    13   1      11.707410121537345      5.4074211081463464                       0
    14   1      14.550638293910698      3.9590047398928592                       0
    15   1      17.393866466284049      2.5105883716393738                       0
    16   1      20.237094638657407      1.0621720033858884                       0
    17   1      5.8537050607686716      11.490769854810988                       0
    18   1      8.6969332331420262      10.042353486557502                       0
    19   1      11.540161405515382      8.5939371183040159                       0
    20   1      14.383389577888735      7.1455207500505287                       0
    21   1      17.226617750262093      5.6971043817970433                       0
    22   1      20.069845922635448       4.248688013543557                       0
    23   1      22.913074095008799      2.8002716452900698                       0
    24   1      25.756302267382157      1.3518552770365853                       0
    25   1      8.5296845171200655      13.228869496715172                       0
    26   1      11.372912689493422      11.780453128461687                       0
    27   1      14.216140861866776      10.332036760208199                       0
    28   1      17.059369034240131      8.8836203919547128                       0
    29   1      19.902597206613486      7.4352040237012282                       0
    30   1       22.74582537898684      5.9867876554477419                       0
    31   1      25.589053551360195      4.5383712871942548                       0
    32   1      28.432281723733549      3.0899549189407667                       0
    33   1      8.3624358010981013      16.415385506872841                       0
    34   1      11.205663973471458      14.966969138619353                       0
    35   1      14.048892145844816      13.518552770365869                       0
    36   1      16.892120318218165       12.07013640211238                       0
    37   1       19.73534849059152      10.621720033858896                       0
    38   1      22.578576662964878      9.1733036656054097                       0
    39   1      25.421804835338232      7.7248872973519234                       0
    40   1      28.265033007711587      6.2764709290984362                       0
    41   1      31.108261180084941      4.8280545608449481                       0
    42   1      11.038415257449499      18.153485148777023                       0
    43   1       13.88164342982285      16.705068780523536                       0
    44   1      16.724871602196206      15.256652412270054                       0
    45   1      19.568099774569561      13.808236044016565                       0
    46   1      22.411327946942915      12.359819675763079                       0
    47   1      25.254556119316273      10.911403307509593                       0
    48   1      28.097784291689624      9.4629869392561066                       0
    49   1      30.941012464062979      8.0145705710026203                       0
    50   1      10.871166541427536      21.340001158934697                       0
    51   1      13.714394713800891      19.891584790681208                       0
    52   1      16.557622886174247      18.443168422427721                       0
    53   1      19.400851058547602      16.994752054174235                       0
    54   1      22.244079230920956      15.546335685920749                       0
    55   1      25.087307403294307      14.097919317667262                       0
    56   1      27.930535575667665      12.649502949413776                       0
    57   1       30.77376374804102      11.201086581160292                       0
    58   1      33.616991920414371      9.7526702129068017                       0
    59   1      13.547145997778928      23.078100800838879                       0
    60   1      16.390374170152285      21.629684432585389                       0
    61   1      19.233602342525639      20.181268064331903                       0
    62   1       22.07683051489899      18.732851696078416                       0
    63   1      24.920058687272345      17.284435327824934                       0
    64   1      27.763286859645703      15.836018959571447                       0
    65   1       30.60651503201905      14.387602591317954                       0
    66   1      33.449743204392405      12.939186223064469                       0
    67   1      13.379897281756966      26.264616810996547                       0
    68   1      16.223125454130322       24.81620044274306                       0
    69   1      19.066353626503677       23.36778407448957                       0
    70   1      21.909581798877028      21.919367706236084                       0
    71   1      24.752809971250379      20.470951337982598                       0
    72   1      27.596038143623733      19.022534969729112                       0
    73   1      30.439266315997092      17.574118601475625                       0
    74   1      33.282494488370446      16.125702233222135                       0
    75   1      36.125722660743797      14.677285864968651                       0
    76   1      21.742333082855072      25.105883716393759                       0
    77   1      24.585561255228427      23.657467348140269                       0
    78   1      27.428789427601775      22.209050979886779                       0
    79   1      30.272017599975133      20.760634611633296                       0
    80   1      33.115245772348494       19.31221824337981                       0
    81   1      35.958473944721845       17.86380187512632                       0
    82   1      27.261540711579819      25.395566990044451                       0
    83   1      30.104768883953167      23.947150621790961                       0
    84   1      32.947997056326528      22.498734253537478                       0
    85   1      35.791225228699879      21.050317885283992                       0
    86   1       38.63445340107323      19.601901517030502                       0
    87   1      32.780748340304562      25.685250263695142                       0
    88   1      35.623976512677913      24.236833895441659                       0
    89   1      38.467204685051271      22.788417527188177                       0
    90   1      38.299955969029313      25.974933537345848                       0
    91   1      41.143184141402671      24.526517169092362                       0
    92   1      2.8432281723733563      1.4484163682534832                     6.5
    93   1       3.010476888395321      4.6349323784111522                     6.5
    94   1      5.6864563447467127      2.8968327365069664                     6.5
    95   1       8.362435801098103      1.1587330946027803                     6.5
    96   1      5.8537050607686778      6.0833487466646359                     6.5
    97   1      8.5296845171200673      4.3452491047604491                     6.5
    98   1      11.205663973471459      2.6071494628562624                     6.5
    99   1      13.881643429822851     0.86904982095207717                     6.5
   100   1       6.020953776790642      9.2698647568223045                     6.5
   101   1      8.6969332331420333      7.5317651149181195                     6.5
   102   1      11.372912689493425      5.7936654730139328                     6.5
   103   1      14.048892145844816       4.055565831109746                     6.5
   104   1      16.724871602196206      2.3174661892055606                     6.5
   105   1      19.400851058547598      0.5793665473013756                     6.5
   106   1      8.8641819491639993      10.718281125075789                     6.5
   107   1      11.540161405515391      8.9801814831716023                     6.5
   108   1      14.216140861866782      7.2420818412674164                     6.5
   109   1      16.892120318218172      5.5039821993632305                     6.5
   110   1      19.568099774569568      3.7658825574590447                     6.5
   111   1      22.244079230920956      2.0277829155548583                     6.5
   112   1      24.920058687272348     0.28968327365067187                     6.5
   113   1      9.0314306651859617      13.904797135233457                     6.5
   114   1      11.707410121537356      12.166697493329272                     6.5
   115   1      14.383389577888746      10.428597851425085                     6.5
   116   1      17.059369034240135      8.6904982095208982                     6.5
   117   1      19.735348490591527      6.9523985676167106                     6.5
   118   1      22.411327946942919      5.2142989257125247                     6.5
   119   1      25.087307403294311      3.4761992838083406                     6.5
   120   1      27.763286859645703      1.7380996419041543                     6.5
   121   1      11.874658837559318      15.353213503486941                     6.5
   122   1      14.550638293910712      13.615113861582754                     6.5
   123   1      17.226617750262104      11.877014219678568                     6.5
   124   1      19.902597206613493      10.138914577774383                     6.5
   125   1      22.578576662964881      8.4008149358701942                     6.5
   126   1      25.254556119316273      6.6627152939660084                     6.5
   127   1      27.930535575667665      4.9246156520618252                     6.5
   128   1      30.606515032019058      3.1865160101576371                     6.5
   129   1      12.041907553581284      18.539729513644609                     6.5
   130   1      14.717887009932678      16.801629871740424                     6.5
   131   1      17.393866466284067      15.063530229836239                     6.5
   132   1      20.069845922635459      13.325430587932052                     6.5
   133   1      22.745825378986851      11.587330946027866                     6.5
   134   1      25.421804835338243      9.8492313041236788                     6.5
   135   1      28.097784291689631       8.111131662219492                     6.5
   136   1      30.773763748041024      6.3730320203153079                     6.5
   137   1      14.885135725954642      19.988145881898095                     6.5
   138   1      17.561115182306033      18.250046239993907                     6.5
   139   1      20.237094638657425      16.511946598089722                     6.5
   140   1      22.913074095008817      14.773846956185537                     6.5
   141   1      25.589053551360205       13.03574731428135                     6.5
   142   1      28.265033007711597      11.297647672377161                     6.5
   143   1      30.941012464062986      9.5595480304729765                     6.5
   144   1      33.616991920414378      7.8214483885687907                     6.5
   145   1      15.052384441976608      23.174661892055763                     6.5
   146   1      17.728363898327999      21.436562250151578                     6.5
   147   1      20.404343354679391      19.698462608247389                     6.5
   148   1      23.080322811030783      17.960362966343205                     6.5
   149   1      25.756302267382175       16.22226332443902                     6.5
   150   1      28.432281723733563      14.484163682534833                     6.5
   151   1      31.108261180084959      12.746064040630648                     6.5
   152   1      33.784240636436344      11.007964398726461                     6.5
   153   1      15.219633157998572      26.361177902213431                     6.5
   154   1      17.895612614349965      24.623078260309249                     6.5
   155   1      20.571592070701357      22.884978618405061                     6.5
   156   1      23.247571527052745      21.146878976500872                     6.5
   157   1      25.923550983404141      19.408779334596691                     6.5
   158   1      28.599530439755526      17.670679692692502                     6.5
   159   1      31.275509896106922      15.932580050788316                     6.5
   160   1       33.95148935245831      14.194480408884132                     6.5
   161   1      36.627468808809702      12.456380766979944                     6.5
   162   1      20.738840786723316      26.071494628562728                     6.5
   163   1      23.414820243074711      24.333394986658544                     6.5
   164   1      26.090799699426096      22.595295344754355                     6.5
   165   1      28.766779155777492       20.85719570285017                     6.5
   166   1      31.442758612128877      19.119096060945981                     6.5
   167   1      34.118738068480269      17.380996419041796                     6.5
   168   1      36.794717524831661      15.642896777137612                     6.5
   169   1      26.258048415448066      25.781811354912026                     6.5
   170   1      28.934027871799454      24.043711713007838                     6.5
   171   1       31.61000732815085      22.305612071103656                     6.5
   172   1      34.285986784502235      20.567512429199464                     6.5
   173   1      36.961966240853627      18.829412787295279                     6.5
   174   1      39.637945697205026      17.091313145391098                     6.5
   175   1      31.777256044172812      25.492128081261324                     6.5
   176   1      34.453235500524208      23.754028439357135                     6.5
   177   1      37.129214956875593      22.015928797452947                     6.5
   178   1      39.805194413226985      20.277829155548766                     6.5
   179   1      37.296463672897559      25.202444807610622                     6.5
   180   1      39.972443129248944      23.464345165706433                     6.5
   181   1      42.648422585600343      21.726245523802248                     6.5
   182   1      42.815671301622309      24.912761533959916                     6.5
   183   2      2.6759794563513934      1.7380996419041832            1.5785248507
   184   2      2.6759794563513934      1.7380996419041832           -1.5785248507
   185   2      5.5192076287247485      0.2896832736506964            1.5785248507
   186   2      5.5192076287247485      0.2896832736506964           -1.5785248507
   187   2       5.351958912702786       3.476199283808366            1.5785248507
   188   2       5.351958912702786       3.476199283808366           -1.5785248507
   189   2      8.1951870850761406      2.0277829155548801            1.5785248507
   190   2      8.1951870850761406      2.0277829155548801           -1.5785248507
   191   2      11.038415257449497     0.57936654730139281            1.5785248507
   192   2      11.038415257449497     0.57936654730139281           -1.5785248507
   193   2      5.1847101966808244      6.6627152939660359            1.5785248507
   194   2      5.1847101966808244      6.6627152939660359           -1.5785248507
   195   2      8.0279383690541799      5.2142989257125487            1.5785248507
   196   2      8.0279383690541799      5.2142989257125487           -1.5785248507
   197   2      10.871166541427534      3.7658825574590633            1.5785248507
   198   2      10.871166541427534      3.7658825574590633           -1.5785248507
   199   2      13.714394713800889      2.3174661892055761            1.5785248507
   200   2      13.714394713800889      2.3174661892055761           -1.5785248507
   201   2      16.557622886174244     0.86904982095209038            1.5785248507
   202   2      16.557622886174244     0.86904982095209038           -1.5785248507
   203   2      7.8606896530322157      8.4008149358702191            1.5785248507
   204   2      7.8606896530322157      8.4008149358702191           -1.5785248507
   205   2      10.703917825405572      6.9523985676167319            1.5785248507
   206   2      10.703917825405572      6.9523985676167319           -1.5785248507
   207   2      13.547145997778927      5.5039821993632456            1.5785248507
   208   2      13.547145997778927      5.5039821993632456           -1.5785248507
   209   2      16.390374170152278      4.0555658311097584            1.5785248507
   210   2      16.390374170152278      4.0555658311097584           -1.5785248507
   211   2      19.233602342525636      2.6071494628562717            1.5785248507
   212   2      19.233602342525636      2.6071494628562717           -1.5785248507
   213   2      22.076830514898994      1.1587330946027856            1.5785248507
   214   2      22.076830514898994      1.1587330946027856           -1.5785248507
   215   2      7.6934409370102559      11.587330946027889            1.5785248507
   216   2      7.6934409370102559      11.587330946027889           -1.5785248507
   217   2       10.53666910938361      10.138914577774401            1.5785248507
   218   2       10.53666910938361      10.138914577774401           -1.5785248507
   219   2      13.379897281756962      8.6904982095209142            1.5785248507
   220   2      13.379897281756962      8.6904982095209142           -1.5785248507
   221   2      16.223125454130319       7.242081841267427            1.5785248507
   222   2      16.223125454130319       7.242081841267427           -1.5785248507
   223   2      19.066353626503677      5.7936654730139416            1.5785248507
   224   2      19.066353626503677      5.7936654730139416           -1.5785248507
   225   2      21.909581798877028      4.3452491047604553            1.5785248507
   226   2      21.909581798877028      4.3452491047604553           -1.5785248507
   227   2      24.752809971250382      2.8968327365069686            1.5785248507
   228   2      24.752809971250382      2.8968327365069686           -1.5785248507
   229   2      27.596038143623741      1.4484163682534825            1.5785248507
   230   2      27.596038143623741      1.4484163682534825           -1.5785248507
   231   2      10.369420393361649      13.325430587932072            1.5785248507
   232   2      10.369420393361649      13.325430587932072           -1.5785248507
   233   2      13.212648565735003      11.877014219678586            1.5785248507
   234   2      13.212648565735003      11.877014219678586           -1.5785248507
   235   2       16.05587673810836      10.428597851425097            1.5785248507
   236   2       16.05587673810836      10.428597851425097           -1.5785248507
   237   2      18.899104910481711      8.9801814831716094            1.5785248507
   238   2      18.899104910481711      8.9801814831716094           -1.5785248507
   239   2      21.742333082855069      7.5317651149181266            1.5785248507
   240   2      21.742333082855069      7.5317651149181266           -1.5785248507
   241   2      24.585561255228424      6.0833487466646403            1.5785248507
   242   2      24.585561255228424      6.0833487466646403           -1.5785248507
   243   2      27.428789427601778      4.6349323784111522            1.5785248507
   244   2      27.428789427601778      4.6349323784111522           -1.5785248507
   245   2      30.272017599975133      3.1865160101576642            1.5785248507
   246   2      30.272017599975133      3.1865160101576642           -1.5785248507
   247   2      10.202171677339686       16.51194659808974            1.5785248507
   248   2      10.202171677339686       16.51194659808974           -1.5785248507
   249   2      13.045399849713039      15.063530229836251            1.5785248507
   250   2      13.045399849713039      15.063530229836251           -1.5785248507
   251   2      15.888628022086394      13.615113861582767            1.5785248507
   252   2      15.888628022086394      13.615113861582767           -1.5785248507
   253   2      18.731856194459748      12.166697493329281            1.5785248507
   254   2      18.731856194459748      12.166697493329281           -1.5785248507
   255   2      21.575084366833103      10.718281125075793            1.5785248507
   256   2      21.575084366833103      10.718281125075793           -1.5785248507
   257   2      24.418312539206461       9.269864756822308            1.5785248507
   258   2      24.418312539206461       9.269864756822308           -1.5785248507
   259   2      27.261540711579816      7.8214483885688217            1.5785248507
   260   2      27.261540711579816      7.8214483885688217           -1.5785248507
   261   2       30.10476888395317      6.3730320203153337            1.5785248507
   262   2       30.10476888395317      6.3730320203153337           -1.5785248507
   263   2      32.947997056326521      4.9246156520618456            1.5785248507
   264   2      32.947997056326521      4.9246156520618456           -1.5785248507
   265   2      12.878151133691079      18.250046239993921            1.5785248507
   266   2      12.878151133691079      18.250046239993921           -1.5785248507
   267   2      15.721379306064431      16.801629871740438            1.5785248507
   268   2      15.721379306064431      16.801629871740438           -1.5785248507
   269   2      18.564607478437789      15.353213503486952            1.5785248507
   270   2      18.564607478437789      15.353213503486952           -1.5785248507
   271   2      21.407835650811144      13.904797135233464            1.5785248507
   272   2      21.407835650811144      13.904797135233464           -1.5785248507
   273   2      24.251063823184499      12.456380766979976            1.5785248507
   274   2      24.251063823184499      12.456380766979976           -1.5785248507
   275   2      27.094291995557853      11.007964398726491            1.5785248507
   276   2      27.094291995557853      11.007964398726491           -1.5785248507
   277   2      29.937520167931208      9.5595480304730067            1.5785248507
   278   2      29.937520167931208      9.5595480304730067           -1.5785248507
   279   2      32.780748340304562      8.1111316622195204            1.5785248507
   280   2      32.780748340304562      8.1111316622195204           -1.5785248507
   281   2       12.71090241766912      21.436562250151596            1.5785248507
   282   2       12.71090241766912      21.436562250151596           -1.5785248507
   283   2      15.554130590042474      19.988145881898106            1.5785248507
   284   2      15.554130590042474      19.988145881898106           -1.5785248507
   285   2      18.397358762415827       18.53972951364462            1.5785248507
   286   2      18.397358762415827       18.53972951364462           -1.5785248507
   287   2      21.240586934789185      17.091313145391133            1.5785248507
   288   2      21.240586934789185      17.091313145391133           -1.5785248507
   289   2      24.083815107162536      15.642896777137647            1.5785248507
   290   2      24.083815107162536      15.642896777137647           -1.5785248507
   291   2      26.927043279535891      14.194480408884161            1.5785248507
   292   2      26.927043279535891      14.194480408884161           -1.5785248507
   293   2      29.770271451909249      12.746064040630676            1.5785248507
   294   2      29.770271451909249      12.746064040630676           -1.5785248507
   295   2      32.613499624282603      11.297647672377188            1.5785248507
   296   2      32.613499624282603      11.297647672377188           -1.5785248507
   297   2      35.456727796655954      9.8492313041237018            1.5785248507
   298   2      35.456727796655954      9.8492313041237018           -1.5785248507
   299   2      15.386881874020512      23.174661892055777            1.5785248507
   300   2      15.386881874020512      23.174661892055777           -1.5785248507
   301   2      18.230110046393865      21.726245523802287            1.5785248507
   302   2      18.230110046393865      21.726245523802287           -1.5785248507
   303   2      21.073338218767219      20.277829155548801            1.5785248507
   304   2      21.073338218767219      20.277829155548801           -1.5785248507
   305   2      23.916566391140574      18.829412787295318            1.5785248507
   306   2      23.916566391140574      18.829412787295318           -1.5785248507
   307   2      26.759794563513932      17.380996419041832            1.5785248507
   308   2      26.759794563513932      17.380996419041832           -1.5785248507
   309   2      29.603022735887286      15.932580050788342            1.5785248507
   310   2      29.603022735887286      15.932580050788342           -1.5785248507
   311   2      32.446250908260637      14.484163682534854            1.5785248507
   312   2      32.446250908260637      14.484163682534854           -1.5785248507
   313   2      35.289479080633996       13.03574731428137            1.5785248507
   314   2      35.289479080633996       13.03574731428137           -1.5785248507
   315   2      15.219633157998549      26.361177902213445            1.5785248507
   316   2      15.219633157998549      26.361177902213445           -1.5785248507
   317   2      18.062861330371902      24.912761533959959            1.5785248507
   318   2      18.062861330371902      24.912761533959959           -1.5785248507
   319   2      20.906089502745253      23.464345165706469            1.5785248507
   320   2      20.906089502745253      23.464345165706469           -1.5785248507
   321   2      23.749317675118608      22.015928797452986            1.5785248507
   322   2      23.749317675118608      22.015928797452986           -1.5785248507
   323   2      26.592545847491962      20.567512429199496            1.5785248507
   324   2      26.592545847491962      20.567512429199496           -1.5785248507
   325   2       29.43577401986532       19.11909606094601            1.5785248507
   326   2       29.43577401986532       19.11909606094601           -1.5785248507
   327   2      32.279002192238679      17.670679692692524            1.5785248507
   328   2      32.279002192238679      17.670679692692524           -1.5785248507
   329   2       35.12223036461203      16.222263324439034            1.5785248507
   330   2       35.12223036461203      16.222263324439034           -1.5785248507
   331   2      37.965458536985388      14.773846956185551            1.5785248507
   332   2      37.965458536985388      14.773846956185551           -1.5785248507
   333   2      23.582068959096652      25.202444807610654            1.5785248507
   334   2      23.582068959096652      25.202444807610654           -1.5785248507
   335   2      26.425297131470007      23.754028439357171            1.5785248507
   336   2      26.425297131470007      23.754028439357171           -1.5785248507
   337   2      29.268525303843361      22.305612071103681            1.5785248507
   338   2      29.268525303843361      22.305612071103681           -1.5785248507
   339   2       32.11175347621672      20.857195702850195            1.5785248507
   340   2       32.11175347621672      20.857195702850195           -1.5785248507
   341   2      34.954981648590071      19.408779334596709            1.5785248507
   342   2      34.954981648590071      19.408779334596709           -1.5785248507
   343   2      37.798209820963422      17.960362966343219            1.5785248507
   344   2      37.798209820963422      17.960362966343219           -1.5785248507
   345   2      29.101276587821403      25.492128081261352            1.5785248507
   346   2      29.101276587821403      25.492128081261352           -1.5785248507
   347   2      31.944504760194754      24.043711713007863            1.5785248507
   348   2      31.944504760194754      24.043711713007863           -1.5785248507
   349   2      34.787732932568105      22.595295344754376            1.5785248507
   350   2      34.787732932568105      22.595295344754376           -1.5785248507
   351   2      37.630961104941463      21.146878976500894            1.5785248507
   352   2      37.630961104941463      21.146878976500894           -1.5785248507
   353   2      40.474189277314814      19.698462608247404            1.5785248507
   354   2      40.474189277314814      19.698462608247404           -1.5785248507
   355   2      34.620484216546139      25.781811354912044            1.5785248507
   356   2      34.620484216546139      25.781811354912044           -1.5785248507
   357   2      37.463712388919497      24.333394986658561            1.5785248507
   358   2      37.463712388919497      24.333394986658561           -1.5785248507
   359   2      40.306940561292855      22.884978618405075            1.5785248507
   360   2      40.306940561292855      22.884978618405075           -1.5785248507
   361   2      40.139691845270896      26.071494628562746            1.5785248507
   362   2      40.139691845270896      26.071494628562746           -1.5785248507
   363   2      42.982920017644254       24.62307826030926            1.5785248507
   364   2      42.982920017644254       24.62307826030926           -1.5785248507
   365   2      4.5947449456582987      1.4876774712757379      8.0785248506999991
   366   2      4.5947449456582987      1.4876774712757379            4.9214751493
   367   2      4.7619936616802638      4.6741934814334076      8.0785248506999991
   368   2      4.7619936616802638      4.6741934814334076            4.9214751493
   369   2      7.4379731180316551      2.9360938395292204      8.0785248506999991
   370   2      7.4379731180316551      2.9360938395292204            4.9214751493
   371   2      10.113952574383045      1.1979941976250346      8.0785248506999991
   372   2      10.113952574383045      1.1979941976250346            4.9214751493
   373   2      7.6052218340536193      6.1226098496868904      8.0785248506999991
   374   2      7.6052218340536193      6.1226098496868904            4.9214751493
   375   2      10.281201290405011      4.3845102077827045      8.0785248506999991
   376   2      10.281201290405011      4.3845102077827045            4.9214751493
   377   2      12.957180746756402      2.6464105658785173      8.0785248506999991
   378   2      12.957180746756402      2.6464105658785173            4.9214751493
   379   2      15.633160203107794     0.90831092397433222      8.0785248506999991
   380   2      15.633160203107794     0.90831092397433222            4.9214751493
   381   2      7.7724705500755844      9.3091258598445599      8.0785248506999991
   382   2      7.7724705500755844      9.3091258598445599            4.9214751493
   383   2      10.448450006426977       7.571026217940374      8.0785248506999991
   384   2      10.448450006426977       7.571026217940374            4.9214751493
   385   2      13.124429462778368      5.8329265760361881      8.0785248506999991
   386   2      13.124429462778368      5.8329265760361881            4.9214751493
   387   2      15.800408919129758      4.0948269341320023      8.0785248506999991
   388   2      15.800408919129758      4.0948269341320023            4.9214751493
   389   2       18.47638837548115      2.3567272922278151      8.0785248506999991
   390   2       18.47638837548115      2.3567272922278151            4.9214751493
   391   2      21.152367831832539     0.61862765032362999      8.0785248506999991
   392   2      21.152367831832539     0.61862765032362999            4.9214751493
   393   2      10.615698722448943      10.757542228098044      8.0785248506999991
   394   2      10.615698722448943      10.757542228098044            4.9214751493
   395   2      13.291678178800334      9.0194425861938576      8.0785248506999991
   396   2      13.291678178800334      9.0194425861938576            4.9214751493
   397   2      15.967657635151724        7.28134294428967      8.0785248506999991
   398   2      15.967657635151724        7.28134294428967            4.9214751493
   399   2      18.643637091503113      5.5432433023854841      8.0785248506999991
   400   2      18.643637091503113      5.5432433023854841            4.9214751493
   401   2      21.319616547854505      3.8051436604812992      8.0785248506999991
   402   2      21.319616547854505      3.8051436604812992            4.9214751493
   403   2      23.995596004205897      2.0670440185771128      8.0785248506999991
   404   2      23.995596004205897      2.0670440185771128            4.9214751493
   405   2      26.671575460557285     0.32894437667292437      8.0785248506999991
   406   2      26.671575460557285     0.32894437667292437            4.9214751493
   407   2      10.782947438470902       13.94405823825571      8.0785248506999991
   408   2      10.782947438470902       13.94405823825571            4.9214751493
   409   2      13.458926894822296      12.205958596351525      8.0785248506999991
   410   2      13.458926894822296      12.205958596351525            4.9214751493
   411   2      16.134906351173687       10.46785895444734      8.0785248506999991
   412   2      16.134906351173687       10.46785895444734            4.9214751493
   413   2      18.810885807525075      8.7297593125431519      8.0785248506999991
   414   2      18.810885807525075      8.7297593125431519            4.9214751493
   415   2      21.486865263876467       6.991659670638966      8.0785248506999991
   416   2      21.486865263876467       6.991659670638966            4.9214751493
   417   2      24.162844720227856      5.2535600287347801      8.0785248506999991
   418   2      24.162844720227856      5.2535600287347801            4.9214751493
   419   2      26.838824176579251      3.5154603868305934      8.0785248506999991
   420   2      26.838824176579251      3.5154603868305934            4.9214751493
   421   2       29.51480363293064      1.7773607449264068      8.0785248506999991
   422   2       29.51480363293064      1.7773607449264068            4.9214751493
   423   2      13.626175610844262      15.392474606509193      8.0785248506999991
   424   2      13.626175610844262      15.392474606509193            4.9214751493
   425   2      16.302155067195653       13.65437496460501      8.0785248506999991
   426   2      16.302155067195653       13.65437496460501            4.9214751493
   427   2      18.978134523547045      11.916275322700823      8.0785248506999991
   428   2      18.978134523547045      11.916275322700823            4.9214751493
   429   2      21.654113979898437      10.178175680796636      8.0785248506999991
   430   2      21.654113979898437      10.178175680796636            4.9214751493
   431   2      24.330093436249825      8.4400760388924496      8.0785248506999991
   432   2      24.330093436249825      8.4400760388924496            4.9214751493
   433   2      27.006072892601217      6.7019763969882629      8.0785248506999991
   434   2      27.006072892601217      6.7019763969882629            4.9214751493
   435   2       29.68205234895261      4.9638767550840779      8.0785248506999991
   436   2       29.68205234895261      4.9638767550840779            4.9214751493
   437   2      32.358031805304002      3.2257771131798898      8.0785248506999991
   438   2      32.358031805304002      3.2257771131798898            4.9214751493
   439   2      13.793424326866226      18.578990616666864      8.0785248506999991
   440   2      13.793424326866226      18.578990616666864            4.9214751493
   441   2      16.469403783217619      16.840890974762676      8.0785248506999991
   442   2      16.469403783217619      16.840890974762676            4.9214751493
   443   2      19.145383239569011      15.102791332858494      8.0785248506999991
   444   2      19.145383239569011      15.102791332858494            4.9214751493
   445   2      21.821362695920399      13.364691690954308      8.0785248506999991
   446   2      21.821362695920399      13.364691690954308            4.9214751493
   447   2      24.497342152271791      11.626592049050119      8.0785248506999991
   448   2      24.497342152271791      11.626592049050119            4.9214751493
   449   2       27.17332160862318      9.8884924071459341      8.0785248506999991
   450   2       27.17332160862318      9.8884924071459341            4.9214751493
   451   2      29.849301064974572      8.1503927652417474      8.0785248506999991
   452   2      29.849301064974572      8.1503927652417474            4.9214751493
   453   2      32.525280521325968      6.4122931233375606      8.0785248506999991
   454   2      32.525280521325968      6.4122931233375606            4.9214751493
   455   2      16.636652499239585      20.027406984920347      8.0785248506999991
   456   2      16.636652499239585      20.027406984920347            4.9214751493
   457   2      19.312631955590977      18.289307343016162      8.0785248506999991
   458   2      19.312631955590977      18.289307343016162            4.9214751493
   459   2      21.988611411942369      16.551207701111977      8.0785248506999991
   460   2      21.988611411942369      16.551207701111977            4.9214751493
   461   2      24.664590868293757      14.813108059207792      8.0785248506999991
   462   2      24.664590868293757      14.813108059207792            4.9214751493
   463   2      27.340570324645149      13.075008417303605      8.0785248506999991
   464   2      27.340570324645149      13.075008417303605            4.9214751493
   465   2      30.016549780996538      11.336908775399415      8.0785248506999991
   466   2      30.016549780996538      11.336908775399415            4.9214751493
   467   2      32.692529237347927      9.5988091334952301      8.0785248506999991
   468   2      32.692529237347927      9.5988091334952301            4.9214751493
   469   2      35.368508693699326       7.860709491591046      8.0785248506999991
   470   2      35.368508693699326       7.860709491591046            4.9214751493
   471   2      16.803901215261551      23.213922995078018      8.0785248506999991
   472   2      16.803901215261551      23.213922995078018            4.9214751493
   473   2      19.479880671612939      21.475823353173833      8.0785248506999991
   474   2      19.479880671612939      21.475823353173833            4.9214751493
   475   2      22.155860127964331      19.737723711269645      8.0785248506999991
   476   2      22.155860127964331      19.737723711269645            4.9214751493
   477   2      24.831839584315723       17.99962406936546      8.0785248506999991
   478   2      24.831839584315723       17.99962406936546            4.9214751493
   479   2      27.507819040667115      16.261524427461271      8.0785248506999991
   480   2      27.507819040667115      16.261524427461271            4.9214751493
   481   2      30.183798497018504      14.523424785557086      8.0785248506999991
   482   2      30.183798497018504      14.523424785557086            4.9214751493
   483   2        32.8597779533699      12.785325143652905      8.0785248506999991
   484   2        32.8597779533699      12.785325143652905            4.9214751493
   485   2      35.535757409721285      11.047225501748715      8.0785248506999991
   486   2      35.535757409721285      11.047225501748715            4.9214751493
   487   2      16.971149931283517      26.400439005235686      8.0785248506999991
   488   2      16.971149931283517      26.400439005235686            4.9214751493
   489   2      19.647129387634909      24.662339363331501      8.0785248506999991
   490   2      19.647129387634909      24.662339363331501            4.9214751493
   491   2      22.323108843986297      22.924239721427316      8.0785248506999991
   492   2      22.323108843986297      22.924239721427316            4.9214751493
   493   2      24.999088300337689      21.186140079523131      8.0785248506999991
   494   2      24.999088300337689      21.186140079523131            4.9214751493
   495   2      27.675067756689081      19.448040437618946      8.0785248506999991
   496   2      27.675067756689081      19.448040437618946            4.9214751493
   497   2       30.35104721304047      17.709940795714754      8.0785248506999991
   498   2       30.35104721304047      17.709940795714754            4.9214751493
   499   2      33.027026669391866      15.971841153810573      8.0785248506999991
   500   2      33.027026669391866      15.971841153810573            4.9214751493
   501   2      35.703006125743258      14.233741511906386      8.0785248506999991
   502   2      35.703006125743258      14.233741511906386            4.9214751493
   503   2      38.378985582094643      12.495641870002196      8.0785248506999991
   504   2      38.378985582094643      12.495641870002196            4.9214751493
   505   2      22.490357560008256       26.11075573158498      8.0785248506999991
   506   2      22.490357560008256       26.11075573158498            4.9214751493
   507   2      25.166337016359648      24.372656089680799      8.0785248506999991
   508   2      25.166337016359648      24.372656089680799            4.9214751493
   509   2       27.84231647271104       22.63455644777661      8.0785248506999991
   510   2       27.84231647271104       22.63455644777661            4.9214751493
   511   2      30.518295929062429      20.896456805872422      8.0785248506999991
   512   2      30.518295929062429      20.896456805872422            4.9214751493
   513   2      33.194275385413818      19.158357163968237      8.0785248506999991
   514   2      33.194275385413818      19.158357163968237            4.9214751493
   515   2       35.87025484176521      17.420257522064052      8.0785248506999991
   516   2       35.87025484176521      17.420257522064052            4.9214751493
   517   2      38.546234298116602      15.682157880159865      8.0785248506999991
   518   2      38.546234298116602      15.682157880159865            4.9214751493
   519   2       28.00956518873301      25.821072457934282      8.0785248506999991
   520   2       28.00956518873301      25.821072457934282            4.9214751493
   521   2      30.685544645084398       24.08297281603009      8.0785248506999991
   522   2      30.685544645084398       24.08297281603009            4.9214751493
   523   2      33.361524101435784      22.344873174125908      8.0785248506999991
   524   2      33.361524101435784      22.344873174125908            4.9214751493
   525   2      36.037503557787176       20.60677353222172      8.0785248506999991
   526   2      36.037503557787176       20.60677353222172            4.9214751493
   527   2      38.713483014138575      18.868673890317535      8.0785248506999991
   528   2      38.713483014138575      18.868673890317535            4.9214751493
   529   2      41.389462470489967       17.13057424841335      8.0785248506999991
   530   2      41.389462470489967       17.13057424841335            4.9214751493
   531   2      33.528772817457757      25.531389184283576      8.0785248506999991
   532   2      33.528772817457757      25.531389184283576            4.9214751493
   533   2      36.204752273809149      23.793289542379391      8.0785248506999991
   534   2      36.204752273809149      23.793289542379391            4.9214751493
   535   2      38.880731730160534      22.055189900475206      8.0785248506999991
   536   2      38.880731730160534      22.055189900475206            4.9214751493
   537   2      41.556711186511926      20.317090258571017      8.0785248506999991
   538   2      41.556711186511926      20.317090258571017            4.9214751493
   539   2        39.0479804461825      25.241705910632877      8.0785248506999991
   540   2        39.0479804461825      25.241705910632877            4.9214751493
   541   2      41.723959902533892      23.503606268728685      8.0785248506999991
   542   2      41.723959902533892      23.503606268728685            4.9214751493
   543   2      44.399939358885284        21.7655066268245      8.0785248506999991
   544   2      44.399939358885284        21.7655066268245            4.9214751493
   545   2      44.567188074907243      24.952022636982171      8.0785248506999991
   546   2      44.567188074907243      24.952022636982171            4.9214751493
