rigid_bilayers/data_WSe2_WSe2_AP_4 (written by ASE) 

366 	 atoms 
2  atom types
0.0      25.952477955894548  xlo xhi
0.0      22.475505200960317  ylo yhi
0.0                      30  zlo zhi
     12.976238977947268                       0                       0  xy xz yz


Atoms 

     1   1     0.85090091658670652      1.7194375563576201                       0
     2   1      3.8290541246401792     0.24563393662251759                       0
     3   1      3.6163288954935031      3.5616920810264991                       0
     4   1      6.5944821035469756      2.0878884612913962                       0
     5   1      9.5726353116004503     0.61408484155629328                       0
     6   1      3.4036036663468274      6.8777502254304812                       0
     7   1      6.3817568744002999      5.4039466056953778                       0
     8   1      9.3599100824537729      3.9301429859602757                       0
     9   1      12.338063290507245      2.4563393662251718                       0
    10   1      15.316216498560719     0.98253574649006892                       0
    11   1      6.1690316452536225      8.7200047500993598                       0
    12   1      9.1471848533070954      7.2462011303642564                       0
    13   1      12.125338061360569       5.772397510629153                       0
    14   1       15.10349126941404      4.2985938908940495                       0
    15   1      18.081644477467513      2.8247902711589457                       0
    16   1      21.059797685520987      1.3509866514238451                       0
    17   1      5.9563064161069468       12.03606289450334                       0
    18   1      8.9344596241604197      10.562259274768238                       0
    19   1       11.91261283221389       9.088455655033135                       0
    20   1      14.890766040267364      7.6146520352980307                       0
    21   1      17.868919248320836      6.1408484155629273                       0
    22   1      20.847072456374306      4.6670447958278256                       0
    23   1      23.825225664427776      3.1932411760927208                       0
    24   1       8.721734395013744       13.87831741917222                       0
    25   1      11.699887603067214      12.404513799437115                       0
    26   1      14.678040811120688      10.930710179702015                       0
    27   1      17.656194019174162       9.456906559966912                       0
    28   1      20.634347227227632      7.9831029402318068                       0
    29   1      23.612500435281106      6.5092993204967051                       0
    30   1      26.590653643334576      5.0354957007616026                       0
    31   1      8.5090091658670648      17.194375563576198                       0
    32   1      11.487162373920539      15.720571943841097                       0
    33   1      14.465315581974009      14.246768324105995                       0
    34   1      17.443468790027485      12.772964704370892                       0
    35   1      20.421621998080958       11.29916108463579                       0
    36   1      23.399775206134429      9.8253574649006872                       0
    37   1      26.377928414187902      8.3515538451655829                       0
    38   1      11.274437144773859      19.036630088245079                       0
    39   1      14.252590352827333      17.562826468509975                       0
    40   1      17.230743560880803      16.089022848774871                       0
    41   1      20.208896768934281      14.615219229039772                       0
    42   1      23.187049976987755      13.141415609304667                       0
    43   1      26.165203185041225      11.667611989569565                       0
    44   1      29.143356393094695      10.193808369834461                       0
    45   1      11.061711915627182      22.352688232649058                       0
    46   1      14.039865123680656      20.878884612913957                       0
    47   1       17.01801833173413      19.405080993178856                       0
    48   1        19.9961715397876      17.931277373443749                       0
    49   1      22.974324747841077      16.457473753708648                       0
    50   1      25.952477955894548      14.983670133973545                       0
    51   1      28.930631163948018      13.509866514238444                       0
    52   1      19.783446310640926      21.247335517847734                       0
    53   1      22.761599518694393       19.77353189811263                       0
    54   1       25.73975272674787      18.299728278377529                       0
    55   1      28.717905934801344      16.825924658642425                       0
    56   1      31.696059142854821      15.352121038907326                       0
    57   1        25.5270274976012      21.615786422781511                       0
    58   1      28.505180705654674       20.14198280304641                       0
    59   1      31.483333913708144      18.668179183311306                       0
    60   1       31.27060868456147      21.984237327715288                       0
    61   1      34.248761892614937      20.510433707980187                       0
    62   1      4.7793430581232839       1.521118353428784                     6.5
    63   1      4.9920682872699604      4.8371764978327656                     6.5
    64   1      7.7574962661767568       2.994921973163887                     6.5
    65   1      10.522924245083553      1.1526674484950086                     6.5
    66   1      7.9702214953234334      6.3109801175678681                     6.5
    67   1      10.735649474230231      4.4687255928989895                     6.5
    68   1      13.501077453137027      2.6264710682301118                     6.5
    69   1      16.266505432043822     0.78421654356123227                     6.5
    70   1        8.18294672447011      9.6270382619718493                     6.5
    71   1      10.948374703376906      7.7847837373029707                     6.5
    72   1      13.713802682283703      5.9425292126340929                     6.5
    73   1      16.479230661190499      4.1002746879652143                     6.5
    74   1      19.244658640097299      2.2580201632963357                     6.5
    75   1      22.010086619004092     0.41576563862745675                     6.5
    76   1      11.161099932523582      11.100841881706952                     6.5
    77   1      13.926527911430378      9.2585873570380723                     6.5
    78   1      16.691955890337177      7.4163328323691955                     6.5
    79   1      19.457383869243973       5.574078307700316                     6.5
    80   1      22.222811848150769      3.7318237830314374                     6.5
    81   1      24.988239827057566      1.8895692583625585                     6.5
    82   1      11.373825161670263      14.416900026110936                     6.5
    83   1      14.139253140577059      12.574645501442056                     6.5
    84   1      16.904681119483854      10.732390976773178                     6.5
    85   1       19.67010909839065      8.8901364521042989                     6.5
    86   1      22.435537077297447      7.0478819274354203                     6.5
    87   1      25.200965056204243      5.2056274027665426                     6.5
    88   1      27.966393035111039      3.3633728780976622                     6.5
    89   1      14.351978369723737      15.890703645846042                     6.5
    90   1      17.117406348630531       14.04844912117716                     6.5
    91   1      19.882834327537331      12.206194596508283                     6.5
    92   1      22.648262306444124      10.363940071839401                     6.5
    93   1      25.413690285350917      8.5216855471705237                     6.5
    94   1      28.179118264257717      6.6794310225016442                     6.5
    95   1      14.564703598870411       19.20676179025002                     6.5
    96   1      17.330131577777209      17.364507265581143                     6.5
    97   1      20.095559556684005      15.522252740912263                     6.5
    98   1      22.860987535590802      13.679998216243385                     6.5
    99   1      25.626415514497594      11.837743691574506                     6.5
   100   1      28.391843493404391      9.9954891669056263                     6.5
   101   1      31.157271472311187      8.1532346422367503                     6.5
   102   1       14.77742882801709      22.522819934654002                     6.5
   103   1      17.542856806923883      20.680565409985121                     6.5
   104   1      20.308284785830679      18.838310885316243                     6.5
   105   1      23.073712764737476      16.996056360647366                     6.5
   106   1      25.839140743644272      15.153801835978486                     6.5
   107   1      28.604568722551068      13.311547311309607                     6.5
   108   1      31.369996701457861      11.469292786640729                     6.5
   109   1      20.521010014977353      22.154369029720222                     6.5
   110   1      23.286437993884153      20.312114505051344                     6.5
   111   1      26.051865972790946      18.469859980382466                     6.5
   112   1      28.817293951697746      16.627605455713589                     6.5
   113   1      31.582721930604535      14.785350931044707                     6.5
   114   1      34.348149909511335       12.94309640637583                     6.5
   115   1      26.264591201937627      21.785918124786448                     6.5
   116   1      29.030019180844427      19.943663600117571                     6.5
   117   1      31.795447159751216      18.101409075448689                     6.5
   118   1      34.560875138658012      16.259154550779812                     6.5
   119   1      32.008172388897897      21.417467219852675                     6.5
   120   1       34.77360036780469      19.575212695183794                     6.5
   121   1      37.539028346711483      17.732958170514916                     6.5
   122   1       37.75175357585816      21.049016314918894                     6.5
   123   2      2.7654279789067964      1.8422545246688788            1.6835894055
   124   2      2.7654279789067964      1.8422545246688788           -1.6835894055
   125   2      5.7435811869602693      0.3684509049337763            1.6835894055
   126   2      5.7435811869602693      0.3684509049337763           -1.6835894055
   127   2      5.5308559578135927      3.6845090493377572            1.6835894055
   128   2      5.5308559578135927      3.6845090493377572           -1.6835894055
   129   2      8.5090091658670648      2.2107054296026543            1.6835894055
   130   2      8.5090091658670648      2.2107054296026543           -1.6835894055
   131   2      11.487162373920539      0.7369018098675526            1.6835894055
   132   2      11.487162373920539      0.7369018098675526           -1.6835894055
   133   2      5.3181307286669171      7.0005671937417393            1.6835894055
   134   2      5.3181307286669171      7.0005671937417393           -1.6835894055
   135   2      8.2962839367203891      5.5267635740066368            1.6835894055
   136   2      8.2962839367203891      5.5267635740066368           -1.6835894055
   137   2      11.274437144773861      4.0529599542715333            1.6835894055
   138   2      11.274437144773861      4.0529599542715333           -1.6835894055
   139   2      14.252590352827335      2.5791563345364303            1.6835894055
   140   2      14.252590352827335      2.5791563345364303           -1.6835894055
   141   2      17.230743560880811      1.1053527148013282            1.6835894055
   142   2      17.230743560880811      1.1053527148013282           -1.6835894055
   143   2      8.0835587075737134       8.842821718410617            1.6835894055
   144   2      8.0835587075737134       8.842821718410617           -1.6835894055
   145   2      11.061711915627185      7.3690180986755145            1.6835894055
   146   2      11.061711915627185      7.3690180986755145           -1.6835894055
   147   2      14.039865123680656      5.8952144789404111            1.6835894055
   148   2      14.039865123680656      5.8952144789404111           -1.6835894055
   149   2       17.01801833173413      4.4214108592053085            1.6835894055
   150   2       17.01801833173413      4.4214108592053085           -1.6835894055
   151   2      19.996171539787603       2.947607239470206            1.6835894055
   152   2      19.996171539787603       2.947607239470206           -1.6835894055
   153   2      22.974324747841077      1.4738036197351052            1.6835894055
   154   2      22.974324747841077      1.4738036197351052           -1.6835894055
   155   2       7.870833478427036      12.158879862814599            1.6835894055
   156   2       7.870833478427036      12.158879862814599           -1.6835894055
   157   2      10.848986686480508      10.685076243079495            1.6835894055
   158   2      10.848986686480508      10.685076243079495           -1.6835894055
   159   2       13.82713989453398      9.2112726233443922            1.6835894055
   160   2       13.82713989453398      9.2112726233443922           -1.6835894055
   161   2      16.805293102587456      7.7374690036092906            1.6835894055
   162   2      16.805293102587456      7.7374690036092906           -1.6835894055
   163   2      19.783446310640922       6.263665383874188            1.6835894055
   164   2      19.783446310640922       6.263665383874188           -1.6835894055
   165   2        22.7615995186944      4.7898617641390837            1.6835894055
   166   2        22.7615995186944      4.7898617641390837           -1.6835894055
   167   2       25.73975272674787      3.3160581444039812            1.6835894055
   168   2       25.73975272674787      3.3160581444039812           -1.6835894055
   169   2      10.636261457333834      14.001134387483479            1.6835894055
   170   2      10.636261457333834      14.001134387483479           -1.6835894055
   171   2      13.614414665387306      12.527330767748374            1.6835894055
   172   2      13.614414665387306      12.527330767748374           -1.6835894055
   173   2      16.592567873440778      11.053527148013274            1.6835894055
   174   2      16.592567873440778      11.053527148013274           -1.6835894055
   175   2      19.570721081494252       9.579723528278171            1.6835894055
   176   2      19.570721081494252       9.579723528278171           -1.6835894055
   177   2      22.548874289547722      8.1059199085430667            1.6835894055
   178   2      22.548874289547722      8.1059199085430667           -1.6835894055
   179   2        25.5270274976012       6.632116288807965            1.6835894055
   180   2        25.5270274976012       6.632116288807965           -1.6835894055
   181   2       28.50518070565467      5.1583126690728607            1.6835894055
   182   2       28.50518070565467      5.1583126690728607           -1.6835894055
   183   2      10.423536228187155      17.317192531887461            1.6835894055
   184   2      10.423536228187155      17.317192531887461           -1.6835894055
   185   2      13.401689436240629      15.843388912152358            1.6835894055
   186   2      13.401689436240629      15.843388912152358           -1.6835894055
   187   2      16.379842644294101      14.369585292417252            1.6835894055
   188   2      16.379842644294101      14.369585292417252           -1.6835894055
   189   2      19.357995852347575      12.895781672682151            1.6835894055
   190   2      19.357995852347575      12.895781672682151           -1.6835894055
   191   2      22.336149060401048       11.42197805294705            1.6835894055
   192   2      22.336149060401048       11.42197805294705           -1.6835894055
   193   2      25.314302268454519      9.9481744332119444            1.6835894055
   194   2      25.314302268454519      9.9481744332119444           -1.6835894055
   195   2      28.292455476507993      8.4743708134768418            1.6835894055
   196   2      28.292455476507993      8.4743708134768418           -1.6835894055
   197   2      13.188964207093949      19.159447056556338            1.6835894055
   198   2      13.188964207093949      19.159447056556338           -1.6835894055
   199   2      16.167117415147427      17.685643436821234            1.6835894055
   200   2      16.167117415147427      17.685643436821234           -1.6835894055
   201   2      19.145270623200897      16.211839817086133            1.6835894055
   202   2      19.145270623200897      16.211839817086133           -1.6835894055
   203   2      22.123423831254371      14.738036197351029            1.6835894055
   204   2      22.123423831254371      14.738036197351029           -1.6835894055
   205   2      25.101577039307841      13.264232577615928            1.6835894055
   206   2      25.101577039307841      13.264232577615928           -1.6835894055
   207   2      28.079730247361312      11.790428957880822            1.6835894055
   208   2      28.079730247361312      11.790428957880822           -1.6835894055
   209   2      31.057883455414785       10.31662533814572            1.6835894055
   210   2      31.057883455414785       10.31662533814572           -1.6835894055
   211   2      12.976238977947272      22.475505200960317            1.6835894055
   212   2      12.976238977947272      22.475505200960317           -1.6835894055
   213   2      15.954392186000746      21.001701581225216            1.6835894055
   214   2      15.954392186000746      21.001701581225216           -1.6835894055
   215   2      18.932545394054223      19.527897961490112            1.6835894055
   216   2      18.932545394054223      19.527897961490112           -1.6835894055
   217   2      21.910698602107693      18.054094341755011            1.6835894055
   218   2      21.910698602107693      18.054094341755011           -1.6835894055
   219   2      24.888851810161164      16.580290722019907            1.6835894055
   220   2      24.888851810161164      16.580290722019907           -1.6835894055
   221   2      27.867005018214634      15.106487102284806            1.6835894055
   222   2      27.867005018214634      15.106487102284806           -1.6835894055
   223   2      30.845158226268108        13.6326834825497            1.6835894055
   224   2      30.845158226268108        13.6326834825497           -1.6835894055
   225   2      21.697973372961016       21.37015248615899            1.6835894055
   226   2      21.697973372961016       21.37015248615899           -1.6835894055
   227   2      24.676126581014486      19.896348866423889            1.6835894055
   228   2      24.676126581014486      19.896348866423889           -1.6835894055
   229   2       27.65427978906796      18.422545246688784            1.6835894055
   230   2       27.65427978906796      18.422545246688784           -1.6835894055
   231   2       30.63243299712143      16.948741626953684            1.6835894055
   232   2       30.63243299712143      16.948741626953684           -1.6835894055
   233   2      33.610586205174911      15.474938007218581            1.6835894055
   234   2      33.610586205174911      15.474938007218581           -1.6835894055
   235   2       27.44155455992129       21.73860339109277            1.6835894055
   236   2       27.44155455992129       21.73860339109277           -1.6835894055
   237   2       30.41970776797476      20.264799771357666            1.6835894055
   238   2       30.41970776797476      20.264799771357666           -1.6835894055
   239   2      33.397860976028234      18.790996151622561            1.6835894055
   240   2      33.397860976028234      18.790996151622561           -1.6835894055
   241   2      33.185135746881556      22.107054296026547            1.6835894055
   242   2      33.185135746881556      22.107054296026547           -1.6835894055
   243   2      36.163288954935034      20.633250676291443            1.6835894055
   244   2      36.163288954935034      20.633250676291443           -1.6835894055
   245   2      2.9781532080534729      1.4738036197351028      8.1835894054999994
   246   2      2.9781532080534729      1.4738036197351028      4.8164105944999998
   247   2        3.19087843720015      4.7898617641390846      8.1835894054999994
   248   2        3.19087843720015      4.7898617641390846      4.8164105944999998
   249   2      5.9563064161069459      2.9476072394702055      8.1835894054999994
   250   2      5.9563064161069459      2.9476072394702055      4.8164105944999998
   251   2      8.7217343950137423      1.1053527148013267      8.1835894054999994
   252   2      8.7217343950137423      1.1053527148013267      4.8164105944999998
   253   2      6.1690316452536234      6.2636653838741871      8.1835894054999994
   254   2      6.1690316452536234      6.2636653838741871      4.8164105944999998
   255   2      8.9344596241604197      4.4214108592053085      8.1835894054999994
   256   2      8.9344596241604197      4.4214108592053085      4.8164105944999998
   257   2      11.699887603067216      2.5791563345364308      8.1835894054999994
   258   2      11.699887603067216      2.5791563345364308      4.8164105944999998
   259   2      14.465315581974012     0.73690180986755083      8.1835894054999994
   260   2      14.465315581974012     0.73690180986755083      4.8164105944999998
   261   2      6.3817568744002999      9.5797235282781692      8.1835894054999994
   262   2      6.3817568744002999      9.5797235282781692      4.8164105944999998
   263   2      9.1471848533070954      7.7374690036092897      8.1835894054999994
   264   2      9.1471848533070954      7.7374690036092897      4.8164105944999998
   265   2      11.912612832213892      5.8952144789404111      8.1835894054999994
   266   2      11.912612832213892      5.8952144789404111      4.8164105944999998
   267   2       14.67804081112069      4.0529599542715333      8.1835894054999994
   268   2       14.67804081112069      4.0529599542715333      4.8164105944999998
   269   2      17.443468790027485      2.2107054296026534      8.1835894054999994
   270   2      17.443468790027485      2.2107054296026534      4.8164105944999998
   271   2      20.208896768934281     0.36845090493377364      8.1835894054999994
   272   2      20.208896768934281     0.36845090493377364      4.8164105944999998
   273   2      9.3599100824537711       11.05352714801327      8.1835894054999994
   274   2      9.3599100824537711       11.05352714801327      4.8164105944999998
   275   2      12.125338061360567      9.2112726233443922      8.1835894054999994
   276   2      12.125338061360567      9.2112726233443922      4.8164105944999998
   277   2      14.890766040267364      7.3690180986755127      8.1835894054999994
   278   2      14.890766040267364      7.3690180986755127      4.8164105944999998
   279   2      17.656194019174158      5.5267635740066332      8.1835894054999994
   280   2      17.656194019174158      5.5267635740066332      4.8164105944999998
   281   2      20.421621998080958      3.6845090493377546      8.1835894054999994
   282   2      20.421621998080958      3.6845090493377546      4.8164105944999998
   283   2      23.187049976987751      1.8422545246688753      8.1835894054999994
   284   2      23.187049976987751      1.8422545246688753      4.8164105944999998
   285   2      9.5726353116004503      14.369585292417254      8.1835894054999994
   286   2      9.5726353116004503      14.369585292417254      4.8164105944999998
   287   2      12.338063290507247      12.527330767748374      8.1835894054999994
   288   2      12.338063290507247      12.527330767748374      4.8164105944999998
   289   2      15.103491269414045      10.685076243079497      8.1835894054999994
   290   2      15.103491269414045      10.685076243079497      4.8164105944999998
   291   2      17.868919248320839       8.842821718410617      8.1835894054999994
   292   2      17.868919248320839       8.842821718410617      4.8164105944999998
   293   2      20.634347227227636      7.0005671937417384      8.1835894054999994
   294   2      20.634347227227636      7.0005671937417384      4.8164105944999998
   295   2      23.399775206134432      5.1583126690728616      8.1835894054999994
   296   2      23.399775206134432      5.1583126690728616      4.8164105944999998
   297   2      26.165203185041229      3.3160581444039789      8.1835894054999994
   298   2      26.165203185041229      3.3160581444039789      4.8164105944999998
   299   2      12.550788519653926      15.843388912152358      8.1835894054999994
   300   2      12.550788519653926      15.843388912152358      4.8164105944999998
   301   2      15.316216498560721      14.001134387483479      8.1835894054999994
   302   2      15.316216498560721      14.001134387483479      4.8164105944999998
   303   2      18.081644477467517      12.158879862814601      8.1835894054999994
   304   2      18.081644477467517      12.158879862814601      4.8164105944999998
   305   2      20.847072456374313      10.316625338145721      8.1835894054999994
   306   2      20.847072456374313      10.316625338145721      4.8164105944999998
   307   2       23.61250043528111      8.4743708134768418      8.1835894054999994
   308   2       23.61250043528111      8.4743708134768418      4.8164105944999998
   309   2       26.37792841418791      6.6321162888079632      8.1835894054999994
   310   2       26.37792841418791      6.6321162888079632      4.8164105944999998
   311   2        12.7635137488006      19.159447056556338      8.1835894054999994
   312   2        12.7635137488006      19.159447056556338      4.8164105944999998
   313   2      15.528941727707396      17.317192531887461      8.1835894054999994
   314   2      15.528941727707396      17.317192531887461      4.8164105944999998
   315   2      18.294369706614191      15.474938007218579      8.1835894054999994
   316   2      18.294369706614191      15.474938007218579      4.8164105944999998
   317   2      21.059797685520991      13.632683482549702      8.1835894054999994
   318   2      21.059797685520991      13.632683482549702      4.8164105944999998
   319   2      23.825225664427784      11.790428957880822      8.1835894054999994
   320   2      23.825225664427784      11.790428957880822      4.8164105944999998
   321   2       26.59065364333458      9.9481744332119444      8.1835894054999994
   322   2       26.59065364333458      9.9481744332119444      4.8164105944999998
   323   2       29.35608162224138      8.1059199085430667      8.1835894054999994
   324   2       29.35608162224138      8.1059199085430667      4.8164105944999998
   325   2      12.976238977947277      22.475505200960317      8.1835894054999994
   326   2      12.976238977947277      22.475505200960317      4.8164105944999998
   327   2      15.741666956854072      20.633250676291439      8.1835894054999994
   328   2      15.741666956854072      20.633250676291439      4.8164105944999998
   329   2      18.507094935760868      18.790996151622561      8.1835894054999994
   330   2      18.507094935760868      18.790996151622561      4.8164105944999998
   331   2      21.272522914667665       16.94874162695368      8.1835894054999994
   332   2      21.272522914667665       16.94874162695368      4.8164105944999998
   333   2      24.037950893574461      15.106487102284804      8.1835894054999994
   334   2      24.037950893574461      15.106487102284804      4.8164105944999998
   335   2      26.803378872481254      13.264232577615923      8.1835894054999994
   336   2      26.803378872481254      13.264232577615923      4.8164105944999998
   337   2      29.568806851388054      11.421978052947045      8.1835894054999994
   338   2      29.568806851388054      11.421978052947045      4.8164105944999998
   339   2      18.719820164907542       22.10705429602654      8.1835894054999994
   340   2      18.719820164907542       22.10705429602654      4.8164105944999998
   341   2      21.485248143814339      20.264799771357662      8.1835894054999994
   342   2      21.485248143814339      20.264799771357662      4.8164105944999998
   343   2      24.250676122721135      18.422545246688784      8.1835894054999994
   344   2      24.250676122721135      18.422545246688784      4.8164105944999998
   345   2      27.016104101627931      16.580290722019907      8.1835894054999994
   346   2      27.016104101627931      16.580290722019907      4.8164105944999998
   347   2      29.781532080534728      14.738036197351025      8.1835894054999994
   348   2      29.781532080534728      14.738036197351025      4.8164105944999998
   349   2      32.546960059441524      12.895781672682148      8.1835894054999994
   350   2      32.546960059441524      12.895781672682148      4.8164105944999998
   351   2      24.463401351867819       21.73860339109277      8.1835894054999994
   352   2      24.463401351867819       21.73860339109277      4.8164105944999998
   353   2      27.228829330774616      19.896348866423892      8.1835894054999994
   354   2      27.228829330774616      19.896348866423892      4.8164105944999998
   355   2      29.994257309681409      18.054094341755011      8.1835894054999994
   356   2      29.994257309681409      18.054094341755011      4.8164105944999998
   357   2      32.759685288588209      16.211839817086133      8.1835894054999994
   358   2      32.759685288588209      16.211839817086133      4.8164105944999998
   359   2       30.20698253882809      21.370152486158993      8.1835894054999994
   360   2       30.20698253882809      21.370152486158993      4.8164105944999998
   361   2      32.972410517734879      19.527897961490112      8.1835894054999994
   362   2      32.972410517734879      19.527897961490112      4.8164105944999998
   363   2      35.737838496641679      17.685643436821234      8.1835894054999994
   364   2      35.737838496641679      17.685643436821234      4.8164105944999998
   365   2      35.950563725788349      21.001701581225216      8.1835894054999994
   366   2      35.950563725788349      21.001701581225216      4.8164105944999998
