rigid_bilayers/data_MoSe2_MoSe2_P_6 (written by ASE) 

762 	 atoms 
2  atom types
0.0      37.440864328432333  xlo xhi
0.0      32.424739648068986  ylo yhi
0.0                      30  zlo zhi
    -18.720432164216163                       0                       0  xy xz yz


Atoms 

     1   1     0.88442986602596096      1.7020860707647765                       0
     2   1      3.8325294194458293     0.17020860707647764                       0
     3   1      3.6851244417748363      3.4892764450677913                       0
     4   1      6.6332239951947054      1.9573989813794925                       0
     5   1      9.5813235486145736     0.42552151769119434                       0
     6   1      3.5377194641038452      6.8083442830591068                       0
     7   1      6.4858190175237134      5.2764668193708069                       0
     8   1      9.4339185709435807      3.7445893556825074                       0
     9   1      12.382018124363448      2.2127118919942084                       0
    10   1      15.330117677783317     0.68083442830591134                       0
    11   1      6.3384140398527196       8.595534657362121                       0
    12   1      9.2865135932725877      7.0636571936738211                       0
    13   1      12.234613146692457      5.5317797299855229                       0
    14   1      15.182712700112324      3.9999022662972226                       0
    15   1      18.130812253532191      2.4680248026089244                       0
    16   1       21.07891180695206     0.93614733892062496                       0
    17   1      6.1910090621817258      11.914602495353435                       0
    18   1      9.1391086156015948      10.382725031665135                       0
    19   1      12.087208169021464      8.8508475679768353                       0
    20   1      15.035307722441331      7.3189701042885371                       0
    21   1      17.983407275861197      5.7870926406002372                       0
    22   1      20.931506829281066      4.2552151769119391                       0
    23   1      23.879606382700935      2.7233377132236374                       0
    24   1      26.827705936120804      1.1914602495353386                       0
    25   1      8.9917036379306037      13.701792869656451                       0
    26   1      11.939803191350469      12.169915405968149                       0
    27   1       14.88790274477034      10.638037942279851                       0
    28   1      17.836002298190206      9.1061604785915531                       0
    29   1      20.784101851610075      7.5742830149032532                       0
    30   1       23.73220140502994       6.042405551214955                       0
    31   1      26.680300958449813      4.5105280875266551                       0
    32   1      29.628400511869682      2.9786506238383561                       0
    33   1      32.576500065289551      1.4467731601500604                       0
    34   1       8.844298660259609      17.020860707647763                       0
    35   1      11.792398213679478      15.488983243959465                       0
    36   1      14.740497767099345      13.957105780271164                       0
    37   1      17.688597320519214      12.425228316582865                       0
    38   1       20.63669687393908      10.893350852894567                       0
    39   1      23.584796427358949      9.3614733892062691                       0
    40   1      26.532895980778818       7.829595925517971                       0
    41   1      29.480995534198691      6.2977184618296711                       0
    42   1      32.429095087618556      4.7658409981413685                       0
    43   1      35.377194641038422      3.2339635344530726                       0
    44   1      11.644993236008485      18.808051081950776                       0
    45   1      14.593092789428354      17.276173618262479                       0
    46   1       17.54119234284822      15.744296154574178                       0
    47   1      20.489291896268089      14.212418690885881                       0
    48   1      23.437391449687958      12.680541227197583                       0
    49   1      26.385491003107823      11.148663763509283                       0
    50   1      29.333590556527692      9.6167862998209834                       0
    51   1      32.281690109947561      8.0849088361326835                       0
    52   1      35.229789663367427      6.5530313724443845                       0
    53   1        38.1778892167873      5.0211539087560926                       0
    54   1       11.49758825833749      22.127118919942088                       0
    55   1      14.445687811757359      20.595241456253792                       0
    56   1      17.393787365177229      19.063363992565495                       0
    57   1      20.341886918597094      17.531486528877195                       0
    58   1      23.289986472016963      15.999609065188896                       0
    59   1      26.238086025436832      14.467731601500596                       0
    60   1      29.186185578856698      12.935854137812298                       0
    61   1      32.134285132276567      11.403976674123999                       0
    62   1      35.082384685696439       9.872099210435703                       0
    63   1      38.030484239116305      8.3402217467474014                       0
    64   1      14.298282834086368      23.914309294245108                       0
    65   1      17.246382387506234      22.382431830556808                       0
    66   1      20.194481940926103      20.850554366868508                       0
    67   1      23.142581494345968      19.318676903180208                       0
    68   1      26.090681047765838      17.786799439491912                       0
    69   1      29.038780601185707      16.254921975803612                       0
    70   1      31.986880154605579      14.723044512115317                       0
    71   1      34.934979708025445      13.191167048427015                       0
    72   1       37.88307926144531      11.659289584738715                       0
    73   1      40.831178814865183      10.127412121050417                       0
    74   1      14.150877856415377      27.233377132236424                       0
    75   1      17.098977409835246      25.701499668548124                       0
    76   1      20.047076963255112       24.16962220485982                       0
    77   1      22.995176516674977      22.637744741171524                       0
    78   1      25.943276070094853      21.105867277483227                       0
    79   1      28.891375623514719      19.573989813794931                       0
    80   1      31.839475176934585      18.042112350106628                       0
    81   1      34.787574730354457      16.510234886418331                       0
    82   1      37.735674283774323      14.978357422730031                       0
    83   1      40.683773837194188      13.446479959041731                       0
    84   1      16.951572432164255       29.02056750653944                       0
    85   1      19.899671985584124       27.48869004285114                       0
    86   1      22.847771539003993       25.95681257916284                       0
    87   1      25.795871092423859      24.424935115474543                       0
    88   1      28.743970645843728      22.893057651786243                       0
    89   1      31.692070199263597      21.361180188097947                       0
    90   1      34.640169752683462      19.829302724409644                       0
    91   1      37.588269306103335      18.297425260721347                       0
    92   1      40.536368859523201      16.765547797033047                       0
    93   1      43.484468412943066      15.233670333344747                       0
    94   1      16.804167454493257      32.339635344530748                       0
    95   1      19.752267007913126      30.807757880842452                       0
    96   1      22.700366561332999      29.275880417154156                       0
    97   1      25.648466114752864      27.744002953465852                       0
    98   1       28.59656566817273      26.212125489777556                       0
    99   1      31.544665221592599      24.680248026089256                       0
   100   1      34.492764775012468      23.148370562400959                       0
   101   1       37.44086432843234      21.616493098712656                       0
   102   1      40.388963881852206       20.08461563502436                       0
   103   1      43.337063435272071       18.55273817133606                       0
   104   1      25.501061137081876      31.063070791457172                       0
   105   1      28.449160690501738      29.531193327768868                       0
   106   1      31.397260243921608      27.999315864080572                       0
   107   1       34.34535979734148      26.467438400392272                       0
   108   1      37.293459350761346      24.935560936703975                       0
   109   1      40.241558904181211      23.403683473015672                       0
   110   1      43.189658457601084      21.871806009327376                       0
   111   1      46.137758011020949      20.339928545639079                       0
   112   1      31.249855266250616       31.31838370207188                       0
   113   1      34.197954819670478      29.786506238383584                       0
   114   1      37.146054373090351      28.254628774695284                       0
   115   1      40.094153926510216      26.722751311006988                       0
   116   1      43.042253479930089      25.190873847318688                       0
   117   1      45.990353033349955      23.658996383630388                       0
   118   1      36.998649395419356        31.5736966126866                       0
   119   1      39.946748948839229      30.041819148998304                       0
   120   1      42.894848502259094      28.509941685310004                       0
   121   1      45.842948055678967      26.978064221621704                       0
   122   1      48.791047609098833      25.446186757933404                       0
   123   1      42.747443524588107       31.82900952330132                       0
   124   1      45.695543078007972       30.29713205961302                       0
   125   1      48.643642631427845       28.76525459592472                       0
   126   1      48.496237653756843      32.084322433916029                       0
   127   1      51.444337207176716      30.552444970227729                       0
   128   1      2.9480995534198668      1.5318774636883026                     6.5
   129   1      3.0955045310908567      4.8509453016796167                     6.5
   130   1      5.8961991068397337      3.0637549273766052                     6.5
   131   1      8.6968936825886107      1.2765645530735927                     6.5
   132   1      6.0436040845107231      6.3828227653679193                     6.5
   133   1      8.8442986602596019      4.5956323910649068                     6.5
   134   1      11.644993236008476      2.8084420167618949                     6.5
   135   1      14.445687811757354      1.0212516424588838                     6.5
   136   1      6.1910090621817133      9.7018906033592334                     6.5
   137   1      8.9917036379305912      7.9147002290562218                     6.5
   138   1      11.792398213679467      6.1275098547532103                     6.5
   139   1      14.593092789428345      4.3403194804501979                     6.5
   140   1      17.393787365177221      2.5531291061471855                     6.5
   141   1      20.194481940926099     0.76593873184417527                     6.5
   142   1      9.1391086156015806      11.233768067047537                     6.5
   143   1      11.939803191350457      9.4465776927445244                     6.5
   144   1      14.740497767099335      7.6593873184415129                     6.5
   145   1      17.541192342848213      5.8721969441385022                     6.5
   146   1      20.341886918597091      4.0850065698354889                     6.5
   147   1      23.142581494345965      2.2978161955324778                     6.5
   148   1      25.943276070094843     0.51062582122946509                     6.5
   149   1        9.28651359327257      14.552835905038849                     6.5
   150   1      12.087208169021446      12.765645530735839                     6.5
   151   1      14.887902744770322      10.978455156432824                     6.5
   152   1      17.688597320519204      9.1912647821298137                     6.5
   153   1      20.489291896268082       7.404074407826803                     6.5
   154   1      23.289986472016952      5.6168840335237897                     6.5
   155   1      26.090681047765834      3.8296936592207809                     6.5
   156   1      28.891375623514708      2.0425032849177676                     6.5
   157   1       31.69207019926359     0.25531291061475658                     6.5
   158   1      12.234613146692435      16.084713368727151                     6.5
   159   1      15.035307722441313       14.29752299442414                     6.5
   160   1      17.836002298190191      12.510332620121128                     6.5
   161   1      20.636696873939069      10.723142245818117                     6.5
   162   1      23.437391449687944      8.9359518715151047                     6.5
   163   1      26.238086025436822      7.1487614972120923                     6.5
   164   1      29.038780601185699      5.3615711229090817                     6.5
   165   1      31.839475176934577      3.5743807486060688                     6.5
   166   1      34.640169752683455      1.7871903743030593                     6.5
   167   1      12.382018124363427      19.403781206718467                     6.5
   168   1      15.182712700112305      17.616590832415454                     6.5
   169   1      17.983407275861182      15.829400458112444                     6.5
   170   1      20.784101851610057      14.042210083809431                     6.5
   171   1      23.584796427358935      12.255019709506421                     6.5
   172   1      26.385491003107813      10.467829335203408                     6.5
   173   1      29.186185578856691      8.6806389609003958                     6.5
   174   1      31.986880154605569      6.8934485865973825                     6.5
   175   1      34.787574730354443      5.1062582122943709                     6.5
   176   1      37.588269306103321      3.3190678379913603                     6.5
   177   1      15.330117677783296       20.93565867040677                     6.5
   178   1       18.13081225353217      19.148468296103758                     6.5
   179   1      20.931506829281048      17.361277921800745                     6.5
   180   1      23.732201405029922      15.574087547497733                     6.5
   181   1        26.5328959807788      13.786897173194721                     6.5
   182   1      29.333590556527682       11.99970679889171                     6.5
   183   1       32.13428513227656      10.212516424588699                     6.5
   184   1      34.934979708025431      8.4253260502856868                     6.5
   185   1      37.735674283774308      6.6381356759826735                     6.5
   186   1      15.477522655454283      24.254726508398083                     6.5
   187   1      18.278217231203161      22.467536134095074                     6.5
   188   1      21.078911806952039      20.680345759792058                     6.5
   189   1      23.879606382700914      18.893155385489049                     6.5
   190   1      26.680300958449791      17.105965011186033                     6.5
   191   1      29.480995534198669      15.318774636883026                     6.5
   192   1       32.28169010994754      13.531584262580012                     6.5
   193   1      35.082384685696425      11.744393888277004                     6.5
   194   1      37.883079261445303      9.9572035139739885                     6.5
   195   1      40.683773837194181      8.1700131396709779                     6.5
   196   1      18.425622208874149      25.786603972086386                     6.5
   197   1       21.22631678462303      23.999413597783374                     6.5
   198   1      24.027011360371901      22.212223223480361                     6.5
   199   1      26.827705936120779      20.425032849177349                     6.5
   200   1      29.628400511869661      18.637842474874336                     6.5
   201   1      32.429095087618535      16.850652100571327                     6.5
   202   1      35.229789663367413      15.063461726268313                     6.5
   203   1      38.030484239116298      13.276271351965304                     6.5
   204   1      40.831178814865169      11.489080977662294                     6.5
   205   1       18.57302718654514      29.105671810077698                     6.5
   206   1      21.373721762294021      27.318481435774689                     6.5
   207   1      24.174416338042892      25.531291061471677                     6.5
   208   1       26.97511091379177      23.744100687168665                     6.5
   209   1      29.775805489540645      21.956910312865649                     6.5
   210   1       32.57650006528953      20.169719938562643                     6.5
   211   1      35.377194641038407      18.382529564259627                     6.5
   212   1      38.177889216787278      16.595339189956618                     6.5
   213   1      40.978583792536163      14.808148815653606                     6.5
   214   1      43.779278368285041      13.020958441350595                     6.5
   215   1      18.720432164216131      32.424739648069014                     6.5
   216   1      21.521126739965005      30.637549273765998                     6.5
   217   1      24.321821315713883      28.850358899462993                     6.5
   218   1      27.122515891462761      27.063168525159977                     6.5
   219   1      29.923210467211639      25.275978150856965                     6.5
   220   1       32.72390504296051      23.488787776553952                     6.5
   221   1      35.524599618709395      21.701597402250943                     6.5
   222   1      38.325294194458273      19.914407027947931                     6.5
   223   1      41.125988770207151      18.127216653644918                     6.5
   224   1      43.926683345956029       16.34002627934191                     6.5
   225   1      24.469226293384871      32.169426737454302                     6.5
   226   1      27.269920869133756      30.382236363151293                     6.5
   227   1      30.070615444882627       28.59504598884828                     6.5
   228   1      32.871310020631505      26.807855614545268                     6.5
   229   1      35.672004596380383      25.020665240242256                     6.5
   230   1      38.472699172129261      23.233474865939243                     6.5
   231   1      41.273393747878139      21.446284491636234                     6.5
   232   1      44.074088323627016      19.659094117333218                     6.5
   233   1      46.874782899375887      17.871903743030209                     6.5
   234   1      30.218020422553622        31.9141138268396                     6.5
   235   1      33.018714998302499      30.126923452536584                     6.5
   236   1       35.81940957405137      28.339733078233571                     6.5
   237   1      38.620104149800248      26.552542703930559                     6.5
   238   1      41.420798725549133       24.76535232962755                     6.5
   239   1      44.221493301297997      22.978161955324534                     6.5
   240   1      47.022187877046875      21.190971581021525                     6.5
   241   1      35.966814551722365      31.658800916224887                     6.5
   242   1      38.767509127471243      29.871610541921871                     6.5
   243   1      41.568203703220114      28.084420167618863                     6.5
   244   1      44.368898278968999       26.29722979331585                     6.5
   245   1       47.16959285471787      24.510039419012841                     6.5
   246   1       49.97028743046674      22.722849044709825                     6.5
   247   1      41.715608680891108      31.403488005610175                     6.5
   248   1      44.516303256639986      29.616297631307162                     6.5
   249   1      47.316997832388857      27.829107257004154                     6.5
   250   1      50.117692408137735      26.041916882701141                     6.5
   251   1      47.464402810059845      31.148175094995466                     6.5
   252   1       50.26509738580873      29.360984720692457                     6.5
   253   1      53.065791961557601      27.573794346389441                     6.5
   254   1      53.213196939228595       30.89286218438076                     6.5
   255   2      2.8006945757488757      1.7871903743030153      1.6746279535999999
   256   2      2.8006945757488757      1.7871903743030153     -1.6746279535999999
   257   2      5.7487941291687434     0.25531291061471612      1.6746279535999999
   258   2      5.7487941291687434     0.25531291061471612     -1.6746279535999999
   259   2      5.6013891514977514      3.5743807486060302      1.6746279535999999
   260   2      5.6013891514977514      3.5743807486060302     -1.6746279535999999
   261   2      8.5494887049176196      2.0425032849177307      1.6746279535999999
   262   2      8.5494887049176196      2.0425032849177307     -1.6746279535999999
   263   2      11.497588258337487     0.51062582122943223      1.6746279535999999
   264   2      11.497588258337487     0.51062582122943223     -1.6746279535999999
   265   2      5.4539841738267603      6.8934485865973443      1.6746279535999999
   266   2      5.4539841738267603      6.8934485865973443     -1.6746279535999999
   267   2      8.4020837272466267      5.3615711229090453      1.6746279535999999
   268   2      8.4020837272466267      5.3615711229090453     -1.6746279535999999
   269   2      11.350183280666494      3.8296936592207458      1.6746279535999999
   270   2      11.350183280666494      3.8296936592207458     -1.6746279535999999
   271   2      14.298282834086363      2.2978161955324472      1.6746279535999999
   272   2      14.298282834086363      2.2978161955324472     -1.6746279535999999
   273   2      17.246382387506234     0.76593873184414918      1.6746279535999999
   274   2      17.246382387506234     0.76593873184414918     -1.6746279535999999
   275   2      8.2546787495756337      8.6806389609003585      1.6746279535999999
   276   2      8.2546787495756337      8.6806389609003585     -1.6746279535999999
   277   2      11.202778302995503      7.1487614972120603      1.6746279535999999
   278   2      11.202778302995503      7.1487614972120603     -1.6746279535999999
   279   2       14.15087785641537      5.6168840335237604      1.6746279535999999
   280   2       14.15087785641537      5.6168840335237604     -1.6746279535999999
   281   2      17.098977409835239      4.0850065698354614      1.6746279535999999
   282   2      17.098977409835239      4.0850065698354614     -1.6746279535999999
   283   2      20.047076963255108      2.5531291061471633      1.6746279535999999
   284   2      20.047076963255108      2.5531291061471633     -1.6746279535999999
   285   2      22.995176516674974      1.0212516424588645      1.6746279535999999
   286   2      22.995176516674974      1.0212516424588645     -1.6746279535999999
   287   2      8.1072737719046426      11.999706798891673      1.6746279535999999
   288   2      8.1072737719046426      11.999706798891673     -1.6746279535999999
   289   2       11.05537332532451      10.467829335203373      1.6746279535999999
   290   2       11.05537332532451      10.467829335203373     -1.6746279535999999
   291   2      14.003472878744377      8.9359518715150745      1.6746279535999999
   292   2      14.003472878744377      8.9359518715150745     -1.6746279535999999
   293   2      16.951572432164248      7.4040744078267764      1.6746279535999999
   294   2      16.951572432164248      7.4040744078267764     -1.6746279535999999
   295   2      19.899671985584114      5.8721969441384756      1.6746279535999999
   296   2      19.899671985584114      5.8721969441384756     -1.6746279535999999
   297   2      22.847771539003983      4.3403194804501775      1.6746279535999999
   298   2      22.847771539003983      4.3403194804501775     -1.6746279535999999
   299   2      25.795871092423848      2.8084420167618771      1.6746279535999999
   300   2      25.795871092423848      2.8084420167618771     -1.6746279535999999
   301   2      28.743970645843721      1.2765645530735799      1.6746279535999999
   302   2      28.743970645843721      1.2765645530735799     -1.6746279535999999
   303   2      10.907968347653521      13.786897173194689      1.6746279535999999
   304   2      10.907968347653521      13.786897173194689     -1.6746279535999999
   305   2      13.856067901073386      12.255019709506389      1.6746279535999999
   306   2      13.856067901073386      12.255019709506389     -1.6746279535999999
   307   2      16.804167454493253      10.723142245818091      1.6746279535999999
   308   2      16.804167454493253      10.723142245818091     -1.6746279535999999
   309   2      19.752267007913122      9.1912647821297924      1.6746279535999999
   310   2      19.752267007913122      9.1912647821297924     -1.6746279535999999
   311   2      22.700366561332988      7.6593873184414916      1.6746279535999999
   312   2      22.700366561332988      7.6593873184414916     -1.6746279535999999
   313   2      25.648466114752857      6.1275098547531952      1.6746279535999999
   314   2      25.648466114752857      6.1275098547531952     -1.6746279535999999
   315   2      28.596565668172726      4.5956323910648944      1.6746279535999999
   316   2      28.596565668172726      4.5956323910648944     -1.6746279535999999
   317   2      31.544665221592599      3.0637549273765958      1.6746279535999999
   318   2      31.544665221592599      3.0637549273765958     -1.6746279535999999
   319   2      34.492764775012468      1.5318774636882984      1.6746279535999999
   320   2      34.492764775012468      1.5318774636882984     -1.6746279535999999
   321   2      10.760563369982524      17.105965011186001      1.6746279535999999
   322   2      10.760563369982524      17.105965011186001     -1.6746279535999999
   323   2      13.708662923402393      15.574087547497703      1.6746279535999999
   324   2      13.708662923402393      15.574087547497703     -1.6746279535999999
   325   2      16.656762476822262      14.042210083809403      1.6746279535999999
   326   2      16.656762476822262      14.042210083809403     -1.6746279535999999
   327   2      19.604862030242128      12.510332620121105      1.6746279535999999
   328   2      19.604862030242128      12.510332620121105     -1.6746279535999999
   329   2      22.552961583661997      10.978455156432808      1.6746279535999999
   330   2      22.552961583661997      10.978455156432808     -1.6746279535999999
   331   2      25.501061137081866      9.4465776927445084      1.6746279535999999
   332   2      25.501061137081866      9.4465776927445084     -1.6746279535999999
   333   2      28.449160690501735      7.9147002290562094      1.6746279535999999
   334   2      28.449160690501735      7.9147002290562094     -1.6746279535999999
   335   2      31.397260243921604      6.3828227653679104      1.6746279535999999
   336   2      31.397260243921604      6.3828227653679104     -1.6746279535999999
   337   2      34.345359797341466      4.8509453016796078      1.6746279535999999
   338   2      34.345359797341466      4.8509453016796078     -1.6746279535999999
   339   2      37.293459350761339       3.319067837991311      1.6746279535999999
   340   2      37.293459350761339       3.319067837991311     -1.6746279535999999
   341   2        13.5612579457314      18.893155385489017      1.6746279535999999
   342   2        13.5612579457314      18.893155385489017     -1.6746279535999999
   343   2      16.509357499151267      17.361277921800717      1.6746279535999999
   344   2      16.509357499151267      17.361277921800717     -1.6746279535999999
   345   2      19.457457052571137      15.829400458112419      1.6746279535999999
   346   2      19.457457052571137      15.829400458112419     -1.6746279535999999
   347   2      22.405556605991006      14.297522994424121      1.6746279535999999
   348   2      22.405556605991006      14.297522994424121     -1.6746279535999999
   349   2      25.353656159410875      12.765645530735823      1.6746279535999999
   350   2      25.353656159410875      12.765645530735823     -1.6746279535999999
   351   2       28.30175571283074      11.233768067047521      1.6746279535999999
   352   2       28.30175571283074      11.233768067047521     -1.6746279535999999
   353   2      31.249855266250606      9.7018906033592227      1.6746279535999999
   354   2      31.249855266250606      9.7018906033592227     -1.6746279535999999
   355   2      34.197954819670478      8.1700131396709228      1.6746279535999999
   356   2      34.197954819670478      8.1700131396709228     -1.6746279535999999
   357   2      37.146054373090344      6.6381356759826238      1.6746279535999999
   358   2      37.146054373090344      6.6381356759826238     -1.6746279535999999
   359   2      40.094153926510216      5.1062582122943265      1.6746279535999999
   360   2      40.094153926510216      5.1062582122943265     -1.6746279535999999
   361   2      13.413852968060406      22.212223223480329      1.6746279535999999
   362   2      13.413852968060406      22.212223223480329     -1.6746279535999999
   363   2      16.361952521480276      20.680345759792033      1.6746279535999999
   364   2      16.361952521480276      20.680345759792033     -1.6746279535999999
   365   2      19.310052074900145      19.148468296103733      1.6746279535999999
   366   2      19.310052074900145      19.148468296103733     -1.6746279535999999
   367   2      22.258151628320011      17.616590832415433      1.6746279535999999
   368   2      22.258151628320011      17.616590832415433     -1.6746279535999999
   369   2       25.20625118173988      16.084713368727133      1.6746279535999999
   370   2       25.20625118173988      16.084713368727133     -1.6746279535999999
   371   2      28.154350735159746      14.552835905038835      1.6746279535999999
   372   2      28.154350735159746      14.552835905038835     -1.6746279535999999
   373   2      31.102450288579615      13.020958441350537      1.6746279535999999
   374   2      31.102450288579615      13.020958441350537     -1.6746279535999999
   375   2      34.050549841999484      11.489080977662239      1.6746279535999999
   376   2      34.050549841999484      11.489080977662239     -1.6746279535999999
   377   2      36.998649395419356      9.9572035139739388      1.6746279535999999
   378   2      36.998649395419356      9.9572035139739388     -1.6746279535999999
   379   2      39.946748948839222      8.4253260502856406      1.6746279535999999
   380   2      39.946748948839222      8.4253260502856406     -1.6746279535999999
   381   2      16.214547543809285      23.999413597783345      1.6746279535999999
   382   2      16.214547543809285      23.999413597783345     -1.6746279535999999
   383   2      19.162647097229151      22.467536134095045      1.6746279535999999
   384   2      19.162647097229151      22.467536134095045     -1.6746279535999999
   385   2       22.11074665064902      20.935658670406745      1.6746279535999999
   386   2       22.11074665064902      20.935658670406745     -1.6746279535999999
   387   2      25.058846204068885      19.403781206718449      1.6746279535999999
   388   2      25.058846204068885      19.403781206718449     -1.6746279535999999
   389   2      28.006945757488754      17.871903743030149      1.6746279535999999
   390   2      28.006945757488754      17.871903743030149     -1.6746279535999999
   391   2       30.95504531090862      16.340026279341849      1.6746279535999999
   392   2       30.95504531090862      16.340026279341849     -1.6746279535999999
   393   2      33.903144864328496      14.808148815653553      1.6746279535999999
   394   2      33.903144864328496      14.808148815653553     -1.6746279535999999
   395   2      36.851244417748362      13.276271351965255      1.6746279535999999
   396   2      36.851244417748362      13.276271351965255     -1.6746279535999999
   397   2      39.799343971168227      11.744393888276951      1.6746279535999999
   398   2      39.799343971168227      11.744393888276951     -1.6746279535999999
   399   2        42.7474435245881      10.212516424588657      1.6746279535999999
   400   2        42.7474435245881      10.212516424588657     -1.6746279535999999
   401   2      16.067142566138291      27.318481435774661      1.6746279535999999
   402   2      16.067142566138291      27.318481435774661     -1.6746279535999999
   403   2      19.015242119558163      25.786603972086361      1.6746279535999999
   404   2      19.015242119558163      25.786603972086361     -1.6746279535999999
   405   2      21.963341672978025      24.254726508398061      1.6746279535999999
   406   2      21.963341672978025      24.254726508398061     -1.6746279535999999
   407   2      24.911441226397894      22.722849044709761      1.6746279535999999
   408   2      24.911441226397894      22.722849044709761     -1.6746279535999999
   409   2      27.859540779817767      21.190971581021468      1.6746279535999999
   410   2      27.859540779817767      21.190971581021468     -1.6746279535999999
   411   2      30.807640333237632      19.659094117333165      1.6746279535999999
   412   2      30.807640333237632      19.659094117333165     -1.6746279535999999
   413   2      33.755739886657501      18.127216653644865      1.6746279535999999
   414   2      33.755739886657501      18.127216653644865     -1.6746279535999999
   415   2      36.703839440077367      16.595339189956569      1.6746279535999999
   416   2      36.703839440077367      16.595339189956569     -1.6746279535999999
   417   2      39.651938993497239      15.063461726268271      1.6746279535999999
   418   2      39.651938993497239      15.063461726268271     -1.6746279535999999
   419   2      42.600038546917105      13.531584262579967      1.6746279535999999
   420   2      42.600038546917105      13.531584262579967     -1.6746279535999999
   421   2      18.867837141887168      29.105671810077677      1.6746279535999999
   422   2      18.867837141887168      29.105671810077677     -1.6746279535999999
   423   2      21.815936695307041      27.573794346389377      1.6746279535999999
   424   2      21.815936695307041      27.573794346389377     -1.6746279535999999
   425   2      24.764036248726907      26.041916882701081      1.6746279535999999
   426   2      24.764036248726907      26.041916882701081     -1.6746279535999999
   427   2      27.712135802146772      24.510039419012777      1.6746279535999999
   428   2      27.712135802146772      24.510039419012777     -1.6746279535999999
   429   2      30.660235355566645      22.978161955324484      1.6746279535999999
   430   2      30.660235355566645      22.978161955324484     -1.6746279535999999
   431   2      33.608334908986507      21.446284491636181      1.6746279535999999
   432   2      33.608334908986507      21.446284491636181     -1.6746279535999999
   433   2      36.556434462406379      19.914407027947881      1.6746279535999999
   434   2      36.556434462406379      19.914407027947881     -1.6746279535999999
   435   2      39.504534015826245      18.382529564259585      1.6746279535999999
   436   2      39.504534015826245      18.382529564259585     -1.6746279535999999
   437   2      42.452633569246117      16.850652100571285      1.6746279535999999
   438   2      42.452633569246117      16.850652100571285     -1.6746279535999999
   439   2      45.400733122665976      15.318774636882983      1.6746279535999999
   440   2      45.400733122665976      15.318774636882983     -1.6746279535999999
   441   2       18.72043216421617      32.424739648068986      1.6746279535999999
   442   2       18.72043216421617      32.424739648068986     -1.6746279535999999
   443   2      21.668531717636036      30.892862184380689      1.6746279535999999
   444   2      21.668531717636036      30.892862184380689     -1.6746279535999999
   445   2      24.616631271055912       29.36098472069239      1.6746279535999999
   446   2      24.616631271055912       29.36098472069239     -1.6746279535999999
   447   2      27.564730824475777      27.829107257004093      1.6746279535999999
   448   2      27.564730824475777      27.829107257004093     -1.6746279535999999
   449   2      30.512830377895646       26.29722979331579      1.6746279535999999
   450   2      30.512830377895646       26.29722979331579     -1.6746279535999999
   451   2      33.460929931315512      24.765352329627497      1.6746279535999999
   452   2      33.460929931315512      24.765352329627497     -1.6746279535999999
   453   2      36.409029484735385      23.233474865939193      1.6746279535999999
   454   2      36.409029484735385      23.233474865939193     -1.6746279535999999
   455   2       39.35712903815525      21.701597402250894      1.6746279535999999
   456   2       39.35712903815525      21.701597402250894     -1.6746279535999999
   457   2      42.305228591575116      20.169719938562597      1.6746279535999999
   458   2      42.305228591575116      20.169719938562597     -1.6746279535999999
   459   2      45.253328144994988      18.637842474874297      1.6746279535999999
   460   2      45.253328144994988      18.637842474874297     -1.6746279535999999
   461   2      27.417325846804786      31.148175094995405      1.6746279535999999
   462   2      27.417325846804786      31.148175094995405     -1.6746279535999999
   463   2      30.365425400224655      29.616297631307109      1.6746279535999999
   464   2      30.365425400224655      29.616297631307109     -1.6746279535999999
   465   2      33.313524953644524      28.084420167618806      1.6746279535999999
   466   2      33.313524953644524      28.084420167618806     -1.6746279535999999
   467   2       36.26162450706439      26.552542703930513      1.6746279535999999
   468   2       36.26162450706439      26.552542703930513     -1.6746279535999999
   469   2      39.209724060484255      25.020665240242209      1.6746279535999999
   470   2      39.209724060484255      25.020665240242209     -1.6746279535999999
   471   2      42.157823613904128      23.488787776553909      1.6746279535999999
   472   2      42.157823613904128      23.488787776553909     -1.6746279535999999
   473   2      45.105923167323994      21.956910312865617      1.6746279535999999
   474   2      45.105923167323994      21.956910312865617     -1.6746279535999999
   475   2      48.054022720743866      20.425032849177313      1.6746279535999999
   476   2      48.054022720743866      20.425032849177313     -1.6746279535999999
   477   2      33.166119975973523      31.403488005610122      1.6746279535999999
   478   2      33.166119975973523      31.403488005610122     -1.6746279535999999
   479   2      36.114219529393395      29.871610541921818      1.6746279535999999
   480   2      36.114219529393395      29.871610541921818     -1.6746279535999999
   481   2      39.062319082813261      28.339733078233525      1.6746279535999999
   482   2      39.062319082813261      28.339733078233525     -1.6746279535999999
   483   2      42.010418636233133      26.807855614545225      1.6746279535999999
   484   2      42.010418636233133      26.807855614545225     -1.6746279535999999
   485   2      44.958518189652999      25.275978150856922      1.6746279535999999
   486   2      44.958518189652999      25.275978150856922     -1.6746279535999999
   487   2      47.906617743072871      23.744100687168629      1.6746279535999999
   488   2      47.906617743072871      23.744100687168629     -1.6746279535999999
   489   2      38.914914105142273      31.658800916224838      1.6746279535999999
   490   2      38.914914105142273      31.658800916224838     -1.6746279535999999
   491   2      41.863013658562139      30.126923452536541      1.6746279535999999
   492   2      41.863013658562139      30.126923452536541     -1.6746279535999999
   493   2      44.811113211982011      28.595045988848241      1.6746279535999999
   494   2      44.811113211982011      28.595045988848241     -1.6746279535999999
   495   2      47.759212765401877      27.063168525159938      1.6746279535999999
   496   2      47.759212765401877      27.063168525159938     -1.6746279535999999
   497   2      50.707312318821749      25.531291061471645      1.6746279535999999
   498   2      50.707312318821749      25.531291061471645     -1.6746279535999999
   499   2      44.663708234311017      31.914113826839557      1.6746279535999999
   500   2      44.663708234311017      31.914113826839557     -1.6746279535999999
   501   2      47.611807787730889      30.382236363151257      1.6746279535999999
   502   2      47.611807787730889      30.382236363151257     -1.6746279535999999
   503   2      50.559907341150755      28.850358899462954      1.6746279535999999
   504   2      50.559907341150755      28.850358899462954     -1.6746279535999999
   505   2       50.41250236347976      32.169426737454266      1.6746279535999999
   506   2       50.41250236347976      32.169426737454266     -1.6746279535999999
   507   2      53.360601916899626       30.63754927376597      1.6746279535999999
   508   2      53.360601916899626       30.63754927376597     -1.6746279535999999
   509   2       4.787179766960727      1.5677284891945689      8.1746279535999999
   510   2       4.787179766960727      1.5677284891945689      4.8253720464000001
   511   2      4.9345847446317173      4.8867963271858832      8.1746279535999999
   512   2      4.9345847446317173      4.8867963271858832      4.8253720464000001
   513   2      7.7352793203805934      3.0996059528828712      8.1746279535999999
   514   2      7.7352793203805934      3.0996059528828712      4.8253720464000001
   515   2      10.535973896129471      1.3124155785798592      8.1746279535999999
   516   2      10.535973896129471      1.3124155785798592      4.8253720464000001
   517   2      7.8826842980515837      6.4186737908741858      8.1746279535999999
   518   2      7.8826842980515837      6.4186737908741858      4.8253720464000001
   519   2      10.683378873800461      4.6314834165711734      8.1746279535999999
   520   2      10.683378873800461      4.6314834165711734      4.8253720464000001
   521   2      13.484073449549339      2.8442930422681618      8.1746279535999999
   522   2      13.484073449549339      2.8442930422681618      4.8253720464000001
   523   2      16.284768025298217      1.0571026679651498      8.1746279535999999
   524   2      16.284768025298217      1.0571026679651498      4.8253720464000001
   525   2      8.0300892757225739      9.7377416288654999      8.1746279535999999
   526   2      8.0300892757225739      9.7377416288654999      4.8253720464000001
   527   2       10.83078385147145      7.9505512545624883      8.1746279535999999
   528   2       10.83078385147145      7.9505512545624883      4.8253720464000001
   529   2      13.631478427220328      6.1633608802594759      8.1746279535999999
   530   2      13.631478427220328      6.1633608802594759      4.8253720464000001
   531   2      16.432173002969204      4.3761705059564644      8.1746279535999999
   532   2      16.432173002969204      4.3761705059564644      4.8253720464000001
   533   2      19.232867578718082      2.5889801316534515      8.1746279535999999
   534   2      19.232867578718082      2.5889801316534515      4.8253720464000001
   535   2       22.03356215446696     0.80178975735044378      8.1746279535999999
   536   2       22.03356215446696     0.80178975735044378      4.8253720464000001
   537   2      10.978188829142441      11.269619092553802      8.1746279535999999
   538   2      10.978188829142441      11.269619092553802      4.8253720464000001
   539   2      13.778883404891317      9.4824287182507909      8.1746279535999999
   540   2      13.778883404891317      9.4824287182507909      4.8253720464000001
   541   2      16.579577980640195      7.6952383439477794      8.1746279535999999
   542   2      16.579577980640195      7.6952383439477794      4.8253720464000001
   543   2      19.380272556389073      5.9080479696447661      8.1746279535999999
   544   2      19.380272556389073      5.9080479696447661      4.8253720464000001
   545   2      22.180967132137948      4.1208575953417537      8.1746279535999999
   546   2      22.180967132137948      4.1208575953417537      4.8253720464000001
   547   2      24.981661707886829      2.3336672210387448      8.1746279535999999
   548   2      24.981661707886829      2.3336672210387448      4.8253720464000001
   549   2      27.782356283635703      0.5464768467357336      8.1746279535999999
   550   2      27.782356283635703      0.5464768467357336      4.8253720464000001
   551   2      11.125593806813431      14.588686930545117      8.1746279535999999
   552   2      11.125593806813431      14.588686930545117      4.8253720464000001
   553   2      13.926288382562307      12.801496556242105      8.1746279535999999
   554   2      13.926288382562307      12.801496556242105      4.8253720464000001
   555   2      16.726982958311183      11.014306181939091      8.1746279535999999
   556   2      16.726982958311183      11.014306181939091      4.8253720464000001
   557   2      19.527677534060061       9.227115807636082      8.1746279535999999
   558   2      19.527677534060061       9.227115807636082      4.8253720464000001
   559   2      22.328372109808939      7.4399254333330687      8.1746279535999999
   560   2      22.328372109808939      7.4399254333330687      4.8253720464000001
   561   2      25.129066685557813      5.6527350590300571      8.1746279535999999
   562   2      25.129066685557813      5.6527350590300571      4.8253720464000001
   563   2      27.929761261306695      3.8655446847270474      8.1746279535999999
   564   2      27.929761261306695      3.8655446847270474      4.8253720464000001
   565   2      30.730455837055572      2.0783543104240345      8.1746279535999999
   566   2      30.730455837055572      2.0783543104240345      4.8253720464000001
   567   2      33.531150412804443     0.29116393612102009      8.1746279535999999
   568   2      33.531150412804443     0.29116393612102009      4.8253720464000001
   569   2        14.0736933602333      16.120564394233419      8.1746279535999999
   570   2        14.0736933602333      16.120564394233419      4.8253720464000001
   571   2      16.874387935982174      14.333374019930405      8.1746279535999999
   572   2      16.874387935982174      14.333374019930405      4.8253720464000001
   573   2      19.675082511731052      12.546183645627393      8.1746279535999999
   574   2      19.675082511731052      12.546183645627393      4.8253720464000001
   575   2       22.47577708747993      10.758993271324385      8.1746279535999999
   576   2       22.47577708747993      10.758993271324385      4.8253720464000001
   577   2      25.276471663228804      8.9718028970213712      8.1746279535999999
   578   2      25.276471663228804      8.9718028970213712      4.8253720464000001
   579   2      28.077166238977682      7.1846125227183597      8.1746279535999999
   580   2      28.077166238977682      7.1846125227183597      4.8253720464000001
   581   2      30.877860814726564        5.39742214841535      8.1746279535999999
   582   2      30.877860814726564        5.39742214841535      4.8253720464000001
   583   2      33.678555390475438      3.6102317741123371      8.1746279535999999
   584   2      33.678555390475438      3.6102317741123371      4.8253720464000001
   585   2      36.479249966224316      1.8230413998093244      8.1746279535999999
   586   2      36.479249966224316      1.8230413998093244      4.8253720464000001
   587   2      14.221098337904291      19.439632232224735      8.1746279535999999
   588   2      14.221098337904291      19.439632232224735      4.8253720464000001
   589   2      17.021792913653165      17.652441857921719      8.1746279535999999
   590   2      17.021792913653165      17.652441857921719      4.8253720464000001
   591   2       19.82248748940204      15.865251483618708      8.1746279535999999
   592   2       19.82248748940204      15.865251483618708      4.8253720464000001
   593   2      22.623182065150914      14.078061109315696      8.1746279535999999
   594   2      22.623182065150914      14.078061109315696      4.8253720464000001
   595   2      25.423876640899795      12.290870735012685      8.1746279535999999
   596   2      25.423876640899795      12.290870735012685      4.8253720464000001
   597   2      28.224571216648673      10.503680360709673      8.1746279535999999
   598   2      28.224571216648673      10.503680360709673      4.8253720464000001
   599   2      31.025265792397548      8.7164899864066605      8.1746279535999999
   600   2      31.025265792397548      8.7164899864066605      4.8253720464000001
   601   2      33.825960368146426      6.9292996121036525      8.1746279535999999
   602   2      33.825960368146426      6.9292996121036525      4.8253720464000001
   603   2      36.626654943895304      5.1421092378006383      8.1746279535999999
   604   2      36.626654943895304      5.1421092378006383      4.8253720464000001
   605   2      39.427349519644181      3.3549188634976255      8.1746279535999999
   606   2      39.427349519644181      3.3549188634976255      4.8253720464000001
   607   2      17.169197891324153      20.971509695913038      8.1746279535999999
   608   2      17.169197891324153      20.971509695913038      4.8253720464000001
   609   2      19.969892467073034      19.184319321610023      8.1746279535999999
   610   2      19.969892467073034      19.184319321610023      4.8253720464000001
   611   2      22.770587042821905       17.39712894730701      8.1746279535999999
   612   2      22.770587042821905       17.39712894730701      4.8253720464000001
   613   2      25.571281618570783      15.609938573003998      8.1746279535999999
   614   2      25.571281618570783      15.609938573003998      4.8253720464000001
   615   2      28.371976194319664      13.822748198700991      8.1746279535999999
   616   2      28.371976194319664      13.822748198700991      4.8253720464000001
   617   2      31.172670770068539      12.035557824397976      8.1746279535999999
   618   2      31.172670770068539      12.035557824397976      4.8253720464000001
   619   2       33.97336534581742      10.248367450094969      8.1746279535999999
   620   2       33.97336534581742      10.248367450094969      4.8253720464000001
   621   2      36.774059921566298      8.4611770757919533      8.1746279535999999
   622   2      36.774059921566298      8.4611770757919533      4.8253720464000001
   623   2      39.574754497315169      6.6739867014889445      8.1746279535999999
   624   2      39.574754497315169      6.6739867014889445      4.8253720464000001
   625   2      17.316602868995144      24.290577533904347      8.1746279535999999
   626   2      17.316602868995144      24.290577533904347      4.8253720464000001
   627   2      20.117297444744022      22.503387159601338      8.1746279535999999
   628   2      20.117297444744022      22.503387159601338      4.8253720464000001
   629   2      22.917992020492896      20.716196785298326      8.1746279535999999
   630   2      22.917992020492896      20.716196785298326      4.8253720464000001
   631   2      25.718686596241774      18.929006410995314      8.1746279535999999
   632   2      25.718686596241774      18.929006410995314      4.8253720464000001
   633   2      28.519381171990648      17.141816036692301      8.1746279535999999
   634   2      28.519381171990648      17.141816036692301      4.8253720464000001
   635   2       31.32007574773953      15.354625662389292      8.1746279535999999
   636   2       31.32007574773953      15.354625662389292      4.8253720464000001
   637   2      34.120770323488408      13.567435288086276      8.1746279535999999
   638   2      34.120770323488408      13.567435288086276      4.8253720464000001
   639   2      36.921464899237286      11.780244913783271      8.1746279535999999
   640   2      36.921464899237286      11.780244913783271      4.8253720464000001
   641   2      39.722159474986164      9.9930545394802586      8.1746279535999999
   642   2      39.722159474986164      9.9930545394802586      4.8253720464000001
   643   2      42.522854050735035      8.2058641651772444      8.1746279535999999
   644   2      42.522854050735035      8.2058641651772444      4.8253720464000001
   645   2      20.264702422415006      25.822454997592651      8.1746279535999999
   646   2      20.264702422415006      25.822454997592651      4.8253720464000001
   647   2      23.065396998163887      24.035264623289642      8.1746279535999999
   648   2      23.065396998163887      24.035264623289642      4.8253720464000001
   649   2      25.866091573912765      22.248074248986629      8.1746279535999999
   650   2      25.866091573912765      22.248074248986629      4.8253720464000001
   651   2       28.66678614966164      20.460883874683617      8.1746279535999999
   652   2       28.66678614966164      20.460883874683617      4.8253720464000001
   653   2      31.467480725410525      18.673693500380608      8.1746279535999999
   654   2      31.467480725410525      18.673693500380608      4.8253720464000001
   655   2      34.268175301159403      16.886503126077592      8.1746279535999999
   656   2      34.268175301159403      16.886503126077592      4.8253720464000001
   657   2      37.068869876908273      15.099312751774582      8.1746279535999999
   658   2      37.068869876908273      15.099312751774582      4.8253720464000001
   659   2      39.869564452657158      13.312122377471571      8.1746279535999999
   660   2      39.869564452657158      13.312122377471571      4.8253720464000001
   661   2      42.670259028406029       11.52493200316856      8.1746279535999999
   662   2      42.670259028406029       11.52493200316856      4.8253720464000001
   663   2      20.412107400085997      29.141522835583967      8.1746279535999999
   664   2      20.412107400085997      29.141522835583967      4.8253720464000001
   665   2      23.212801975834878      27.354332461280958      8.1746279535999999
   666   2      23.212801975834878      27.354332461280958      4.8253720464000001
   667   2      26.013496551583756      25.567142086977942      8.1746279535999999
   668   2      26.013496551583756      25.567142086977942      4.8253720464000001
   669   2      28.814191127332631      23.779951712674929      8.1746279535999999
   670   2      28.814191127332631      23.779951712674929      4.8253720464000001
   671   2      31.614885703081505      21.992761338371917      8.1746279535999999
   672   2      31.614885703081505      21.992761338371917      4.8253720464000001
   673   2       34.41558027883039      20.205570964068908      8.1746279535999999
   674   2       34.41558027883039      20.205570964068908      4.8253720464000001
   675   2      37.216274854579268      18.418380589765899      8.1746279535999999
   676   2      37.216274854579268      18.418380589765899      4.8253720464000001
   677   2      40.016969430328146      16.631190215462883      8.1746279535999999
   678   2      40.016969430328146      16.631190215462883      4.8253720464000001
   679   2      42.817664006077017      14.843999841159876      8.1746279535999999
   680   2      42.817664006077017      14.843999841159876      4.8253720464000001
   681   2      45.618358581825895      13.056809466856862      8.1746279535999999
   682   2      45.618358581825895      13.056809466856862      4.8253720464000001
   683   2      20.559512377756992      32.460590673575275      8.1746279535999999
   684   2      20.559512377756992      32.460590673575275      4.8253720464000001
   685   2      23.360206953505866       30.67340029927227      8.1746279535999999
   686   2      23.360206953505866       30.67340029927227      4.8253720464000001
   687   2      26.160901529254748      28.886209924969258      8.1746279535999999
   688   2      26.160901529254748      28.886209924969258      4.8253720464000001
   689   2      28.961596105003622      27.099019550666245      8.1746279535999999
   690   2      28.961596105003622      27.099019550666245      4.8253720464000001
   691   2        31.7622906807525      25.311829176363233      8.1746279535999999
   692   2        31.7622906807525      25.311829176363233      4.8253720464000001
   693   2      34.562985256501378       23.52463880206022      8.1746279535999999
   694   2      34.562985256501378       23.52463880206022      4.8253720464000001
   695   2      37.363679832250256      21.737448427757212      8.1746279535999999
   696   2      37.363679832250256      21.737448427757212      4.8253720464000001
   697   2      40.164374407999134      19.950258053454199      8.1746279535999999
   698   2      40.164374407999134      19.950258053454199      4.8253720464000001
   699   2      42.965068983748012      18.163067679151183      8.1746279535999999
   700   2      42.965068983748012      18.163067679151183      4.8253720464000001
   701   2      45.765763559496882      16.375877304848178      8.1746279535999999
   702   2      45.765763559496882      16.375877304848178      4.8253720464000001
   703   2      26.308306506925732       32.20527776296057      8.1746279535999999
   704   2      26.308306506925732       32.20527776296057      4.8253720464000001
   705   2      29.109001082674617      30.418087388657565      8.1746279535999999
   706   2      29.109001082674617      30.418087388657565      4.8253720464000001
   707   2      31.909695658423495      28.630897014354549      8.1746279535999999
   708   2      31.909695658423495      28.630897014354549      4.8253720464000001
   709   2      34.710390234172365      26.843706640051536      8.1746279535999999
   710   2      34.710390234172365      26.843706640051536      4.8253720464000001
   711   2      37.511084809921243       25.05651626574852      8.1746279535999999
   712   2      37.511084809921243       25.05651626574852      4.8253720464000001
   713   2      40.311779385670128      23.269325891445515      8.1746279535999999
   714   2      40.311779385670128      23.269325891445515      4.8253720464000001
   715   2      43.112473961418999      21.482135517142499      8.1746279535999999
   716   2      43.112473961418999      21.482135517142499      4.8253720464000001
   717   2       45.91316853716787       19.69494514283949      8.1746279535999999
   718   2       45.91316853716787       19.69494514283949      4.8253720464000001
   719   2      48.713863112916755      17.907754768536478      8.1746279535999999
   720   2      48.713863112916755      17.907754768536478      4.8253720464000001
   721   2      32.057100636094482      31.949964852345865      8.1746279535999999
   722   2      32.057100636094482      31.949964852345865      4.8253720464000001
   723   2       34.85779521184336      30.162774478042849      8.1746279535999999
   724   2       34.85779521184336      30.162774478042849      4.8253720464000001
   725   2      37.658489787592238       28.37558410373984      8.1746279535999999
   726   2      37.658489787592238       28.37558410373984      4.8253720464000001
   727   2      40.459184363341109      26.588393729436827      8.1746279535999999
   728   2      40.459184363341109      26.588393729436827      4.8253720464000001
   729   2      43.259878939089987      24.801203355133815      8.1746279535999999
   730   2      43.259878939089987      24.801203355133815      4.8253720464000001
   731   2      46.060573514838865      23.014012980830806      8.1746279535999999
   732   2      46.060573514838865      23.014012980830806      4.8253720464000001
   733   2      48.861268090587735       21.22682260652779      8.1746279535999999
   734   2      48.861268090587735       21.22682260652779      4.8253720464000001
   735   2      37.805894765263226      31.694651941731152      8.1746279535999999
   736   2      37.805894765263226      31.694651941731152      4.8253720464000001
   737   2      40.606589341012103       29.90746156742814      8.1746279535999999
   738   2      40.606589341012103       29.90746156742814      4.8253720464000001
   739   2      43.407283916760974      28.120271193125127      8.1746279535999999
   740   2      43.407283916760974      28.120271193125127      4.8253720464000001
   741   2      46.207978492509852      26.333080818822118      8.1746279535999999
   742   2      46.207978492509852      26.333080818822118      4.8253720464000001
   743   2       49.00867306825873      24.545890444519106      8.1746279535999999
   744   2       49.00867306825873      24.545890444519106      4.8253720464000001
   745   2      51.809367644007608      22.758700070216094      8.1746279535999999
   746   2      51.809367644007608      22.758700070216094      4.8253720464000001
   747   2      43.554688894431962      31.439339031116443      8.1746279535999999
   748   2      43.554688894431962      31.439339031116443      4.8253720464000001
   749   2       46.35538347018084      29.652148656813431      8.1746279535999999
   750   2       46.35538347018084      29.652148656813431      4.8253720464000001
   751   2      49.156078045929725      27.864958282510422      8.1746279535999999
   752   2      49.156078045929725      27.864958282510422      4.8253720464000001
   753   2      51.956772621678596      26.077767908207406      8.1746279535999999
   754   2      51.956772621678596      26.077767908207406      4.8253720464000001
   755   2      49.303483023600705      31.184026120501734      8.1746279535999999
   756   2      49.303483023600705      31.184026120501734      4.8253720464000001
   757   2       52.10417759934959      29.396835746198722      8.1746279535999999
   758   2       52.10417759934959      29.396835746198722      4.8253720464000001
   759   2      54.904872175098468      27.609645371895709      8.1746279535999999
   760   2      54.904872175098468      27.609645371895709      4.8253720464000001
   761   2      55.052277152769456      30.928713209887029      8.1746279535999999
   762   2      55.052277152769456      30.928713209887029      4.8253720464000001
