rigid_bilayers/data_MoS2_MoS2_AP_7 (written by ASE) 

1014 	 atoms 
2  atom types
0.0      41.421971942000006  xlo xhi
0.0       35.87247997661823  ylo yhi
0.0                      30  zlo zhi
     20.710985970999985                       0                       0  xy xz yz


Atoms 

     1   1     0.85785148992307669      1.6273511626473756                       0
     2   1      3.6765063853846138     0.14150879675194505                       0
     3   1      3.5539561725384599      3.3254567236707238                       0
     4   1      6.3726110679999977      1.8396143577752935                       0
     5   1      9.1912659634615341     0.35377199187986264                       0
     6   1      3.4314059596923059      6.5094046505895022                       0
     7   1      6.2500608551538432      5.0235622846940711                       0
     8   1      9.0687157506153806      3.5377199187986412                       0
     9   1      11.887370646076919      2.0518775529032123                       0
    10   1      14.706025541538457      0.5660351870077811                       0
    11   1      6.1275106423076915      8.2075102116128509                       0
    12   1      8.9461655377692271      6.7216678457174206                       0
    13   1      11.764820433230765      5.2358254798219894                       0
    14   1      14.583475328692304        3.74998311392656                       0
    15   1       17.40213022415384      2.2641407480311297                       0
    16   1      20.220785119615378     0.77829838213569791                       0
    17   1      6.0049604294615362      11.391458138531631                       0
    18   1      8.8236153249230735      9.9056157726361995                       0
    19   1      11.642270220384612      8.4197734067407684                       0
    20   1      14.460925115846148      6.9339310408453381                       0
    21   1      17.279580011307687      5.4480886749499078                       0
    22   1      20.098234906769221      3.9622463090544766                       0
    23   1      22.916889802230767      2.4764039431590468                       0
    24   1      25.735544697692301     0.99056157726361727                       0
    25   1      8.7010651120769182      13.089563699554978                       0
    26   1      11.519720007538456      11.603721333659548                       0
    27   1      14.338374902999995      10.117878967764117                       0
    28   1      17.157029798461533      8.6320366018686858                       0
    29   1      19.975684693923071      7.1461942359732546                       0
    30   1      22.794339589384602      5.6603518700778235                       0
    31   1      25.612994484846148       4.174509504182395                       0
    32   1      28.431649380307686      2.6886671382869642                       0
    33   1      31.250304275769217      1.2028247723915331                       0
    34   1      8.5785148992307665      16.273511626473756                       0
    35   1      11.397169794692305      14.787669260578328                       0
    36   1      14.215824690153843      13.301826894682897                       0
    37   1      17.034479585615383      11.815984528787466                       0
    38   1      19.853134481076918      10.330142162892036                       0
    39   1      22.671789376538456      8.8442997969966051                       0
    40   1      25.490444271999991      7.3584574311011757                       0
    41   1      28.309099167461532      5.8726150652057436                       0
    42   1      31.127754062923071      4.3867726993103124                       0
    43   1      33.946408958384609      2.9009303334148835                       0
    44   1      36.765063853846144      1.4150879675194541                       0
    45   1      11.274619581846149      17.971617187497102                       0
    46   1      14.093274477307689      16.485774821601673                       0
    47   1      16.911929372769226      14.999932455706245                       0
    48   1      19.730584268230764      13.514090089810814                       0
    49   1      22.549239163692302      12.028247723915383                       0
    50   1      25.367894059153837      10.542405358019952                       0
    51   1      28.186548954615375      9.0565629921245225                       0
    52   1      31.005203850076917      7.5707206262290923                       0
    53   1      33.823858745538452      6.0848782603336611                       0
    54   1      36.642513640999987      4.5990358944382308                       0
    55   1      39.461168536461528       3.113193528542801                       0
    56   1      11.152069368999996      21.155565114415882                       0
    57   1      13.970724264461531      19.669722748520449                       0
    58   1      16.789379159923072      18.183880382625023                       0
    59   1      19.608034055384611      16.698038016729591                       0
    60   1      22.426688950846145      15.212195650834161                       0
    61   1      25.245343846307684       13.72635328493873                       0
    62   1      28.063998741769222      12.240510919043299                       0
    63   1      30.882653637230757      10.754668553147871                       0
    64   1      33.701308532692295        9.26882618725244                       0
    65   1      36.519963428153837      7.7829838213570079                       0
    66   1      39.338618323615371      6.2971414554615777                       0
    67   1      42.157273219076906      4.8112990895661474                       0
    68   1      13.848174051615381      22.853670675439233                       0
    69   1      16.666828947076919      21.367828309543803                       0
    70   1      19.485483842538457       19.88198594364837                       0
    71   1      22.304138737999995      18.396143577752941                       0
    72   1      25.122793633461534      16.910301211857512                       0
    73   1      27.941448528923068       15.42445884596208                       0
    74   1      30.760103424384607      13.938616480066649                       0
    75   1      33.578758319846145      12.452774114171218                       0
    76   1      36.397413215307679      10.966931748275787                       0
    77   1      39.216068110769221      9.4810893823803593                       0
    78   1      42.034723006230756      7.9952470164849245                       0
    79   1      13.725623838769227      26.037618602358009                       0
    80   1      16.544278734230762       24.55177623646258                       0
    81   1      19.362933629692304       23.06593387056715                       0
    82   1      22.181588525153842      21.580091504671721                       0
    83   1      25.000243420615377      20.094249138776288                       0
    84   1      27.818898316076915      18.608406772880858                       0
    85   1      30.637553211538453      17.122564406985425                       0
    86   1      33.456208106999988      15.636722041089996                       0
    87   1      36.274863002461522      14.150879675194565                       0
    88   1      39.093517897923064      12.665037309299134                       0
    89   1      41.912172793384606      11.179194943403706                       0
    90   1      44.730827688846141      9.6933525775082714                       0
    91   1      16.421728521384608      27.735724163381356                       0
    92   1      19.240383416846147      26.249881797485926                       0
    93   1      22.059038312307685      24.764039431590497                       0
    94   1      24.877693207769223      23.278197065695068                       0
    95   1      27.696348103230761      21.792354699799635                       0
    96   1      30.515002998692296      20.306512333904205                       0
    97   1      33.333657894153831      18.820669968008772                       0
    98   1      36.152312789615372      17.334827602113343                       0
    99   1      38.970967685076907      15.848985236217912                       0
   100   1      41.789622580538449      14.363142870322481                       0
   101   1      44.608277475999984      12.877300504427057                       0
   102   1      16.299178308538455      30.919672090300136                       0
   103   1      19.117833203999989      29.433829724404703                       0
   104   1      21.936488099461531      27.947987358509277                       0
   105   1      24.755142994923069      26.462144992613844                       0
   106   1      27.573797890384604      24.976302626718415                       0
   107   1      30.392452785846142      23.490460260822982                       0
   108   1      33.211107681307681      22.004617894927552                       0
   109   1      36.029762576769215      20.518775529032119                       0
   110   1      38.848417472230757       19.03293316313669                       0
   111   1      41.667072367692285      17.547090797241257                       0
   112   1      44.485727263153827      16.061248431345831                       0
   113   1      47.304382158615368      14.575406065450403                       0
   114   1      18.995282991153839      32.617777651323486                       0
   115   1      21.813937886615381      31.131935285428057                       0
   116   1      24.632592782076919      29.646092919532627                       0
   117   1      27.451247677538458      28.160250553637194                       0
   118   1      30.269902572999996      26.674408187741765                       0
   119   1      33.088557468461531      25.188565821846332                       0
   120   1      35.907212363923065      23.702723455950903                       0
   121   1        38.7258672593846      22.216881090055473                       0
   122   1      41.544522154846142      20.731038724160044                       0
   123   1      44.363177050307677      19.245196358264611                       0
   124   1      47.181831945769218      17.759353992369181                       0
   125   1      18.872732778307686      35.801725578242262                       0
   126   1      21.691387673769221      34.315883212346833                       0
   127   1      24.510042569230766      32.830040846451404                       0
   128   1      27.328697464692304      31.344198480555974                       0
   129   1      30.147352360153842      29.858356114660541                       0
   130   1      32.966007255615374      28.372513748765112                       0
   131   1      35.784662151076908      26.886671382869682                       0
   132   1       38.60331704653845      25.400829016974253                       0
   133   1      41.421971941999985       23.91498665107882                       0
   134   1      44.240626837461527      22.429144285183391                       0
   135   1      47.059281732923061      20.943301919287958                       0
   136   1      49.877936628384596      19.457459553392528                       0
   137   1      27.206147251846151       34.52814640747475                       0
   138   1      30.024802147307682      33.042304041579321                       0
   139   1      32.843457042769217      31.556461675683892                       0
   140   1      35.662111938230758      30.070619309788462                       0
   141   1      38.480766833692293      28.584776943893029                       0
   142   1      41.299421729153835        27.0989345779976                       0
   143   1      44.118076624615369      25.613092212102167                       0
   144   1      46.936731520076904      24.127249846206738                       0
   145   1      49.755386415538439      22.641407480311305                       0
   146   1      32.720906829923067      34.740409602602668                       0
   147   1      35.539561725384601      33.254567236707238                       0
   148   1      38.358216620846143      31.768724870811809                       0
   149   1      41.176871516307678      30.282882504916376                       0
   150   1      43.995526411769212      28.797040139020947                       0
   151   1      46.814181307230747      27.311197773125514                       0
   152   1      49.632836202692289      25.825355407230084                       0
   153   1      52.451491098153824      24.339513041334651                       0
   154   1      38.235666407999986      34.952672797730585                       0
   155   1      41.054321303461521      33.466830431835156                       0
   156   1      43.872976198923055      31.980988065939723                       0
   157   1      46.691631094384597      30.495145700044294                       0
   158   1      49.510285989846132      29.009303334148861                       0
   159   1      52.328940885307674      27.523460968253431                       0
   160   1      43.750425986076912      35.164935992858503                       0
   161   1      46.569080881538447      33.679093626963073                       0
   162   1      49.387735776999989      32.193251261067644                       0
   163   1      52.206390672461524      30.707408895172215                       0
   164   1      55.025045567923058      29.221566529276782                       0
   165   1      49.265185564153832      35.377199187986427                       0
   166   1      52.083840459615367      33.891356822090991                       0
   167   1      54.902495355076908      32.405514456195561                       0
   168   1      54.779945142230744      35.589462383114338                       0
   169   1      57.598600037692286      34.103620017218908                       0
   170   1      4.5930949595712312       1.516404916673221                     6.5
   171   1      4.7156451724173811      4.7003528435919995                     6.5
   172   1      7.4117498550327667      3.0022472825686539                     6.5
   173   1      10.107854537648153      1.3041417215453079                     6.5
   174   1      7.5343000678789158      6.1861952094874324                     6.5
   175   1      10.230404750494303      4.4880896484640864                     6.5
   176   1       12.92650943310969      2.7899840874407427                     6.5
   177   1      15.622614115725074      1.0918785264173956                     6.5
   178   1      7.6568502807250667      9.3701431364062113                     6.5
   179   1      10.352954963340451      7.6720375753828645                     6.5
   180   1      13.049059645955838      5.9739320143595203                     6.5
   181   1      15.745164328571224      4.2758264533361752                     6.5
   182   1      18.441269011186609      2.5777208923128279                     6.5
   183   1      21.137373693801997     0.87961533128948399                     6.5
   184   1      10.475505176186601      10.855985502301642                     6.5
   185   1      13.171609858801988      9.1578799412782974                     6.5
   186   1      15.867714541417374      7.4597743802549532                     6.5
   187   1      18.563819224032759      5.7616688192316081                     6.5
   188   1      21.259923906648144      4.0635632582082604                     6.5
   189   1      23.956028589263532      2.3654576971849162                     6.5
   190   1      26.652133271878917     0.66735213616157163                     6.5
   191   1      10.598055389032755      14.039933429220424                     6.5
   192   1      13.294160071648138      12.341827868197079                     6.5
   193   1      15.990264754263526      10.643722307173734                     6.5
   194   1      18.686369436878913       8.945616746150387                     6.5
   195   1      21.382474119494297      7.2475111851270428                     6.5
   196   1      24.078578802109686      5.5494056241036986                     6.5
   197   1      26.774683484725067      3.8513000630803504                     6.5
   198   1      29.470788167340455      2.1531945020570058                     6.5
   199   1      32.166892849955843      0.4550889410336596                     6.5
   200   1       13.41671028449429      15.525775795115857                     6.5
   201   1      16.112814967109674       13.82767023409251                     6.5
   202   1      18.808919649725059      12.129564673069167                     6.5
   203   1      21.505024332340447       10.43145911204582                     6.5
   204   1      24.201129014955836      8.7333535510224749                     6.5
   205   1      26.897233697571224      7.0352479899991307                     6.5
   206   1      29.593338380186605      5.3371424289757838                     6.5
   207   1      32.289443062801993      3.6390368679524396                     6.5
   208   1      34.985547745417378      1.9409313069290934                     6.5
   209   1      37.681652428032756     0.24282574590574346                     6.5
   210   1      13.539260497340438      18.709723722034635                     6.5
   211   1      16.235365179955824      17.011618161011292                     6.5
   212   1      18.931469862571209      15.313512599987943                     6.5
   213   1      21.627574545186597      13.615407038964598                     6.5
   214   1      24.323679227801982      11.917301477941253                     6.5
   215   1       27.01978391041737      10.219195916917908                     6.5
   216   1      29.715888593032755      8.5210903558945628                     6.5
   217   1      32.411993275648136       6.822984794871215                     6.5
   218   1      35.108097958263528      5.1248792338478717                     6.5
   219   1      37.804202640878906      3.4267736728245204                     6.5
   220   1      40.500307323494297      1.7286681118011742                     6.5
   221   1      16.357915392801974      20.195566087930068                     6.5
   222   1      19.054020075417359      18.497460526906725                     6.5
   223   1      21.750124758032744      16.799354965883374                     6.5
   224   1      24.446229440648128      15.101249404860031                     6.5
   225   1      27.142334123263517      13.403143843836686                     6.5
   226   1      29.838438805878901      11.705038282813339                     6.5
   227   1      32.534543488494286      10.006932721789994                     6.5
   228   1      35.230648171109671      8.3088271607666488                     6.5
   229   1      37.926752853725063      6.6107215997433055                     6.5
   230   1       40.62285753634044      4.9126160387199542                     6.5
   231   1      43.318962218955832      3.2145104776966078                     6.5
   232   1      16.480465605648121      23.379514014848848                     6.5
   233   1      19.176570288263509      21.681408453825501                     6.5
   234   1      21.872674970878894      19.983302892802154                     6.5
   235   1      24.568779653494282      18.285197331778807                     6.5
   236   1      27.264884336109667      16.587091770755464                     6.5
   237   1      29.960989018725048      14.888986209732115                     6.5
   238   1      32.657093701340436      13.190880648708772                     6.5
   239   1      35.353198383955821      11.492775087685425                     6.5
   240   1      38.049303066571206      9.7946695266620836                     6.5
   241   1       40.74540774918659      8.0965639656387332                     6.5
   242   1      43.441512431801975      6.3984584046153854                     6.5
   243   1      19.299120501109659      24.865356380744281                     6.5
   244   1      21.995225183725044      23.167250819720934                     6.5
   245   1      24.691329866340432      21.469145258697591                     6.5
   246   1       27.38743454895581       19.77103969767424                     6.5
   247   1      30.083539231571198      18.072934136650893                     6.5
   248   1      32.779643914186579       16.37482857562755                     6.5
   249   1      35.475748596801971      14.676723014604205                     6.5
   250   1      38.171853279417356       12.97861745358086                     6.5
   251   1       40.86795796203274      11.280511892557517                     6.5
   252   1      43.564062644648132      9.5824063315341697                     6.5
   253   1      46.260167327263517      7.8843007705108183                     6.5
   254   1      19.421670713955816      28.049304307663061                     6.5
   255   1      22.117775396571197      26.351198746639717                     6.5
   256   1      24.813880079186578      24.653093185616367                     6.5
   257   1      27.509984761801963      22.954987624593024                     6.5
   258   1      30.206089444417351      21.256882063569677                     6.5
   259   1      32.902194127032736       19.55877650254633                     6.5
   260   1      35.598298809648128      17.860670941522987                     6.5
   261   1      38.294403492263513       16.16256538049964                     6.5
   262   1      40.990508174878897      14.464459819476295                     6.5
   263   1      43.686612857494282      12.766354258452953                     6.5
   264   1      46.382717540109674      11.068248697429606                     6.5
   265   1      22.240325609417344      29.535146673558494                     6.5
   266   1      24.936430292032732      27.837041112535147                     6.5
   267   1      27.632534974648117      26.138935551511803                     6.5
   268   1      30.328639657263498      24.440829990488453                     6.5
   269   1      33.024744339878886       22.74272442946511                     6.5
   270   1      35.720849022494271      21.044618868441763                     6.5
   271   1      38.416953705109663      19.346513307418419                     6.5
   272   1      41.113058387725047      17.648407746395073                     6.5
   273   1      43.809163070340432      15.950302185371731                     6.5
   274   1      46.505267752955824      14.252196624348384                     6.5
   275   1      49.201372435571194      12.554091063325034                     6.5
   276   1      22.362875822263494      32.719094600477277                     6.5
   277   1      25.058980504878882      31.020989039453926                     6.5
   278   1      27.755085187494263       29.32288347843058                     6.5
   279   1      30.451189870109648      27.624777917407233                     6.5
   280   1      33.147294552725036      25.926672356383886                     6.5
   281   1      35.843399235340421      24.228566795360539                     6.5
   282   1      38.539503917955813      22.530461234337199                     6.5
   283   1       41.23560860057119      20.832355673313852                     6.5
   284   1      43.931713283186582      19.134250112290506                     6.5
   285   1      46.627817965801967      17.436144551267162                     6.5
   286   1      49.323922648417359      15.738038990243817                     6.5
   287   1      22.485426035109644      35.903042527396046                     6.5
   288   1      25.181530717725025      34.204936966372706                     6.5
   289   1      27.877635400340417      32.506831405349359                     6.5
   290   1      30.573740082955805      30.808725844326013                     6.5
   291   1      33.269844765571186      29.110620283302669                     6.5
   292   1      35.965949448186571      27.412514722279319                     6.5
   293   1      38.662054130801955      25.714409161255972                     6.5
   294   1       41.35815881341734      24.016303600232629                     6.5
   295   1      44.054263496032725      22.318198039209285                     6.5
   296   1      46.750368178648117      20.620092478185938                     6.5
   297   1      49.446472861263508      18.921986917162595                     6.5
   298   1      52.142577543878886      17.223881356139248                     6.5
   299   1      28.000185613186567      35.690779332268136                     6.5
   300   1      30.696290295801948      33.992673771244789                     6.5
   301   1      33.392394978417336      32.294568210221442                     6.5
   302   1      36.088499661032721      30.596462649198099                     6.5
   303   1      38.784604343648105      28.898357088174752                     6.5
   304   1      41.480709026263497      27.200251527151405                     6.5
   305   1      44.176813708878875      25.502145966128062                     6.5
   306   1      46.872918391494267      23.804040405104715                     6.5
   307   1      49.569023074109651      22.105934844081368                     6.5
   308   1      52.265127756725036      20.407829283058028                     6.5
   309   1      33.514945191263479      35.478516137140225                     6.5
   310   1      36.211049873878871      33.780410576116878                     6.5
   311   1      38.907154556494262      32.082305015093532                     6.5
   312   1       41.60325923910964      30.384199454070185                     6.5
   313   1      44.299363921725025      28.686093893046841                     6.5
   314   1       46.99546860434041      26.987988332023495                     6.5
   315   1      49.691573286955801      25.289882771000148                     6.5
   316   1      52.387677969571186      23.591777209976804                     6.5
   317   1      55.083782652186571      21.893671648953461                     6.5
   318   1      39.029704769340405      35.266252942012315                     6.5
   319   1       41.72580945195579      33.568147380988961                     6.5
   320   1      44.421914134571175      31.870041819965614                     6.5
   321   1      47.118018817186559      30.171936258942274                     6.5
   322   1      49.814123499801951      28.473830697918928                     6.5
   323   1      52.510228182417336      26.775725136895581                     6.5
   324   1      55.206332865032721      25.077619575872234                     6.5
   325   1      44.544464347417332      35.053989746884398                     6.5
   326   1      47.240569030032709      33.355884185861051                     6.5
   327   1      49.936673712648094      31.657778624837707                     6.5
   328   1      52.632778395263486       29.95967306381436                     6.5
   329   1      55.328883077878864      28.261567502791017                     6.5
   330   1      58.024987760494255      26.563461941767667                     6.5
   331   1      50.059223925494244      34.841726551756487                     6.5
   332   1      52.755328608109636      33.143620990733133                     6.5
   333   1      55.451433290725021       31.44551542970979                     6.5
   334   1      58.147537973340405       29.74740986868645                     6.5
   335   1      55.573983503571178      34.629463356628577                     6.5
   336   1      58.270088186186555       32.93135779560523                     6.5
   337   1      60.966192868801947      31.233252234581883                     6.5
   338   1       61.08874308164809      34.417200161500659                     6.5
   339   2      2.6961046826153834       1.698105561023348            1.5700850065
   340   2      2.6961046826153834       1.698105561023348           -1.5700850065
   341   2      5.5147595780769212     0.21226319512791761            1.5700850065
   342   2      5.5147595780769212     0.21226319512791761           -1.5700850065
   343   2      5.3922093652307677      3.3962111220466964            1.5700850065
   344   2      5.3922093652307677      3.3962111220466964           -1.5700850065
   345   2      8.2108642606923041      1.9103687561512654            1.5700850065
   346   2      8.2108642606923041      1.9103687561512654           -1.5700850065
   347   2      11.029519156153842     0.42452639025583522            1.5700850065
   348   2      11.029519156153842     0.42452639025583522           -1.5700850065
   349   2      5.2696591523846124      6.5801590489654744            1.5700850065
   350   2      5.2696591523846124      6.5801590489654744           -1.5700850065
   351   2      8.0883140478461506      5.0943166830700441            1.5700850065
   352   2      8.0883140478461506      5.0943166830700441           -1.5700850065
   353   2      10.906968943307687       3.608474317174613            1.5700850065
   354   2      10.906968943307687       3.608474317174613           -1.5700850065
   355   2      13.725623838769227       2.122631951279184            1.5700850065
   356   2      13.725623838769227       2.122631951279184           -1.5700850065
   357   2      16.544278734230762     0.63678958538375274            1.5700850065
   358   2      16.544278734230762     0.63678958538375274           -1.5700850065
   359   2      7.9657638349999971       8.278264609988824            1.5700850065
   360   2      7.9657638349999971       8.278264609988824           -1.5700850065
   361   2      10.784418730461535      6.7924222440933928            1.5700850065
   362   2      10.784418730461535      6.7924222440933928           -1.5700850065
   363   2      13.603073625923072      5.3065798781979616            1.5700850065
   364   2      13.603073625923072      5.3065798781979616           -1.5700850065
   365   2      16.421728521384608      3.8207375123025327            1.5700850065
   366   2      16.421728521384608      3.8207375123025327           -1.5700850065
   367   2      19.240383416846147      2.3348951464071015            1.5700850065
   368   2      19.240383416846147      2.3348951464071015           -1.5700850065
   369   2      22.059038312307685     0.84905278051167044            1.5700850065
   370   2      22.059038312307685     0.84905278051167044           -1.5700850065
   371   2      7.8432136221538435      11.462212536907602            1.5700850065
   372   2      7.8432136221538435      11.462212536907602           -1.5700850065
   373   2      10.661868517615382      9.9763701710121708            1.5700850065
   374   2      10.661868517615382      9.9763701710121708           -1.5700850065
   375   2      13.480523413076918      8.4905278051167414            1.5700850065
   376   2      13.480523413076918      8.4905278051167414           -1.5700850065
   377   2      16.299178308538455      7.0046854392213103            1.5700850065
   378   2      16.299178308538455      7.0046854392213103           -1.5700850065
   379   2      19.117833203999993      5.5188430733258791            1.5700850065
   380   2      19.117833203999993      5.5188430733258791           -1.5700850065
   381   2      21.936488099461531      4.0330007074304479            1.5700850065
   382   2      21.936488099461531      4.0330007074304479           -1.5700850065
   383   2      24.755142994923069      2.5471583415350207            1.5700850065
   384   2      24.755142994923069      2.5471583415350207           -1.5700850065
   385   2      27.573797890384608      1.0613159756395898            1.5700850065
   386   2      27.573797890384608      1.0613159756395898           -1.5700850065
   387   2      10.539318304769226      13.160318097930951            1.5700850065
   388   2      10.539318304769226      13.160318097930951           -1.5700850065
   389   2      13.357973200230765      11.674475732035519            1.5700850065
   390   2      13.357973200230765      11.674475732035519           -1.5700850065
   391   2      16.176628095692301      10.188633366140088            1.5700850065
   392   2      16.176628095692301      10.188633366140088           -1.5700850065
   393   2      18.995282991153839      8.7027910002446571            1.5700850065
   394   2      18.995282991153839      8.7027910002446571           -1.5700850065
   395   2      21.813937886615374       7.216948634349226            1.5700850065
   396   2      21.813937886615374       7.216948634349226           -1.5700850065
   397   2      24.632592782076912      5.7311062684537966            1.5700850065
   398   2      24.632592782076912      5.7311062684537966           -1.5700850065
   399   2      27.451247677538454      4.2452639025583681            1.5700850065
   400   2      27.451247677538454      4.2452639025583681           -1.5700850065
   401   2      30.269902572999989      2.7594215366629364            1.5700850065
   402   2      30.269902572999989      2.7594215366629364           -1.5700850065
   403   2      33.088557468461524      1.2735791707675055            1.5700850065
   404   2      33.088557468461524      1.2735791707675055           -1.5700850065
   405   2      10.416768091923073      16.344266024849727            1.5700850065
   406   2      10.416768091923073      16.344266024849727           -1.5700850065
   407   2      13.235422987384613      14.858423658954299            1.5700850065
   408   2      13.235422987384613      14.858423658954299           -1.5700850065
   409   2      16.054077882846151      13.372581293058868            1.5700850065
   410   2      16.054077882846151      13.372581293058868           -1.5700850065
   411   2      18.872732778307686      11.886738927163439            1.5700850065
   412   2      18.872732778307686      11.886738927163439           -1.5700850065
   413   2      21.691387673769224      10.400896561268008            1.5700850065
   414   2      21.691387673769224      10.400896561268008           -1.5700850065
   415   2      24.510042569230762      8.9150541953725764            1.5700850065
   416   2      24.510042569230762      8.9150541953725764           -1.5700850065
   417   2      27.328697464692301       7.429211829477147            1.5700850065
   418   2      27.328697464692301       7.429211829477147           -1.5700850065
   419   2      30.147352360153839      5.9433694635817167            1.5700850065
   420   2      30.147352360153839      5.9433694635817167           -1.5700850065
   421   2      32.966007255615374      4.4575270976862873            1.5700850065
   422   2      32.966007255615374      4.4575270976862873           -1.5700850065
   423   2      35.784662151076908      2.9716847317908561            1.5700850065
   424   2      35.784662151076908      2.9716847317908561           -1.5700850065
   425   2       38.60331704653845       1.485842365895425            1.5700850065
   426   2       38.60331704653845       1.485842365895425           -1.5700850065
   427   2      13.112872774538456      18.042371585873074            1.5700850065
   428   2      13.112872774538456      18.042371585873074           -1.5700850065
   429   2      15.931527669999994      16.556529219977648            1.5700850065
   430   2      15.931527669999994      16.556529219977648           -1.5700850065
   431   2      18.750182565461532      15.070686854082217            1.5700850065
   432   2      18.750182565461532      15.070686854082217           -1.5700850065
   433   2      21.568837460923071      13.584844488186786            1.5700850065
   434   2      21.568837460923071      13.584844488186786           -1.5700850065
   435   2      24.387492356384605      12.099002122291354            1.5700850065
   436   2      24.387492356384605      12.099002122291354           -1.5700850065
   437   2      27.206147251846144      10.613159756395923            1.5700850065
   438   2      27.206147251846144      10.613159756395923           -1.5700850065
   439   2      30.024802147307685      9.1273173905004956            1.5700850065
   440   2      30.024802147307685      9.1273173905004956           -1.5700850065
   441   2      32.843457042769217      7.6414750246050653            1.5700850065
   442   2      32.843457042769217      7.6414750246050653           -1.5700850065
   443   2      35.662111938230758      6.1556326587096342            1.5700850065
   444   2      35.662111938230758      6.1556326587096342           -1.5700850065
   445   2      38.480766833692293       4.669790292814203            1.5700850065
   446   2      38.480766833692293       4.669790292814203           -1.5700850065
   447   2      41.299421729153828      3.1839479269187718            1.5700850065
   448   2      41.299421729153828      3.1839479269187718           -1.5700850065
   449   2      12.990322561692299      21.226319512791854            1.5700850065
   450   2      12.990322561692299      21.226319512791854           -1.5700850065
   451   2      15.808977457153837      19.740477146896424            1.5700850065
   452   2      15.808977457153837      19.740477146896424           -1.5700850065
   453   2      18.627632352615379      18.254634781000995            1.5700850065
   454   2      18.627632352615379      18.254634781000995           -1.5700850065
   455   2      21.446287248076914      16.768792415105562            1.5700850065
   456   2      21.446287248076914      16.768792415105562           -1.5700850065
   457   2      24.264942143538452      15.282950049210132            1.5700850065
   458   2      24.264942143538452      15.282950049210132           -1.5700850065
   459   2       27.08359703899999      13.797107683314701            1.5700850065
   460   2       27.08359703899999      13.797107683314701           -1.5700850065
   461   2      29.902251934461528      12.311265317419274            1.5700850065
   462   2      29.902251934461528      12.311265317419274           -1.5700850065
   463   2      32.720906829923067      10.825422951523842            1.5700850065
   464   2      32.720906829923067      10.825422951523842           -1.5700850065
   465   2      35.539561725384601      9.3395805856284113            1.5700850065
   466   2      35.539561725384601      9.3395805856284113           -1.5700850065
   467   2      38.358216620846136       7.853738219732981            1.5700850065
   468   2      38.358216620846136       7.853738219732981           -1.5700850065
   469   2      41.176871516307678      6.3678958538375499            1.5700850065
   470   2      41.176871516307678      6.3678958538375499           -1.5700850065
   471   2      43.995526411769212      4.8820534879421187            1.5700850065
   472   2      43.995526411769212      4.8820534879421187           -1.5700850065
   473   2      15.686427244307687      22.924425073815204            1.5700850065
   474   2      15.686427244307687      22.924425073815204           -1.5700850065
   475   2      18.505082139769225      21.438582707919775            1.5700850065
   476   2      18.505082139769225      21.438582707919775           -1.5700850065
   477   2      21.323737035230764      19.952740342024342            1.5700850065
   478   2      21.323737035230764      19.952740342024342           -1.5700850065
   479   2      24.142391930692302      18.466897976128912            1.5700850065
   480   2      24.142391930692302      18.466897976128912           -1.5700850065
   481   2      26.961046826153837      16.981055610233483            1.5700850065
   482   2      26.961046826153837      16.981055610233483           -1.5700850065
   483   2      29.779701721615375      15.495213244338052            1.5700850065
   484   2      29.779701721615375      15.495213244338052           -1.5700850065
   485   2      32.598356617076909      14.009370878442621            1.5700850065
   486   2      32.598356617076909      14.009370878442621           -1.5700850065
   487   2      35.417011512538444      12.523528512547189            1.5700850065
   488   2      35.417011512538444      12.523528512547189           -1.5700850065
   489   2      38.235666407999986      11.037686146651758            1.5700850065
   490   2      38.235666407999986      11.037686146651758           -1.5700850065
   491   2      41.054321303461528      9.5518437807563306            1.5700850065
   492   2      41.054321303461528      9.5518437807563306           -1.5700850065
   493   2      43.872976198923062      8.0660014148608958            1.5700850065
   494   2      43.872976198923062      8.0660014148608958           -1.5700850065
   495   2      15.563877031461532       26.10837300073398            1.5700850065
   496   2      15.563877031461532       26.10837300073398           -1.5700850065
   497   2      18.382531926923068      24.622530634838551            1.5700850065
   498   2      18.382531926923068      24.622530634838551           -1.5700850065
   499   2       21.20118682238461      23.136688268943121            1.5700850065
   500   2       21.20118682238461      23.136688268943121           -1.5700850065
   501   2      24.019841717846145      21.650845903047692            1.5700850065
   502   2      24.019841717846145      21.650845903047692           -1.5700850065
   503   2      26.838496613307683      20.165003537152259            1.5700850065
   504   2      26.838496613307683      20.165003537152259           -1.5700850065
   505   2      29.657151508769221       18.67916117125683            1.5700850065
   506   2      29.657151508769221       18.67916117125683           -1.5700850065
   507   2      32.475806404230752        17.1933188053614            1.5700850065
   508   2      32.475806404230752        17.1933188053614           -1.5700850065
   509   2      35.294461299692294      15.707476439465967            1.5700850065
   510   2      35.294461299692294      15.707476439465967           -1.5700850065
   511   2      38.113116195153829      14.221634073570536            1.5700850065
   512   2      38.113116195153829      14.221634073570536           -1.5700850065
   513   2      40.931771090615371      12.735791707675105            1.5700850065
   514   2      40.931771090615371      12.735791707675105           -1.5700850065
   515   2      43.750425986076905      11.249949341779677            1.5700850065
   516   2      43.750425986076905      11.249949341779677           -1.5700850065
   517   2       46.56908088153844      9.7641069758842427            1.5700850065
   518   2       46.56908088153844      9.7641069758842427           -1.5700850065
   519   2      18.259981714076915      27.806478561757327            1.5700850065
   520   2      18.259981714076915      27.806478561757327           -1.5700850065
   521   2      21.078636609538453      26.320636195861901            1.5700850065
   522   2      21.078636609538453      26.320636195861901           -1.5700850065
   523   2      23.897291504999991      24.834793829966468            1.5700850065
   524   2      23.897291504999991      24.834793829966468           -1.5700850065
   525   2      26.715946400461529      23.348951464071039            1.5700850065
   526   2      26.715946400461529      23.348951464071039           -1.5700850065
   527   2      29.534601295923064      21.863109098175606            1.5700850065
   528   2      29.534601295923064      21.863109098175606           -1.5700850065
   529   2      32.353256191384602      20.377266732280177            1.5700850065
   530   2      32.353256191384602      20.377266732280177           -1.5700850065
   531   2      35.171911086846137      18.891424366384747            1.5700850065
   532   2      35.171911086846137      18.891424366384747           -1.5700850065
   533   2      37.990565982307679      17.405582000489314            1.5700850065
   534   2      37.990565982307679      17.405582000489314           -1.5700850065
   535   2      40.809220877769214      15.919739634593883            1.5700850065
   536   2      40.809220877769214      15.919739634593883           -1.5700850065
   537   2      43.627875773230748      14.433897268698452            1.5700850065
   538   2      43.627875773230748      14.433897268698452           -1.5700850065
   539   2       46.44653066869229      12.948054902803028            1.5700850065
   540   2       46.44653066869229      12.948054902803028           -1.5700850065
   541   2      18.137431501230761       30.99042648867611            1.5700850065
   542   2      18.137431501230761       30.99042648867611           -1.5700850065
   543   2      20.956086396692292      29.504584122780674            1.5700850065
   544   2      20.956086396692292      29.504584122780674           -1.5700850065
   545   2      23.774741292153838      28.018741756885248            1.5700850065
   546   2      23.774741292153838      28.018741756885248           -1.5700850065
   547   2      26.593396187615372      26.532899390989815            1.5700850065
   548   2      26.593396187615372      26.532899390989815           -1.5700850065
   549   2      29.412051083076911      25.047057025094386            1.5700850065
   550   2      29.412051083076911      25.047057025094386           -1.5700850065
   551   2      32.230705978538452      23.561214659198953            1.5700850065
   552   2      32.230705978538452      23.561214659198953           -1.5700850065
   553   2      35.049360873999987      22.075372293303523            1.5700850065
   554   2      35.049360873999987      22.075372293303523           -1.5700850065
   555   2      37.868015769461522      20.589529927408094            1.5700850065
   556   2      37.868015769461522      20.589529927408094           -1.5700850065
   557   2      40.686670664923057      19.103687561512661            1.5700850065
   558   2      40.686670664923057      19.103687561512661           -1.5700850065
   559   2      43.505325560384591      17.617845195617235            1.5700850065
   560   2      43.505325560384591      17.617845195617235           -1.5700850065
   561   2      46.323980455846133      16.132002829721802            1.5700850065
   562   2      46.323980455846133      16.132002829721802           -1.5700850065
   563   2      49.142635351307675      14.646160463826375            1.5700850065
   564   2      49.142635351307675      14.646160463826375           -1.5700850065
   565   2      20.833536183846146      32.688532049699454            1.5700850065
   566   2      20.833536183846146      32.688532049699454           -1.5700850065
   567   2      23.652191079307688      31.202689683804028            1.5700850065
   568   2      23.652191079307688      31.202689683804028           -1.5700850065
   569   2      26.470845974769226      29.716847317908599            1.5700850065
   570   2      26.470845974769226      29.716847317908599           -1.5700850065
   571   2      29.289500870230764      28.231004952013166            1.5700850065
   572   2      29.289500870230764      28.231004952013166           -1.5700850065
   573   2      32.108155765692302      26.745162586117736            1.5700850065
   574   2      32.108155765692302      26.745162586117736           -1.5700850065
   575   2      34.926810661153837      25.259320220222303            1.5700850065
   576   2      34.926810661153837      25.259320220222303           -1.5700850065
   577   2      37.745465556615372      23.773477854326877            1.5700850065
   578   2      37.745465556615372      23.773477854326877           -1.5700850065
   579   2      40.564120452076907      22.287635488431448            1.5700850065
   580   2      40.564120452076907      22.287635488431448           -1.5700850065
   581   2      43.382775347538448      20.801793122536015            1.5700850065
   582   2      43.382775347538448      20.801793122536015           -1.5700850065
   583   2      46.201430242999983      19.315950756640586            1.5700850065
   584   2      46.201430242999983      19.315950756640586           -1.5700850065
   585   2      49.020085138461525      17.830108390745153            1.5700850065
   586   2      49.020085138461525      17.830108390745153           -1.5700850065
   587   2      20.710985970999989      35.872479976618237            1.5700850065
   588   2      20.710985970999989      35.872479976618237           -1.5700850065
   589   2      23.529640866461527      34.386637610722801            1.5700850065
   590   2      23.529640866461527      34.386637610722801           -1.5700850065
   591   2      26.348295761923072      32.900795244827378            1.5700850065
   592   2      26.348295761923072      32.900795244827378           -1.5700850065
   593   2      29.166950657384611      31.414952878931945            1.5700850065
   594   2      29.166950657384611      31.414952878931945           -1.5700850065
   595   2      31.985605552846142      29.929110513036512            1.5700850065
   596   2      31.985605552846142      29.929110513036512           -1.5700850065
   597   2       34.80426044830768      28.443268147141087            1.5700850065
   598   2       34.80426044830768      28.443268147141087           -1.5700850065
   599   2      37.622915343769222      26.957425781245654            1.5700850065
   600   2      37.622915343769222      26.957425781245654           -1.5700850065
   601   2      40.441570239230757      25.471583415350224            1.5700850065
   602   2      40.441570239230757      25.471583415350224           -1.5700850065
   603   2      43.260225134692291      23.985741049454795            1.5700850065
   604   2      43.260225134692291      23.985741049454795           -1.5700850065
   605   2      46.078880030153833      22.499898683559362            1.5700850065
   606   2      46.078880030153833      22.499898683559362           -1.5700850065
   607   2      48.897534925615361      21.014056317663933            1.5700850065
   608   2      48.897534925615361      21.014056317663933           -1.5700850065
   609   2      51.716189821076902        19.5282139517685            1.5700850065
   610   2      51.716189821076902        19.5282139517685           -1.5700850065
   611   2       29.04440044453845      34.598900805850725            1.5700850065
   612   2       29.04440044453845      34.598900805850725           -1.5700850065
   613   2      31.863055339999988      33.113058439955296            1.5700850065
   614   2      31.863055339999988      33.113058439955296           -1.5700850065
   615   2       34.68171023546153      31.627216074059863            1.5700850065
   616   2       34.68171023546153      31.627216074059863           -1.5700850065
   617   2      37.500365130923065      30.141373708164434            1.5700850065
   618   2      37.500365130923065      30.141373708164434           -1.5700850065
   619   2      40.319020026384607      28.655531342269001            1.5700850065
   620   2      40.319020026384607      28.655531342269001           -1.5700850065
   621   2      43.137674921846141      27.169688976373571            1.5700850065
   622   2      43.137674921846141      27.169688976373571           -1.5700850065
   623   2      45.956329817307669      25.683846610478142            1.5700850065
   624   2      45.956329817307669      25.683846610478142           -1.5700850065
   625   2      48.774984712769211      24.198004244582709            1.5700850065
   626   2      48.774984712769211      24.198004244582709           -1.5700850065
   627   2      51.593639608230745      22.712161878687279            1.5700850065
   628   2      51.593639608230745      22.712161878687279           -1.5700850065
   629   2      34.559160022615373      34.811164000978643            1.5700850065
   630   2      34.559160022615373      34.811164000978643           -1.5700850065
   631   2      37.377814918076915      33.325321635083213            1.5700850065
   632   2      37.377814918076915      33.325321635083213           -1.5700850065
   633   2       40.19646981353845       31.83947926918778            1.5700850065
   634   2       40.19646981353845       31.83947926918778           -1.5700850065
   635   2      43.015124708999984      30.353636903292347            1.5700850065
   636   2      43.015124708999984      30.353636903292347           -1.5700850065
   637   2      45.833779604461519      28.867794537396918            1.5700850065
   638   2      45.833779604461519      28.867794537396918           -1.5700850065
   639   2      48.652434499923054      27.381952171501489            1.5700850065
   640   2      48.652434499923054      27.381952171501489           -1.5700850065
   641   2      51.471089395384595      25.896109805606056            1.5700850065
   642   2      51.471089395384595      25.896109805606056           -1.5700850065
   643   2       54.28974429084613      24.410267439710626            1.5700850065
   644   2       54.28974429084613      24.410267439710626           -1.5700850065
   645   2      40.073919600692292       35.02342719610656            1.5700850065
   646   2      40.073919600692292       35.02342719610656           -1.5700850065
   647   2      42.892574496153827      33.537584830211124            1.5700850065
   648   2      42.892574496153827      33.537584830211124           -1.5700850065
   649   2      45.711229391615369      32.051742464315694            1.5700850065
   650   2      45.711229391615369      32.051742464315694           -1.5700850065
   651   2      48.529884287076904      30.565900098420265            1.5700850065
   652   2      48.529884287076904      30.565900098420265           -1.5700850065
   653   2      51.348539182538438      29.080057732524836            1.5700850065
   654   2      51.348539182538438      29.080057732524836           -1.5700850065
   655   2       54.16719407799998      27.594215366629403            1.5700850065
   656   2       54.16719407799998      27.594215366629403           -1.5700850065
   657   2      45.588679178769219      35.235690391234478            1.5700850065
   658   2      45.588679178769219      35.235690391234478           -1.5700850065
   659   2      48.407334074230761      33.749848025339048            1.5700850065
   660   2      48.407334074230761      33.749848025339048           -1.5700850065
   661   2      51.225988969692295      32.264005659443619            1.5700850065
   662   2      51.225988969692295      32.264005659443619           -1.5700850065
   663   2      54.044643865153823      30.778163293548186            1.5700850065
   664   2      54.044643865153823      30.778163293548186           -1.5700850065
   665   2      56.863298760615372      29.292320927652757            1.5700850065
   666   2      56.863298760615372      29.292320927652757           -1.5700850065
   667   2      51.103438756846138      35.447953586362395            1.5700850065
   668   2      51.103438756846138      35.447953586362395           -1.5700850065
   669   2       53.92209365230768      33.962111220466966            1.5700850065
   670   2       53.92209365230768      33.962111220466966           -1.5700850065
   671   2      56.740748547769215      32.476268854571536            1.5700850065
   672   2      56.740748547769215      32.476268854571536           -1.5700850065
   673   2      56.618198334923058      35.660216781490313            1.5700850065
   674   2      56.618198334923058      35.660216781490313           -1.5700850065
   675   2        59.4368532303846      34.174374415594883            1.5700850065
   676   2        59.4368532303846      34.174374415594883           -1.5700850065
   677   2      2.8186548954615356      1.4858423658954332      8.0700850064999994
   678   2      2.8186548954615356      1.4858423658954332      4.9299149934999997
   679   2      2.9412051083076856      4.6697902928142119      8.0700850064999994
   680   2      2.9412051083076856      4.6697902928142119      4.9299149934999997
   681   2      5.6373097909230712      2.9716847317908663      8.0700850064999994
   682   2      5.6373097909230712      2.9716847317908663      4.9299149934999997
   683   2      8.3334144735384577      1.2735791707675208      8.0700850064999994
   684   2      8.3334144735384577      1.2735791707675208      4.9299149934999997
   685   2      5.7598600037692211      6.1556326587096448      8.0700850064999994
   686   2      5.7598600037692211      6.1556326587096448      4.9299149934999997
   687   2      8.4559646863846076      4.4575270976862997      8.0700850064999994
   688   2      8.4559646863846076      4.4575270976862997      4.9299149934999997
   689   2      11.152069368999996      2.7594215366629551      8.0700850064999994
   690   2      11.152069368999996      2.7594215366629551      4.9299149934999997
   691   2      13.848174051615381      1.0613159756396084      8.0700850064999994
   692   2      13.848174051615381      1.0613159756396084      4.9299149934999997
   693   2      5.8824102166153711      9.3395805856284237      8.0700850064999994
   694   2      5.8824102166153711      9.3395805856284237      4.9299149934999997
   695   2      8.5785148992307558      7.6414750246050778      8.0700850064999994
   696   2      8.5785148992307558      7.6414750246050778      4.9299149934999997
   697   2      11.274619581846142      5.9433694635817327      8.0700850064999994
   698   2      11.274619581846142      5.9433694635817327      4.9299149934999997
   699   2      13.970724264461531      4.2452639025583876      8.0700850064999994
   700   2      13.970724264461531      4.2452639025583876      4.9299149934999997
   701   2      16.666828947076915      2.5471583415350416      8.0700850064999994
   702   2      16.666828947076915      2.5471583415350416      4.9299149934999997
   703   2        19.3629336296923      0.8490527805116953      8.0700850064999994
   704   2        19.3629336296923      0.8490527805116953      4.9299149934999997
   705   2      8.7010651120769058      10.825422951523855      8.0700850064999994
   706   2      8.7010651120769058      10.825422951523855      4.9299149934999997
   707   2      11.397169794692291      9.1273173905005098      8.0700850064999994
   708   2      11.397169794692291      9.1273173905005098      4.9299149934999997
   709   2      14.093274477307677      7.4292118294771647      8.0700850064999994
   710   2      14.093274477307677      7.4292118294771647      4.9299149934999997
   711   2      16.789379159923065      5.7311062684538205      8.0700850064999994
   712   2      16.789379159923065      5.7311062684538205      4.9299149934999997
   713   2       19.48548384253845      4.0330007074304719      8.0700850064999994
   714   2       19.48548384253845      4.0330007074304719      4.9299149934999997
   715   2      22.181588525153835      2.3348951464071277      8.0700850064999994
   716   2      22.181588525153835      2.3348951464071277      4.9299149934999997
   717   2      24.877693207769223     0.63678958538378294      8.0700850064999994
   718   2      24.877693207769223     0.63678958538378294      4.9299149934999997
   719   2      8.8236153249230576      14.009370878442637      8.0700850064999994
   720   2      8.8236153249230576      14.009370878442637      4.9299149934999997
   721   2      11.519720007538442       12.31126531741929      8.0700850064999994
   722   2      11.519720007538442       12.31126531741929      4.9299149934999997
   723   2      14.215824690153829      10.613159756395946      8.0700850064999994
   724   2      14.215824690153829      10.613159756395946      4.9299149934999997
   725   2      16.911929372769215      8.9150541953725995      8.0700850064999994
   726   2      16.911929372769215      8.9150541953725995      4.9299149934999997
   727   2      19.608034055384604      7.2169486343492553      8.0700850064999994
   728   2      19.608034055384604      7.2169486343492553      4.9299149934999997
   729   2      22.304138737999992      5.5188430733259102      8.0700850064999994
   730   2      22.304138737999992      5.5188430733259102      4.9299149934999997
   731   2      25.000243420615373      3.8207375123025615      8.0700850064999994
   732   2      25.000243420615373      3.8207375123025615      4.9299149934999997
   733   2      27.696348103230761      2.1226319512792169      8.0700850064999994
   734   2      27.696348103230761      2.1226319512792169      4.9299149934999997
   735   2      30.392452785846146     0.42452639025587241      8.0700850064999994
   736   2      30.392452785846146     0.42452639025587241      4.9299149934999997
   737   2      11.642270220384594      15.495213244338069      8.0700850064999994
   738   2      11.642270220384594      15.495213244338069      4.9299149934999997
   739   2      14.338374902999979      13.797107683314723      8.0700850064999994
   740   2      14.338374902999979      13.797107683314723      4.9299149934999997
   741   2      17.034479585615365      12.099002122291378      8.0700850064999994
   742   2      17.034479585615365      12.099002122291378      4.9299149934999997
   743   2       19.73058426823075      10.400896561268032      8.0700850064999994
   744   2       19.73058426823075      10.400896561268032      4.9299149934999997
   745   2      22.426688950846138      8.7027910002446873      8.0700850064999994
   746   2      22.426688950846138      8.7027910002446873      4.9299149934999997
   747   2      25.122793633461523      7.0046854392213422      8.0700850064999994
   748   2      25.122793633461523      7.0046854392213422      4.9299149934999997
   749   2      27.818898316076904      5.3065798781979971      8.0700850064999994
   750   2      27.818898316076904      5.3065798781979971      4.9299149934999997
   751   2      30.515002998692292      3.6084743171746507      8.0700850064999994
   752   2      30.515002998692292      3.6084743171746507      4.9299149934999997
   753   2      33.211107681307681      1.9103687561513061      8.0700850064999994
   754   2      33.211107681307681      1.9103687561513061      4.9299149934999997
   755   2      35.907212363923065      0.2122631951279598      8.0700850064999994
   756   2      35.907212363923065      0.2122631951279598      4.9299149934999997
   757   2      11.764820433230742      18.679161171256847      8.0700850064999994
   758   2      11.764820433230742      18.679161171256847      4.9299149934999997
   759   2      14.460925115846129      16.981055610233504      8.0700850064999994
   760   2      14.460925115846129      16.981055610233504      4.9299149934999997
   761   2      17.157029798461512      15.282950049210156      8.0700850064999994
   762   2      17.157029798461512      15.282950049210156      4.9299149934999997
   763   2      19.853134481076896       13.58484448818681      8.0700850064999994
   764   2      19.853134481076896       13.58484448818681      4.9299149934999997
   765   2      22.549239163692285      11.886738927163465      8.0700850064999994
   766   2      22.549239163692285      11.886738927163465      4.9299149934999997
   767   2      25.245343846307673       10.18863336614012      8.0700850064999994
   768   2      25.245343846307673       10.18863336614012      4.9299149934999997
   769   2      27.941448528923061      8.4905278051167752      8.0700850064999994
   770   2      27.941448528923061      8.4905278051167752      4.9299149934999997
   771   2      30.637553211538442      6.7924222440934274      8.0700850064999994
   772   2      30.637553211538442      6.7924222440934274      4.9299149934999997
   773   2      33.333657894153831      5.0943166830700832      8.0700850064999994
   774   2      33.333657894153831      5.0943166830700832      4.9299149934999997
   775   2      36.029762576769215      3.3962111220467368      8.0700850064999994
   776   2      36.029762576769215      3.3962111220467368      4.9299149934999997
   777   2        38.7258672593846      1.6981055610233906      8.0700850064999994
   778   2        38.7258672593846      1.6981055610233906      4.9299149934999997
   779   2      14.583475328692275       20.16500353715228      8.0700850064999994
   780   2      14.583475328692275       20.16500353715228      4.9299149934999997
   781   2      17.279580011307662      18.466897976128934      8.0700850064999994
   782   2      17.279580011307662      18.466897976128934      4.9299149934999997
   783   2       19.97568469392305      16.768792415105587      8.0700850064999994
   784   2       19.97568469392305      16.768792415105587      4.9299149934999997
   785   2      22.671789376538435      15.070686854082243      8.0700850064999994
   786   2      22.671789376538435      15.070686854082243      4.9299149934999997
   787   2      25.367894059153819      13.372581293058898      8.0700850064999994
   788   2      25.367894059153819      13.372581293058898      4.9299149934999997
   789   2      28.063998741769208      11.674475732035553      8.0700850064999994
   790   2      28.063998741769208      11.674475732035553      4.9299149934999997
   791   2      30.760103424384592      9.9763701710122081      8.0700850064999994
   792   2      30.760103424384592      9.9763701710122081      4.9299149934999997
   793   2      33.456208106999981       8.278264609988863      8.0700850064999994
   794   2      33.456208106999981       8.278264609988863      4.9299149934999997
   795   2      36.152312789615365      6.5801590489655171      8.0700850064999994
   796   2      36.152312789615365      6.5801590489655171      4.9299149934999997
   797   2       38.84841747223075      4.8820534879421702      8.0700850064999994
   798   2       38.84841747223075      4.8820534879421702      4.9299149934999997
   799   2      41.544522154846135      3.1839479269188242      8.0700850064999994
   800   2      41.544522154846135      3.1839479269188242      4.9299149934999997
   801   2      14.706025541538427      23.348951464071057      8.0700850064999994
   802   2      14.706025541538427      23.348951464071057      4.9299149934999997
   803   2      17.402130224153812       21.65084590304771      8.0700850064999994
   804   2      17.402130224153812       21.65084590304771      4.9299149934999997
   805   2        20.0982349067692      19.952740342024367      8.0700850064999994
   806   2        20.0982349067692      19.952740342024367      4.9299149934999997
   807   2      22.794339589384581       18.25463478100102      8.0700850064999994
   808   2      22.794339589384581       18.25463478100102      4.9299149934999997
   809   2      25.490444271999969      16.556529219977676      8.0700850064999994
   810   2      25.490444271999969      16.556529219977676      4.9299149934999997
   811   2      28.186548954615354      14.858423658954329      8.0700850064999994
   812   2      28.186548954615354      14.858423658954329      4.9299149934999997
   813   2      30.882653637230742      13.160318097930984      8.0700850064999994
   814   2      30.882653637230742      13.160318097930984      4.9299149934999997
   815   2      33.578758319846131      11.462212536907641      8.0700850064999994
   816   2      33.578758319846131      11.462212536907641      4.9299149934999997
   817   2      36.274863002461515      9.7641069758842942      8.0700850064999994
   818   2      36.274863002461515      9.7641069758842942      4.9299149934999997
   819   2        38.9709676850769      8.0660014148609438      8.0700850064999994
   820   2        38.9709676850769      8.0660014148609438      4.9299149934999997
   821   2      41.667072367692285      6.3678958538376014      8.0700850064999994
   822   2      41.667072367692285      6.3678958538376014      4.9299149934999997
   823   2      17.524680436999958       24.83479382996649      8.0700850064999994
   824   2      17.524680436999958       24.83479382996649      4.9299149934999997
   825   2      20.220785119615346      23.136688268943146      8.0700850064999994
   826   2      20.220785119615346      23.136688268943146      4.9299149934999997
   827   2      22.916889802230731      21.438582707919803      8.0700850064999994
   828   2      22.916889802230731      21.438582707919803      4.9299149934999997
   829   2      25.612994484846119      19.740477146896453      8.0700850064999994
   830   2      25.612994484846119      19.740477146896453      4.9299149934999997
   831   2      28.309099167461504      18.042371585873109      8.0700850064999994
   832   2      28.309099167461504      18.042371585873109      4.9299149934999997
   833   2      31.005203850076892      16.344266024849762      8.0700850064999994
   834   2      31.005203850076892      16.344266024849762      4.9299149934999997
   835   2      33.701308532692281      14.646160463826417      8.0700850064999994
   836   2      33.701308532692281      14.646160463826417      4.9299149934999997
   837   2      36.397413215307665      12.948054902803074      8.0700850064999994
   838   2      36.397413215307665      12.948054902803074      4.9299149934999997
   839   2       39.09351789792305      11.249949341779727      8.0700850064999994
   840   2       39.09351789792305      11.249949341779727      4.9299149934999997
   841   2      41.789622580538442      9.5518437807563856      8.0700850064999994
   842   2      41.789622580538442      9.5518437807563856      4.9299149934999997
   843   2      44.485727263153812      7.8537382197330352      8.0700850064999994
   844   2      44.485727263153812      7.8537382197330352      4.9299149934999997
   845   2      17.647230649846115      28.018741756885273      8.0700850064999994
   846   2      17.647230649846115      28.018741756885273      4.9299149934999997
   847   2        20.3433353324615      26.320636195861926      8.0700850064999994
   848   2        20.3433353324615      26.320636195861926      4.9299149934999997
   849   2      23.039440015076885      24.622530634838579      8.0700850064999994
   850   2      23.039440015076885      24.622530634838579      4.9299149934999997
   851   2      25.735544697692273      22.924425073815236      8.0700850064999994
   852   2      25.735544697692273      22.924425073815236      4.9299149934999997
   853   2      28.431649380307658      21.226319512791893      8.0700850064999994
   854   2      28.431649380307658      21.226319512791893      4.9299149934999997
   855   2      31.127754062923046      19.528213951768546      8.0700850064999994
   856   2      31.127754062923046      19.528213951768546      4.9299149934999997
   857   2      33.823858745538431      17.830108390745199      8.0700850064999994
   858   2      33.823858745538431      17.830108390745199      4.9299149934999997
   859   2      36.519963428153815      16.132002829721856      8.0700850064999994
   860   2      36.519963428153815      16.132002829721856      4.9299149934999997
   861   2      39.216068110769207      14.433897268698511      8.0700850064999994
   862   2      39.216068110769207      14.433897268698511      4.9299149934999997
   863   2      41.912172793384592      12.735791707675164      8.0700850064999994
   864   2      41.912172793384592      12.735791707675164      4.9299149934999997
   865   2      44.608277475999984       11.03768614665182      8.0700850064999994
   866   2      44.608277475999984       11.03768614665182      4.9299149934999997
   867   2      20.465885545307653      29.504584122780706      8.0700850064999994
   868   2      20.465885545307653      29.504584122780706      4.9299149934999997
   869   2      23.161990227923042      27.806478561757363      8.0700850064999994
   870   2      23.161990227923042      27.806478561757363      4.9299149934999997
   871   2      25.858094910538426      26.108373000734016      8.0700850064999994
   872   2      25.858094910538426      26.108373000734016      4.9299149934999997
   873   2      28.554199593153804      24.410267439710665      8.0700850064999994
   874   2      28.554199593153804      24.410267439710665      4.9299149934999997
   875   2      31.250304275769196      22.712161878687322      8.0700850064999994
   876   2      31.250304275769196      22.712161878687322      4.9299149934999997
   877   2      33.946408958384581      21.014056317663979      8.0700850064999994
   878   2      33.946408958384581      21.014056317663979      4.9299149934999997
   879   2      36.642513640999965      19.315950756640632      8.0700850064999994
   880   2      36.642513640999965      19.315950756640632      4.9299149934999997
   881   2       39.33861832361535      17.617845195617289      8.0700850064999994
   882   2       39.33861832361535      17.617845195617289      4.9299149934999997
   883   2      42.034723006230742      15.919739634593942      8.0700850064999994
   884   2      42.034723006230742      15.919739634593942      4.9299149934999997
   885   2      44.730827688846126      14.221634073570597      8.0700850064999994
   886   2      44.730827688846126      14.221634073570597      4.9299149934999997
   887   2      47.426932371461504       12.52352851254725      8.0700850064999994
   888   2      47.426932371461504       12.52352851254725      4.9299149934999997
   889   2        20.5884357581538      32.688532049699489      8.0700850064999994
   890   2        20.5884357581538      32.688532049699489      4.9299149934999997
   891   2      23.284540440769188      30.990426488676139      8.0700850064999994
   892   2      23.284540440769188      30.990426488676139      4.9299149934999997
   893   2      25.980645123384573      29.292320927652796      8.0700850064999994
   894   2      25.980645123384573      29.292320927652796      4.9299149934999997
   895   2      28.676749805999957      27.594215366629445      8.0700850064999994
   896   2      28.676749805999957      27.594215366629445      4.9299149934999997
   897   2      31.372854488615339      25.896109805606098      8.0700850064999994
   898   2      31.372854488615339      25.896109805606098      4.9299149934999997
   899   2       34.06895917123073      24.198004244582755      8.0700850064999994
   900   2       34.06895917123073      24.198004244582755      4.9299149934999997
   901   2      36.765063853846115      22.499898683559408      8.0700850064999994
   902   2      36.765063853846115      22.499898683559408      4.9299149934999997
   903   2        39.4611685364615      20.801793122536065      8.0700850064999994
   904   2        39.4611685364615      20.801793122536065      4.9299149934999997
   905   2      42.157273219076885      19.103687561512722      8.0700850064999994
   906   2      42.157273219076885      19.103687561512722      4.9299149934999997
   907   2      44.853377901692276      17.405582000489375      8.0700850064999994
   908   2      44.853377901692276      17.405582000489375      4.9299149934999997
   909   2      47.549482584307661      15.707476439466031      8.0700850064999994
   910   2      47.549482584307661      15.707476439466031      4.9299149934999997
   911   2      20.710985970999946      35.872479976618266      8.0700850064999994
   912   2      20.710985970999946      35.872479976618266      4.9299149934999997
   913   2      23.407090653615334      34.174374415594919      8.0700850064999994
   914   2      23.407090653615334      34.174374415594919      4.9299149934999997
   915   2      26.103195336230723      32.476268854571572      8.0700850064999994
   916   2      26.103195336230723      32.476268854571572      4.9299149934999997
   917   2      28.799300018846107      30.778163293548229      8.0700850064999994
   918   2      28.799300018846107      30.778163293548229      4.9299149934999997
   919   2      31.495404701461496      29.080057732524882      8.0700850064999994
   920   2      31.495404701461496      29.080057732524882      4.9299149934999997
   921   2       34.19150938407688      27.381952171501535      8.0700850064999994
   922   2       34.19150938407688      27.381952171501535      4.9299149934999997
   923   2      36.887614066692265      25.683846610478188      8.0700850064999994
   924   2      36.887614066692265      25.683846610478188      4.9299149934999997
   925   2       39.58371874930765      23.985741049454841      8.0700850064999994
   926   2       39.58371874930765      23.985741049454841      4.9299149934999997
   927   2      42.279823431923035      22.287635488431498      8.0700850064999994
   928   2      42.279823431923035      22.287635488431498      4.9299149934999997
   929   2      44.975928114538426      20.589529927408154      8.0700850064999994
   930   2      44.975928114538426      20.589529927408154      4.9299149934999997
   931   2      47.672032797153804      18.891424366384808      8.0700850064999994
   932   2      47.672032797153804      18.891424366384808      4.9299149934999997
   933   2      50.368137479769196      17.193318805361464      8.0700850064999994
   934   2      50.368137479769196      17.193318805361464      4.9299149934999997
   935   2      26.225745549076869      35.660216781490348      8.0700850064999994
   936   2      26.225745549076869      35.660216781490348      4.9299149934999997
   937   2      28.921850231692257      33.962111220467008      8.0700850064999994
   938   2      28.921850231692257      33.962111220467008      4.9299149934999997
   939   2      31.617954914307646      32.264005659443662      8.0700850064999994
   940   2      31.617954914307646      32.264005659443662      4.9299149934999997
   941   2      34.314059596923023      30.565900098420311      8.0700850064999994
   942   2      34.314059596923023      30.565900098420311      4.9299149934999997
   943   2      37.010164279538415      28.867794537396968      8.0700850064999994
   944   2      37.010164279538415      28.867794537396968      4.9299149934999997
   945   2      39.706268962153793      27.169688976373621      8.0700850064999994
   946   2      39.706268962153793      27.169688976373621      4.9299149934999997
   947   2      42.402373644769185      25.471583415350274      8.0700850064999994
   948   2      42.402373644769185      25.471583415350274      4.9299149934999997
   949   2      45.098478327384569      23.773477854326931      8.0700850064999994
   950   2      45.098478327384569      23.773477854326931      4.9299149934999997
   951   2      47.794583009999961      22.075372293303584      8.0700850064999994
   952   2      47.794583009999961      22.075372293303584      4.9299149934999997
   953   2      50.490687692615346      20.377266732280241      8.0700850064999994
   954   2      50.490687692615346      20.377266732280241      4.9299149934999997
   955   2      31.740505127153792      35.447953586362438      8.0700850064999994
   956   2      31.740505127153792      35.447953586362438      4.9299149934999997
   957   2       34.43660980976918      33.749848025339091      8.0700850064999994
   958   2       34.43660980976918      33.749848025339091      4.9299149934999997
   959   2      37.132714492384565      32.051742464315744      8.0700850064999994
   960   2      37.132714492384565      32.051742464315744      4.9299149934999997
   961   2      39.828819174999943      30.353636903292401      8.0700850064999994
   962   2      39.828819174999943      30.353636903292401      4.9299149934999997
   963   2      42.524923857615335      28.655531342269054      8.0700850064999994
   964   2      42.524923857615335      28.655531342269054      4.9299149934999997
   965   2      45.221028540230719      26.957425781245707      8.0700850064999994
   966   2      45.221028540230719      26.957425781245707      4.9299149934999997
   967   2      47.917133222846111      25.259320220222364      8.0700850064999994
   968   2      47.917133222846111      25.259320220222364      4.9299149934999997
   969   2      50.613237905461489      23.561214659199017      8.0700850064999994
   970   2      50.613237905461489      23.561214659199017      4.9299149934999997
   971   2      53.309342588076881       21.86310909817567      8.0700850064999994
   972   2      53.309342588076881       21.86310909817567      4.9299149934999997
   973   2      37.255264705230715      35.235690391234527      8.0700850064999994
   974   2      37.255264705230715      35.235690391234527      4.9299149934999997
   975   2        39.9513693878461      33.537584830211173      8.0700850064999994
   976   2        39.9513693878461      33.537584830211173      4.9299149934999997
   977   2      42.647474070461477       31.83947926918783      8.0700850064999994
   978   2      42.647474070461477       31.83947926918783      4.9299149934999997
   979   2      45.343578753076869      30.141373708164487      8.0700850064999994
   980   2      45.343578753076869      30.141373708164487      4.9299149934999997
   981   2      48.039683435692254      28.443268147141143      8.0700850064999994
   982   2      48.039683435692254      28.443268147141143      4.9299149934999997
   983   2      50.735788118307639      26.745162586117797      8.0700850064999994
   984   2      50.735788118307639      26.745162586117797      4.9299149934999997
   985   2      53.431892800923023       25.04705702509445      8.0700850064999994
   986   2      53.431892800923023       25.04705702509445      4.9299149934999997
   987   2      42.770024283307635      35.023427196106617      8.0700850064999994
   988   2      42.770024283307635      35.023427196106617      4.9299149934999997
   989   2      45.466128965923012      33.325321635083263      8.0700850064999994
   990   2      45.466128965923012      33.325321635083263      4.9299149934999997
   991   2      48.162233648538404      31.627216074059916      8.0700850064999994
   992   2      48.162233648538404      31.627216074059916      4.9299149934999997
   993   2      50.858338331153796      29.929110513036573      8.0700850064999994
   994   2      50.858338331153796      29.929110513036573      4.9299149934999997
   995   2      53.554443013769173       28.23100495201323      8.0700850064999994
   996   2      53.554443013769173       28.23100495201323      4.9299149934999997
   997   2      56.250547696384565      26.532899390989886      8.0700850064999994
   998   2      56.250547696384565      26.532899390989886      4.9299149934999997
   999   2      48.284783861384554      34.811164000978692      8.0700850064999994
  1000   2      48.284783861384554      34.811164000978692      4.9299149934999997
  1001   2      50.980888543999939      33.113058439955353      8.0700850064999994
  1002   2      50.980888543999939      33.113058439955353      4.9299149934999997
  1003   2      53.676993226615323      31.414952878932002      8.0700850064999994
  1004   2      53.676993226615323      31.414952878932002      4.9299149934999997
  1005   2      56.373097909230708      29.716847317908659      8.0700850064999994
  1006   2      56.373097909230708      29.716847317908659      4.9299149934999997
  1007   2      53.799543439461473      34.598900805850789      8.0700850064999994
  1008   2      53.799543439461473      34.598900805850789      4.9299149934999997
  1009   2      56.495648122076865      32.900795244827442      8.0700850064999994
  1010   2      56.495648122076865      32.900795244827442      4.9299149934999997
  1011   2       59.19175280469225      31.202689683804099      8.0700850064999994
  1012   2       59.19175280469225      31.202689683804099      4.9299149934999997
  1013   2      59.314303017538393      34.386637610722872      8.0700850064999994
  1014   2      59.314303017538393      34.386637610722872      4.9299149934999997
