rigid_bilayers/data_WS2_WS2_P_13 (written by ASE) 

3282 	 atoms 
2  atom types
0.0      74.628918386595771  xlo xhi
0.0      64.630539179747544  ylo yhi
0.0                      30  zlo zhi
    -37.314459193297864                       0                       0  xy xz yz


Atoms 

     1   1     0.88681530075479476      1.6147788582386648                       0
     2   1      3.6836943262122244    0.078769700401886578                       0
     3   1     0.81859873915827241      4.8049517245150515                       0
     4   1      3.6154777646157017      3.2689425666782728                       0
     5   1      6.4123567900731313      1.7329334088414943                       0
     6   1        9.20923581553056     0.19692425100471589                       0
     7   1      3.5472612030191795      6.4591154329546594                       0
     8   1      6.3441402284766086      4.9231062751178802                       0
     9   1      9.1410192539340382      3.3870971172811024                       0
    10   1      11.937898279391465      1.8510879594443239                       0
    11   1      14.734777304848896      0.3150788016075462                       0
    12   1      6.2759236668800842      8.1132791413942655                       0
    13   1      9.0728026923375147      6.5772699835574882                       0
    14   1      11.869681717794945      5.0412608257207099                       0
    15   1      14.666560743252372      3.5052516678839307                       0
    16   1      17.463439768709801      1.9692425100471525                       0
    17   1      20.260318794167233     0.43323335221037751                       0
    18   1      6.2077071052835624      11.303452007670654                       0
    19   1      9.0045861307409911      9.7674428498338735                       0
    20   1      11.801465156198422      8.2314336919970952                       0
    21   1      14.598344181655849       6.695424534160316                       0
    22   1      17.395223207113283      5.1594153763235413                       0
    23   1      20.192102232570711      3.6234062184867621                       0
    24   1       22.98898125802814      2.0873970606499839                       0
    25   1      25.785860283485569     0.55138790281320627                       0
    26   1      8.9363695691444711      12.957615716110261                       0
    27   1        11.7332485946019      11.421606558273483                       0
    28   1       14.53012762005933      9.8855974004367066                       0
    29   1      17.327006645516757      8.3495882425999266                       0
    30   1       20.12388567097419      6.8135790847631492                       0
    31   1      22.920764696431618      5.2775699269263718                       0
    32   1      25.717643721889047      3.7415607690895918                       0
    33   1      28.514522747346476      2.2055516112528126                       0
    34   1      31.311401772803904     0.66954245341603813                       0
    35   1       8.868153007547944      16.147788582386646                       0
    36   1      11.665032033005376      14.611779424549869                       0
    37   1      14.461911058462807      13.075770266713091                       0
    38   1      17.258790083920236      11.539761108876313                       0
    39   1      20.055669109377661      10.003751951039535                       0
    40   1      22.852548134835097      8.4677427932027562                       0
    41   1      25.649427160292525       6.931733635365978                       0
    42   1       28.44630618574995      5.3957244775291997                       0
    43   1      31.243185211207379      3.8597153196924188                       0
    44   1      34.040064236664804       2.323706161855644                       0
    45   1       36.83694326212224     0.78769700401886356                       0
    46   1      11.596815471408854      17.801952290826254                       0
    47   1      14.393694496866285      16.265943132989477                       0
    48   1      17.190573522323714      14.729933975152701                       0
    49   1      19.987452547781142      13.193924817315921                       0
    50   1      22.784331573238571      11.657915659479142                       0
    51   1      25.581210598696003      10.121906501642366                       0
    52   1      28.378089624153432      8.5858973438055859                       0
    53   1      31.174968649610857      7.0498881859688076                       0
    54   1       33.97184767506829      5.5138790281320285                       0
    55   1      36.768726700525711      3.9778698702952502                       0
    56   1      39.565605725983147      2.4418607124584715                       0
    57   1      42.362484751440576     0.90585155462169065                       0
    58   1      11.528598909812333      20.992125157102645                       0
    59   1      14.325477935269761      19.456115999265865                       0
    60   1      17.122356960727192      17.920106841429085                       0
    61   1      19.919235986184621      16.384097683592309                       0
    62   1      22.716115011642049       14.84808852575553                       0
    63   1      25.512994037099478       13.31207936791875                       0
    64   1       28.30987306255691      11.776070210081974                       0
    65   1      31.106752088014339      10.240061052245194                       0
    66   1      33.903631113471768      8.7040518944084173                       0
    67   1      36.700510138929197      7.1680427365716364                       0
    68   1      39.497389164386618      5.6320335787348581                       0
    69   1      42.294268189844047      4.0960244208980763                       0
    70   1      45.091147215301483      2.5600152630612985                       0
    71   1      47.888026240758919      1.0240061052245211                       0
    72   1       14.25726137367324       22.64628886554225                       0
    73   1       17.05414039913067       21.11027970770547                       0
    74   1      19.851019424588095      19.574270549868693                       0
    75   1      22.647898450045528      18.038261392031913                       0
    76   1      25.444777475502953      16.502252234195137                       0
    77   1      28.241656500960385      14.966243076358358                       0
    78   1       31.03853552641781      13.430233918521578                       0
    79   1      33.835414551875239      11.894224760684802                       0
    80   1      36.632293577332668      10.358215602848022                       0
    81   1      39.429172602790096      8.8222064450112399                       0
    82   1      42.226051628247525       7.286197287174466                       0
    83   1      45.022930653704961      5.7501881293376877                       0
    84   1      47.819809679162383      4.2141789715009068                       0
    85   1      50.616688704619818       2.678169813664129                       0
    86   1      53.413567730077247      1.1421606558273518                       0
    87   1      14.189044812076716      25.836461731818638                       0
    88   1      16.985923837534141      24.300452573981858                       0
    89   1      19.782802862991574      22.764443416145077                       0
    90   1      22.579681888449002      21.228434258308297                       0
    91   1      25.376560913906427      19.692425100471517                       0
    92   1      28.173439939363856      18.156415942634741                       0
    93   1      30.970318964821288      16.620406784797964                       0
    94   1       33.76719799027871      15.084397626961183                       0
    95   1      36.564077015736146      13.548388469124406                       0
    96   1      39.360956041193575       12.01237931128763                       0
    97   1      42.157835066651003      10.476370153450848                       0
    98   1      44.954714092108425      8.9403609956140748                       0
    99   1      47.751593117565854      7.4043518377772921                       0
   100   1       50.54847214302329      5.8683426799405147                       0
   101   1      53.345351168480725      4.3323335221037338                       0
   102   1      56.142230193938147      2.7963243642669524                       0
   103   1      58.939109219395583      1.2603152064301781                       0
   104   1      16.917707275937627      27.490625440258249                       0
   105   1      19.714586301395052      25.954616282421469                       0
   106   1      22.511465326852484      24.418607124584685                       0
   107   1      25.308344352309913      22.882597966747909                       0
   108   1      28.105223377767338      21.346588808911129                       0
   109   1      30.902102403224767      19.810579651074349                       0
   110   1      33.698981428682202      18.274570493237572                       0
   111   1      36.495860454139624      16.738561335400792                       0
   112   1       39.29273947959706      15.202552177564018                       0
   113   1      42.089618505054482      13.666543019727241                       0
   114   1       44.88649753051191      12.130533861890459                       0
   115   1      47.683376555969339      10.594524704053686                       0
   116   1      50.480255581426768      9.0585155462168991                       0
   117   1      53.277134606884204      7.5225063883801226                       0
   118   1      56.074013632341639      5.9864972305433453                       0
   119   1      58.870892657799054      4.4504880727065643                       0
   120   1       61.66777168325649      2.9144789148697896                       0
   121   1      64.464650708713918      1.3784697570330153                       0
   122   1      16.849490714341101      30.680798306534626                       0
   123   1       19.64636973979853      29.144789148697853                       0
   124   1      22.443248765255952      27.608779990861073                       0
   125   1      25.240127790713387      26.072770833024293                       0
   126   1      28.037006816170816      24.536761675187513                       0
   127   1      30.833885841628241      23.000752517350733                       0
   128   1      33.630764867085674      21.464743359513957                       0
   129   1      36.427643892543109       19.92873420167718                       0
   130   1      39.224522918000524        18.3927250438404                       0
   131   1       42.02140194345796      16.856715886003624                       0
   132   1      44.818280968915388      15.320706728166849                       0
   133   1      47.615159994372817      13.784697570330064                       0
   134   1      50.412039019830246      12.248688412493291                       0
   135   1      53.208918045287682      10.712679254656511                       0
   136   1      56.005797070745103      9.1766700968197306                       0
   137   1      58.802676096202539      7.6406609389829532                       0
   138   1      61.599555121659968      6.1046517811461758                       0
   139   1       64.39643414711739       4.568642623309394                       0
   140   1      67.193313172574832      3.0326334654726197                       0
   141   1      69.990192198032247      1.4966243076358394                       0
   142   1      19.578153178202005      32.334962014974231                       0
   143   1      22.375032203659433      30.798952857137461                       0
   144   1      25.171911229116855      29.262943699300678                       0
   145   1      27.968790254574291      27.726934541463898                       0
   146   1      30.765669280031723      26.190925383627121                       0
   147   1      33.562548305489152      24.654916225790341                       0
   148   1      36.359427330946573      23.118907067953565                       0
   149   1      39.156306356404009      21.582897910116788                       0
   150   1      41.953185381861431      20.046888752280008                       0
   151   1      44.750064407318867      18.510879594443228                       0
   152   1      47.546943432776295      16.974870436606452                       0
   153   1      50.343822458233724      15.438861278769672                       0
   154   1      53.140701483691146      13.902852120932899                       0
   155   1      55.937580509148574      12.366842963096115                       0
   156   1       58.73445953460601      10.830833805259338                       0
   157   1      61.531338560063446      9.2948246474225567                       0
   158   1      64.328217585520875      7.7588154895857766                       0
   159   1      67.125096610978304      6.2228063317490019                       0
   160   1      69.921975636435732      4.6867971739122281                       0
   161   1      72.718854661893147        3.15078801607544                       0
   162   1      19.509936616605486      35.525134881250629                       0
   163   1      22.306815642062915      33.989125723413842                       0
   164   1      25.103694667520344      32.453116565577069                       0
   165   1      27.900573692977769      30.917107407740289                       0
   166   1      30.697452718435205      29.381098249903509                       0
   167   1       33.49433174389263      27.845089092066733                       0
   168   1      36.291210769350059      26.309079934229953                       0
   169   1      39.088089794807487      24.773070776393176                       0
   170   1      41.884968820264923      23.237061618556396                       0
   171   1      44.681847845722345      21.701052460719616                       0
   172   1      47.478726871179781       20.16504330288284                       0
   173   1      50.275605896637202      18.629034145046063                       0
   174   1      53.072484922094631      17.093024987209283                       0
   175   1       55.86936394755206       15.55701582937251                       0
   176   1      58.666242973009489      14.021006671535723                       0
   177   1      61.463121998466924      12.484997513698946                       0
   178   1      64.260001023924346      10.948988355862168                       0
   179   1      67.056880049381775      9.4129791980253881                       0
   180   1      69.853759074839203      7.8769700401886062                       0
   181   1      72.650638100296646      6.3409608823518395                       0
   182   1      22.238599080466386      37.179298589690227                       0
   183   1      25.035478105923822      35.643289431853447                       0
   184   1      27.832357131381251      34.107280274016674                       0
   185   1      30.629236156838669      32.571271116179894                       0
   186   1      33.426115182296101      31.035261958343117                       0
   187   1      36.222994207753537      29.499252800506341                       0
   188   1      39.019873233210966      27.963243642669557                       0
   189   1      41.816752258668394       26.42723448483278                       0
   190   1       44.61363128412583      24.891225326996004                       0
   191   1      47.410510309583245      23.355216169159224                       0
   192   1      50.207389335040681      21.819207011322447                       0
   193   1      53.004268360498109      20.283197853485671                       0
   194   1      55.801147385955538      18.747188695648887                       0
   195   1      58.598026411412967      17.211179537812114                       0
   196   1      61.394905436870395      15.675170379975334                       0
   197   1      64.191784462327817      14.139161222138554                       0
   198   1      66.988663487785246      12.603152064301769                       0
   199   1      69.785542513242703         11.067142906465                       0
   200   1      72.582421538700117      9.5311337486282248                       0
   201   1      75.379300564157546      7.9951245907914439                       0
   202   1      22.170382518869868      40.369471455966618                       0
   203   1        24.9672615443273      38.833462298129838                       0
   204   1      27.764140569784722      37.297453140293058                       0
   205   1      30.561019595242151      35.761443982456285                       0
   206   1      33.357898620699579      34.225434824619505                       0
   207   1      36.154777646157008      32.689425666782725                       0
   208   1      38.951656671614444      31.153416508945945                       0
   209   1      41.748535697071873      29.617407351109165                       0
   210   1      44.545414722529294      28.081398193272388                       0
   211   1       47.34229374798673      26.545389035435612                       0
   212   1      50.139172773444152      25.009379877598832                       0
   213   1      52.936051798901588      23.473370719762052                       0
   214   1      55.732930824359016      21.937361561925275                       0
   215   1      58.529809849816445      20.401352404088495                       0
   216   1      61.326688875273867      18.865343246251722                       0
   217   1      64.123567900731302      17.329334088414935                       0
   218   1      66.920446926188745      15.793324930578166                       0
   219   1      69.717325951646174      14.257315772741388                       0
   220   1      72.514204977103603      12.721306614904604                       0
   221   1      75.311084002561032      11.185297457067836                       0
   222   1       78.10796302801846      9.6492882992310545                       0
   223   1      24.899044982730775       42.02363516440623                       0
   224   1      27.695924008188207       40.48762600656945                       0
   225   1      30.492803033645636      38.951616848732669                       0
   226   1      33.289682059103065      37.415607690895889                       0
   227   1      36.086561084560493      35.879598533059109                       0
   228   1      38.883440110017922      34.343589375222336                       0
   229   1      41.680319135475351      32.807580217385556                       0
   230   1       44.47719816093278      31.271571059548776                       0
   231   1      47.274077186390208         29.735561901712                       0
   232   1      50.070956211847644       28.19955274387522                       0
   233   1      52.867835237305066       26.66354358603844                       0
   234   1      55.664714262762494      25.127534428201663                       0
   235   1      58.461593288219923       23.59152527036489                       0
   236   1      61.258472313677359      22.055516112528107                       0
   237   1      64.055351339134788      20.519506954691334                       0
   238   1      66.852230364592216      18.983497796854554                       0
   239   1      69.649109390049645      17.447488639017777                       0
   240   1      72.445988415507074      15.911479481180999                       0
   241   1      75.242867440964503      14.375470323344215                       0
   242   1      78.039746466421931      12.839461165507434                       0
   243   1       24.83082842113425      45.213808030682614                       0
   244   1      27.627707446591682      43.677798872845834                       0
   245   1      30.424586472049107      42.141789715009054                       0
   246   1      33.221465497506543      40.605780557172274                       0
   247   1      36.018344522963972      39.069771399335501                       0
   248   1      38.815223548421393      37.533762241498721                       0
   249   1      41.612102573878822      35.997753083661941                       0
   250   1      44.408981599336258      34.461743925825168                       0
   251   1      47.205860624793686      32.925734767988381                       0
   252   1      50.002739650251115      31.389725610151604                       0
   253   1      52.799618675708544      29.853716452314828                       0
   254   1      55.596497701165966      28.317707294478048                       0
   255   1      58.393376726623394      26.781698136641264                       0
   256   1      61.190255752080837      25.245688978804495                       0
   257   1      63.987134777538266      23.709679820967718                       0
   258   1      66.784013802995688      22.173670663130938                       0
   259   1      69.580892828453131      20.637661505294165                       0
   260   1      72.377771853910545      19.101652347457382                       0
   261   1      75.174650879367974      17.565643189620598                       0
   262   1      77.971529904825417      16.029634031783825                       0
   263   1      80.768408930282845      14.493624873947045                       0
   264   1      27.559490884995157      46.867971739122218                       0
   265   1      30.356369910452589      45.331962581285438                       0
   266   1      33.153248935910021      43.795953423448665                       0
   267   1      35.950127961367443      42.259944265611878                       0
   268   1      38.747006986824871      40.723935107775105                       0
   269   1        41.5438860122823      39.187925949938325                       0
   270   1      44.340765037739729      37.651916792101545                       0
   271   1      47.137644063197165      36.115907634264772                       0
   272   1      49.934523088654593      34.579898476427992                       0
   273   1      52.731402114112015      33.043889318591212                       0
   274   1      55.528281139569444      31.507880160754429                       0
   275   1      58.325160165026887      29.971871002917659                       0
   276   1      61.122039190484315      28.435861845080883                       0
   277   1      63.918918215941737      26.899852687244099                       0
   278   1      66.715797241399173       25.36384352940733                       0
   279   1      69.512676266856602       23.82783437157055                       0
   280   1       72.30955529231403      22.291825213733762                       0
   281   1      75.106434317771459      20.755816055896993                       0
   282   1      77.903313343228888      19.219806898060209                       0
   283   1      80.700192368686317      17.683797740223429                       0
   284   1      27.491274323398642       50.05814460539861                       0
   285   1      30.288153348856071       48.52213544756183                       0
   286   1      33.085032374313492       46.98612628972505                       0
   287   1      35.881911399770928      45.450117131888277                       0
   288   1      38.678790425228357       43.91410797405149                       0
   289   1      41.475669450685785      42.378098816214717                       0
   290   1      44.272548476143214      40.842089658377937                       0
   291   1      47.069427501600636      39.306080500541157                       0
   292   1      49.866306527058072      37.770071342704384                       0
   293   1      52.663185552515507      36.234062184867604                       0
   294   1      55.460064577972936      34.698053027030824                       0
   295   1      58.256943603430365      33.162043869194051                       0
   296   1      61.053822628887794      31.626034711357271                       0
   297   1      63.850701654345222      30.090025553520494                       0
   298   1      66.647580679802644      28.554016395683711                       0
   299   1      69.444459705260087      27.018007237846941                       0
   300   1      72.241338730717516      25.481998080010161                       0
   301   1      75.038217756174944      23.945988922173374                       0
   302   1      77.835096781632373      22.409979764336605                       0
   303   1      80.631975807089802      20.873970606499821                       0
   304   1      83.428854832547231      19.337961448663041                       0
   305   1      30.219936787259535      51.712308313838214                       0
   306   1      33.016815812716963      50.176299156001434                       0
   307   1      35.813694838174392      48.640289998164654                       0
   308   1      38.610573863631828      47.104280840327874                       0
   309   1      41.407452889089257      45.568271682491094                       0
   310   1      44.204331914546685      44.032262524654321                       0
   311   1      47.001210940004114      42.496253366817534                       0
   312   1      49.798089965461536      40.960244208980761                       0
   313   1      52.594968990918971      39.424235051143981                       0
   314   1      55.391848016376414      37.888225893307215                       0
   315   1      58.188727041833836      36.352216735470428                       0
   316   1      60.985606067291265      34.816207577633655                       0
   317   1      63.782485092748693      33.280198419796875                       0
   318   1      66.579364118206115      31.744189261960091                       0
   319   1      69.376243143663544      30.208180104123315                       0
   320   1      72.173122169120987      28.672170946286538                       0
   321   1      74.970001194578415      27.136161788449765                       0
   322   1      77.766880220035844      25.600152630612978                       0
   323   1      80.563759245493273      24.064143472776209                       0
   324   1      83.360638270950702      22.528134314939425                       0
   325   1       30.15172022566302      54.902481180114599                       0
   326   1      32.948599251120449      53.366472022277826                       0
   327   1      35.745478276577877      51.830462864441039                       0
   328   1      38.542357302035306      50.294453706604266                       0
   329   1      41.339236327492735      48.758444548767486                       0
   330   1      44.136115352950164      47.222435390930706                       0
   331   1      46.932994378407585      45.686426233093925                       0
   332   1      49.729873403865035      44.150417075257153                       0
   333   1      52.526752429322457       42.61440791742038                       0
   334   1      55.323631454779886      41.078398759583592                       0
   335   1      58.120510480237321      39.542389601746827                       0
   336   1      60.917389505694743      38.006380443910039                       0
   337   1      63.714268531152172      36.470371286073259                       0
   338   1      66.511147556609615      34.934362128236486                       0
   339   1      69.308026582067029      33.398352970399706                       0
   340   1      72.104905607524458      31.862343812562926                       0
   341   1      74.901784632981901       30.32633465472615                       0
   342   1       77.69866365843933      28.790325496889377                       0
   343   1      80.495542683896758       27.25431633905259                       0
   344   1      83.292421709354173      25.718307181215813                       0
   345   1      86.089300734811602      24.182298023379037                       0
   346   1      32.880382689523934       56.55664488855421                       0
   347   1      35.677261714981363       55.02063573071743                       0
   348   1      38.474140740438784       53.48462657288065                       0
   349   1      41.271019765896213      51.948617415043877                       0
   350   1      44.067898791353649      50.412608257207097                       0
   351   1      46.864777816811085      48.876599099370317                       0
   352   1      49.661656842268506      47.340589941533544                       0
   353   1      52.458535867725942      45.804580783696764                       0
   354   1      55.255414893183364      44.268571625859991                       0
   355   1      58.052293918640792      42.732562468023204                       0
   356   1      60.849172944098235      41.196553310186438                       0
   357   1      63.646051969555657      39.660544152349651                       0
   358   1      66.442930995013086      38.124534994512871                       0
   359   1      69.239810020470529      36.588525836676098                       0
   360   1      72.036689045927943      35.052516678839318                       0
   361   1      74.833568071385372      33.516507521002538                       0
   362   1      77.630447096842801      31.980498363165761                       0
   363   1      80.427326122300229      30.444489205328981                       0
   364   1      83.224205147757658      28.908480047492201                       0
   365   1      86.021084173215087      27.372470889655425                       0
   366   1      32.812166127927398      59.746817754830587                       0
   367   1      35.609045153384834      58.210808596993814                       0
   368   1      38.405924178842255      56.674799439157034                       0
   369   1      41.202803204299684      55.138790281320254                       0
   370   1      43.999682229757113      53.602781123483474                       0
   371   1      46.796561255214556      52.066771965646709                       0
   372   1      49.593440280671985      50.530762807809921                       0
   373   1      52.390319306129406      48.994753649973148                       0
   374   1      55.187198331586842      47.458744492136368                       0
   375   1      57.984077357044264      45.922735334299588                       0
   376   1      60.780956382501692      44.386726176462808                       0
   377   1      63.577835407959135      42.850717018626035                       0
   378   1      66.374714433416557      41.314707860789255                       0
   379   1      69.171593458873986      39.778698702952475                       0
   380   1      71.968472484331429      38.242689545115702                       0
   381   1      74.765351509788843      36.706680387278922                       0
   382   1      77.562230535246272      35.170671229442135                       0
   383   1        80.3591095607037      33.634662071605369                       0
   384   1      83.155988586161129      32.098652913768582                       0
   385   1      85.952867611618558      30.562643755931806                       0
   386   1      88.749746637075987      29.026634598095029                       0
   387   1      35.540828591788305      61.400981463270199                       0
   388   1      38.337707617245734      59.864972305433419                       0
   389   1      41.134586642703177      58.328963147596646                       0
   390   1      43.931465668160605      56.792953989759873                       0
   391   1      46.728344693618027      55.256944831923086                       0
   392   1      49.525223719075463       53.72093567408632                       0
   393   1      52.322102744532891      52.184926516249533                       0
   394   1      55.118981769990313      50.648917358412753                       0
   395   1      57.915860795447756       49.11290820057598                       0
   396   1      60.712739820905178        47.5768990427392                       0
   397   1      63.509618846362606       46.04088988490242                       0
   398   1      66.306497871820042      44.504880727065647                       0
   399   1      69.103376897277471      42.968871569228867                       0
   400   1        71.9002559227349      41.432862411392087                       0
   401   1      74.697134948192328      39.896853253555307                       0
   402   1      77.494013973649743      38.360844095718534                       0
   403   1      80.290892999107172      36.824834937881747                       0
   404   1      83.087772024564615      35.288825780044981                       0
   405   1      85.884651050022043      33.752816622208194                       0
   406   1      88.681530075479472      32.216807464371421                       0
   407   1       35.47261203019179      64.591154329546583                       0
   408   1      38.269491055649226       63.05514517170981                       0
   409   1      41.066370081106662      61.519136013873045                       0
   410   1      43.863249106564083      59.983126856036257                       0
   411   1      46.660128132021512      58.447117698199484                       0
   412   1      49.457007157478934      56.911108540362697                       0
   413   1      52.253886182936377      55.375099382525931                       0
   414   1      55.050765208393805      53.839090224689144                       0
   415   1      57.847644233851227      52.303081066852364                       0
   416   1       60.64452325930867      50.767071909015591                       0
   417   1      63.441402284766092      49.231062751178811                       0
   418   1      66.238281310223513      47.695053593342031                       0
   419   1      69.035160335680942      46.159044435505258                       0
   420   1      71.832039361138371      44.623035277668471                       0
   421   1      74.628918386595799      43.087026119831698                       0
   422   1      77.425797412053242      41.551016961994918                       0
   423   1      80.222676437510657      40.015007804158145                       0
   424   1      83.019555462968086      38.478998646321358                       0
   425   1      85.816434488425529      36.942989488484592                       0
   426   1      88.613313513882957      35.406980330647805                       0
   427   1      91.410192539340386      33.870971172811025                       0
   428   1      43.795032544967562      63.173299722312649                       0
   429   1      46.591911570424983      61.637290564475862                       0
   430   1      49.388790595882412      60.101281406639082                       0
   431   1      52.185669621339834      58.565272248802302                       0
   432   1      54.982548646797277      57.029263090965529                       0
   433   1      57.779427672254705      55.493253933128749                       0
   434   1      60.576306697712127      53.957244775291969                       0
   435   1       63.37318572316957      52.421235617455196                       0
   436   1      66.170064748626999      50.885226459618416                       0
   437   1      68.966943774084413      49.349217301781628                       0
   438   1      71.763822799541842      47.813208143944863                       0
   439   1      74.560701824999271      46.277198986108075                       0
   440   1      77.357580850456699      44.741189828271303                       0
   441   1      80.154459875914142      43.205180670434522                       0
   442   1      82.951338901371557       41.66917151259775                       0
   443   1      85.748217926828985      40.133162354760962                       0
   444   1      88.545096952286428      38.597153196924189                       0
   445   1      91.341975977743857      37.061144039087409                       0
   446   1      49.320574034285897      63.291454272915473                       0
   447   1      52.117453059743326      61.755445115078693                       0
   448   1      54.914332085200748      60.219435957241913                       0
   449   1      57.711211110658191       58.68342679940514                       0
   450   1      60.508090136115619       57.14741764156836                       0
   451   1      63.304969161573041       55.61140848373158                       0
   452   1       66.10184818703047        54.0753993258948                       0
   453   1      68.898727212487898      52.539390168058027                       0
   454   1      71.695606237945313       51.00338101022124                       0
   455   1      74.492485263402756      49.467371852384474                       0
   456   1      77.289364288860185      47.931362694547687                       0
   457   1      80.086243314317613      46.395353536710914                       0
   458   1      82.883122339775056      44.859344378874134                       0
   459   1      85.680001365232471      43.323335221037354                       0
   460   1        88.4768803906899      41.787326063200574                       0
   461   1      91.273759416147342      40.251316905363801                       0
   462   1      94.070638441604771      38.715307747527021                       0
   463   1       54.84611552360424      63.409608823518305                       0
   464   1      57.642994549061662      61.873599665681525                       0
   465   1       60.43987357451909      60.337590507844752                       0
   466   1      63.236752599976519      58.801581350007964                       0
   467   1      66.033631625433941      57.265572192171192                       0
   468   1      68.830510650891384      55.729563034334411                       0
   469   1      71.627389676348812      54.193553876497639                       0
   470   1      74.424268701806227      52.657544718660851                       0
   471   1       77.22114772726367      51.121535560824086                       0
   472   1      80.018026752721099      49.585526402987298                       0
   473   1      82.814905778178527      48.049517245150518                       0
   474   1       85.61178480363597      46.513508087313745                       0
   475   1      88.408663829093385      44.977498929476965                       0
   476   1      91.205542854550814      43.441489771640185                       0
   477   1      94.002421880008242      41.905480613803412                       0
   478   1      60.371657012922562      63.527763374121122                       0
   479   1       63.16853603837999      61.991754216284356                       0
   480   1      65.965415063837412      60.455745058447569                       0
   481   1      68.762294089294841      58.919735900610796                       0
   482   1      71.559173114752284      57.383726742774016                       0
   483   1      74.356052140209712      55.847717584937243                       0
   484   1      77.152931165667127      54.311708427100456                       0
   485   1       79.94981019112457      52.775699269263683                       0
   486   1      82.746689216581998      51.239690111426903                       0
   487   1      85.543568242039427      49.703680953590123                       0
   488   1       88.34044726749687       48.16767179575335                       0
   489   1      91.137326292954285       46.63166263791657                       0
   490   1      93.934205318411699       45.09565348007979                       0
   491   1      96.731084343869142      43.559644322243017                       0
   492   1      65.897198502240911      63.645917924723967                       0
   493   1      68.694077527698326       62.10990876688718                       0
   494   1      71.490956553155755      60.573899609050407                       0
   495   1      74.287835578613198      59.037890451213627                       0
   496   1      77.084714604070626      57.501881293376847                       0
   497   1      79.881593629528041      55.965872135540067                       0
   498   1      82.678472654985484      54.429862977703294                       0
   499   1      85.475351680442913      52.893853819866514                       0
   500   1      88.272230705900341      51.357844662029734                       0
   501   1       91.06910973135777      49.821835504192961                       0
   502   1      93.865988756815185      48.285826346356181                       0
   503   1      96.662867782272613      46.749817188519394                       0
   504   1       71.42273999155924      63.764072475326792                       0
   505   1      74.219619017016669      62.228063317490012                       0
   506   1      77.016498042474112      60.692054159653239                       0
   507   1       79.81337706793154      59.156045001816459                       0
   508   1      82.610256093388955      57.620035843979679                       0
   509   1      85.407135118846384      56.084026686142906                       0
   510   1      88.204014144303812      54.548017528306126                       0
   511   1      91.000893169761241      53.012008370469346                       0
   512   1      93.797772195218684      51.475999212632566                       0
   513   1      96.594651220676099      49.939990054795793                       0
   514   1      99.391530246133527      48.403980896959006                       0
   515   1      76.948281480877569      63.882227025929616                       0
   516   1      79.745160506335012      62.346217868092843                       0
   517   1       82.54203953179244      60.810208710256063                       0
   518   1      85.338918557249841      59.274199552419283                       0
   519   1      88.135797582707283       57.73819039458251                       0
   520   1      90.932676608164712      56.202181236745723                       0
   521   1      93.729555633622141       54.66617207890895                       0
   522   1      96.526434659079584       53.13016292107217                       0
   523   1      99.323313684536998      51.594153763235397                       0
   524   1      82.473822970195911      64.000381576532462                       0
   525   1       85.27070199565334      62.464372418695675                       0
   526   1      88.067581021110755      60.928363260858887                       0
   527   1      90.864460046568198      59.392354103022122                       0
   528   1      93.661339072025626      57.856344945185334                       0
   529   1      96.458218097483055      56.320335787348561                       0
   530   1      99.255097122940498      54.784326629511781                       0
   531   1      102.05197614839791      53.248317471675001                       0
   532   1      87.999364459514254      64.118536127135286                       0
   533   1      90.796243484971669      62.582526969298499                       0
   534   1      93.593122510429112      61.046517811461733                       0
   535   1       96.39000153588654      59.510508653624946                       0
   536   1      99.186880561343969      57.974499495788166                       0
   537   1      101.98375958680141      56.438490337951393                       0
   538   1      93.524905948832568       64.23669067773811                       0
   539   1      96.321784974290011       62.70068151990133                       0
   540   1       99.11866399974744       61.16467236206455                       0
   541   1      101.91554302520487       59.62866320422777                       0
   542   1      104.71242205066231      58.092654046390997                       0
   543   1      99.050447438150925      64.354845228340935                       0
   544   1      101.84732646360835      62.818836070504162                       0
   545   1      104.64420548906577      61.282826912667382                       0
   546   1      104.57598892746925      64.472999778943773                       0
   547   1      107.37286795292668         62.936990621107                       0
   548   1      2.7968790254574243      1.5360091578367876                     6.5
   549   1      2.8650955870539376      4.7261820241131742                     6.5
   550   1      5.5937580509148486      3.0720183156735752                     6.5
   551   1      8.3224205147757608      1.4178546072339764                     6.5
   552   1      5.6619746125113606      6.2621911819499614                     6.5
   553   1      8.3906370763722737      4.6080274735103623                     6.5
   554   1      11.119299540233186      2.9538637650707638                     6.5
   555   1      13.847962004094096      1.2997000566311638                     6.5
   556   1      5.7301911741078753      9.4523640482263485                     6.5
   557   1      8.4588536379687849      7.7982003397867494                     6.5
   558   1      11.187516101829697      6.1440366313471504                     6.5
   559   1      13.916178565690609      4.4898729229075514                     6.5
   560   1      16.644841029551522      2.8357092144679528                     6.5
   561   1      19.373503493412436      1.1815455060283546                     6.5
   562   1      8.5270701995652995      10.988373206063137                     6.5
   563   1      11.255732663426212      9.3342094976235366                     6.5
   564   1      13.984395127287124      7.6800457891839384                     6.5
   565   1      16.713057591148033      6.0258820807443376                     6.5
   566   1      19.441720055008943      4.3717183723047413                     6.5
   567   1      22.170382518869857      2.7175546638651427                     6.5
   568   1      24.899044982730771      1.0633909554255432                     6.5
   569   1      8.5952867611618107      14.178546072339522                     6.5
   570   1      11.323949225022721      12.524382363899923                     6.5
   571   1      14.052611688883633      10.870218655460324                     6.5
   572   1      16.781274152744547      9.2160549470207247                     6.5
   573   1      19.509936616605462      7.5618912385811266                     6.5
   574   1      22.238599080466372      5.9077275301415275                     6.5
   575   1      24.967261544327286      4.2535638217019285                     6.5
   576   1      27.695924008188193      2.5994001132623277                     6.5
   577   1      30.424586472049107     0.94523640482272975                     6.5
   578   1      11.392165786619238      15.714555230176311                     6.5
   579   1      14.120828250480148       14.06039152173671                     6.5
   580   1      16.849490714341059      12.406227813297113                     6.5
   581   1      19.578153178201973      10.752064104857514                     6.5
   582   1      22.306815642062883      9.0979003964179146                     6.5
   583   1      25.035478105923797      7.4437366879783156                     6.5
   584   1      27.764140569784704      5.7895729795387147                     6.5
   585   1      30.492803033645618      4.1354092710991157                     6.5
   586   1      33.221465497506529      2.4812455626595158                     6.5
   587   1      35.950127961367443     0.82708185421991953                     6.5
   588   1      11.460382348215751      18.904728096452697                     6.5
   589   1      14.189044812076661      17.250564388013096                     6.5
   590   1       16.91770727593757      15.596400679573499                     6.5
   591   1      19.646369739798484        13.9422369711339                     6.5
   592   1      22.375032203659394      12.288073262694301                     6.5
   593   1      25.103694667520308      10.633909554254702                     6.5
   594   1      27.832357131381219      8.9797458458151027                     6.5
   595   1      30.561019595242133      7.3255821373755046                     6.5
   596   1      33.289682059103043      5.6714184289359055                     6.5
   597   1      36.018344522963957      4.0172547204963074                     6.5
   598   1      38.747006986824871      2.3630910120567092                     6.5
   599   1      41.475669450685778     0.70892730361710798                     6.5
   600   1      14.257261373673176      20.440737254289484                     6.5
   601   1      16.985923837534088      18.786573545849887                     6.5
   602   1      19.714586301394998      17.132409837410286                     6.5
   603   1      22.443248765255909      15.478246128970687                     6.5
   604   1      25.171911229116823       13.82408242053109                     6.5
   605   1      27.900573692977733      12.169918712091491                     6.5
   606   1      30.629236156838648      10.515755003651893                     6.5
   607   1      33.357898620699558      8.8615912952122926                     6.5
   608   1      36.086561084560472      7.2074275867726953                     6.5
   609   1      38.815223548421379      5.5532638783330937                     6.5
   610   1        41.5438860122823      3.8991001698934991                     6.5
   611   1        44.2725484761432      2.2449364614538978                     6.5
   612   1      47.001210940004114     0.59077275301429644                     6.5
   613   1      14.325477935269687      23.630910120565876                     6.5
   614   1      17.054140399130599      21.976746412126275                     6.5
   615   1       19.78280286299151      20.322582703686674                     6.5
   616   1      22.511465326852424      18.668418995247073                     6.5
   617   1      25.240127790713334      17.014255286807476                     6.5
   618   1      27.968790254574248      15.360091578367877                     6.5
   619   1      30.697452718435159      13.705927869928276                     6.5
   620   1      33.426115182296066      12.051764161488675                     6.5
   621   1       36.15477764615698      10.397600453049083                     6.5
   622   1      38.883440110017887      8.7434367446094825                     6.5
   623   1      41.612102573878801      7.0892730361698817                     6.5
   624   1      44.340765037739715      5.4351093277302853                     6.5
   625   1      47.069427501600629      3.7809456192906841                     6.5
   626   1      49.798089965461543      2.1267819108510864                     6.5
   627   1       52.52675242932245     0.47261820241148489                     6.5
   628   1      17.122356960727114      25.166919278402663                     6.5
   629   1      19.851019424588024      23.512755569963062                     6.5
   630   1      22.579681888448938      21.858591861523465                     6.5
   631   1      25.308344352309845       20.20442815308386                     6.5
   632   1      28.037006816170763      18.550264444644263                     6.5
   633   1       30.76566928003167      16.896100736204662                     6.5
   634   1       33.49433174389258      15.241937027765063                     6.5
   635   1      36.222994207753494      13.587773319325466                     6.5
   636   1      38.951656671614408      11.933609610885867                     6.5
   637   1      41.680319135475322       10.27944590244627                     6.5
   638   1      44.408981599336229      8.6252821940066671                     6.5
   639   1      47.137644063197136       6.971118485567068                     6.5
   640   1      49.866306527058057      5.3169547771274734                     6.5
   641   1      52.594968990918964      3.6627910686878722                     6.5
   642   1      55.323631454779886      2.0086273602482745                     6.5
   643   1      58.052293918640785     0.35446365180867334                     6.5
   644   1      17.190573522323621      28.357092144679044                     6.5
   645   1      19.919235986184532      26.702928436239446                     6.5
   646   1      22.647898450045442      25.048764727799846                     6.5
   647   1      25.376560913906356      23.394601019360248                     6.5
   648   1      28.105223377767267      21.740437310920647                     6.5
   649   1      30.833885841628181       20.08627360248105                     6.5
   650   1      33.562548305489095      18.432109894041449                     6.5
   651   1      36.291210769350002      16.777946185601849                     6.5
   652   1      39.019873233210923      15.123782477162253                     6.5
   653   1      41.748535697071823      13.469618768722652                     6.5
   654   1      44.477198160932744      11.815455060283055                     6.5
   655   1      47.205860624793651      10.161291351843454                     6.5
   656   1      49.934523088654572       8.507127643403857                     6.5
   657   1      52.663185552515472      6.8529639349642562                     6.5
   658   1      55.391848016376386      5.1988002265246553                     6.5
   659   1      58.120510480237307      3.5446365180850608                     6.5
   660   1      60.849172944098214      1.8904728096454595                     6.5
   661   1      63.577835407959121     0.23630910120586787                     6.5
   662   1       19.98745254778105      29.893101302515831                     6.5
   663   1      22.716115011641961      28.238937594076237                     6.5
   664   1      25.444777475502875      26.584773885636636                     6.5
   665   1      28.173439939363789      24.930610177197039                     6.5
   666   1      30.902102403224699      23.276446468757438                     6.5
   667   1       33.63076486708561      21.622282760317841                     6.5
   668   1      36.359427330946517       19.96811905187824                     6.5
   669   1      39.088089794807431      18.313955343438639                     6.5
   670   1      41.816752258668345      16.659791634999042                     6.5
   671   1      44.545414722529259      15.005627926559443                     6.5
   672   1      47.274077186390166      13.351464218119846                     6.5
   673   1       50.00273965025108      11.697300509680243                     6.5
   674   1      52.731402114111994      10.043136801240648                     6.5
   675   1      55.460064577972908      8.3889730928010469                     6.5
   676   1      58.188727041833815      6.7348093843614452                     6.5
   677   1      60.917389505694729       5.080645675921847                     6.5
   678   1      63.646051969555643      3.4264819674822458                     6.5
   679   1      66.374714433416557      1.7723182590426545                     6.5
   680   1      69.103376897277457     0.11815455060305938                     6.5
   681   1      20.055669109377561      33.083274168792215                     6.5
   682   1      22.784331573238475      31.429110460352621                     6.5
   683   1      25.512994037099386      29.774946751913024                     6.5
   684   1      28.241656500960296       28.12078304347342                     6.5
   685   1      30.970318964821207      26.466619335033823                     6.5
   686   1      33.698981428682117      24.812455626594225                     6.5
   687   1      36.427643892543031      23.158291918154628                     6.5
   688   1      39.156306356403945      21.504128209715027                     6.5
   689   1      41.884968820264852      19.849964501275426                     6.5
   690   1      44.613631284125766      18.195800792835829                     6.5
   691   1      47.342293747986673      16.541637084396228                     6.5
   692   1      50.070956211847594      14.887473375956631                     6.5
   693   1      52.799618675708508      13.233309667517029                     6.5
   694   1      55.528281139569408      11.579145959077429                     6.5
   695   1      58.256943603430329      9.9249822506378322                     6.5
   696   1      60.985606067291236      8.2708185421982314                     6.5
   697   1      63.714268531152157      6.6166548337586333                     6.5
   698   1      66.442930995013057      4.9624911253190316                     6.5
   699   1      69.171593458873971      3.3083274168794365                     6.5
   700   1      71.900255922734885      1.6541637084398391                     6.5
   701   1       22.85254813483499      34.619283326629009                     6.5
   702   1        25.5812105986959      32.965119618189412                     6.5
   703   1      28.309873062556811      31.310955909749811                     6.5
   704   1      31.038535526417721      29.656792201310211                     6.5
   705   1      33.767197990278639      28.002628492870613                     6.5
   706   1      36.495860454139546      26.348464784431012                     6.5
   707   1       39.22452291800046      24.694301075991415                     6.5
   708   1      41.953185381861374      23.040137367551814                     6.5
   709   1      44.681847845722281      21.385973659112217                     6.5
   710   1      47.410510309583195       19.73180995067262                     6.5
   711   1      50.139172773444102      18.077646242233019                     6.5
   712   1      52.867835237305023      16.423482533793422                     6.5
   713   1       55.59649770116593      14.769318825353817                     6.5
   714   1      58.325160165026837      13.115155116914224                     6.5
   715   1      61.053822628887751      11.460991408474625                     6.5
   716   1      63.782485092748665      9.8068277000350239                     6.5
   717   1      66.511147556609586      8.1526639915954267                     6.5
   718   1      69.239810020470486      6.4985002831558285                     6.5
   719   1        71.9684724843314      4.8443365747162233                     6.5
   720   1      74.697134948192314      3.1901728662766389                     6.5
   721   1      22.920764696431501      37.809456192905394                     6.5
   722   1      25.649427160292412      36.155292484465797                     6.5
   723   1      28.378089624153322      34.501128776026192                     6.5
   724   1      31.106752088014229      32.846965067586602                     6.5
   725   1      33.835414551875139      31.192801359146998                     6.5
   726   1      36.564077015736061        29.5386376507074                     6.5
   727   1      39.292739479596968        27.8844739422678                     6.5
   728   1      42.021401943457889      26.230310233828202                     6.5
   729   1      44.750064407318789      24.576146525388602                     6.5
   730   1      47.478726871179703      22.921982816949001                     6.5
   731   1      50.207389335040617      21.267819108509403                     6.5
   732   1      52.936051798901531      19.613655400069806                     6.5
   733   1      55.664714262762438      17.959491691630205                     6.5
   734   1      58.393376726623352      16.305327983190608                     6.5
   735   1      61.122039190484266      14.651164274751009                     6.5
   736   1       63.85070165434518      12.997000566311408                     6.5
   737   1      66.579364118206087      11.342836857871811                     6.5
   738   1      69.308026582067001      9.6886731494322049                     6.5
   739   1      72.036689045927915      8.0345094409926148                     6.5
   740   1      74.765351509788829      6.3803457325530166                     6.5
   741   1      25.717643721888923      39.345465350742181                     6.5
   742   1       28.44630618574983      37.691301642302584                     6.5
   743   1      31.174968649610747      36.037137933862986                     6.5
   744   1      33.903631113471654      34.382974225423382                     6.5
   745   1      36.632293577332568      32.728810516983785                     6.5
   746   1      39.360956041193475      31.074646808544184                     6.5
   747   1      42.089618505054389      29.420483100104587                     6.5
   748   1      44.818280968915303       27.76631939166499                     6.5
   749   1      47.546943432776217      26.112155683225389                     6.5
   750   1      50.275605896637124      24.457991974785788                     6.5
   751   1      53.004268360498038      22.803828266346191                     6.5
   752   1      55.732930824358945       21.14966455790659                     6.5
   753   1      58.461593288219866      19.495500849466993                     6.5
   754   1       61.19025575208078      17.841337141027392                     6.5
   755   1       63.91891821594168      16.187173432587798                     6.5
   756   1      66.647580679802587      14.533009724148194                     6.5
   757   1      69.376243143663515      12.878846015708604                     6.5
   758   1      72.104905607524429      11.224682307268999                     6.5
   759   1      74.833568071385329      9.5705185988294001                     6.5
   760   1      77.562230535246243      7.9163548903897958                     6.5
   761   1      25.785860283485434      42.535638217018565                     6.5
   762   1      28.514522747346351      40.881474508578968                     6.5
   763   1      31.243185211207262      39.227310800139371                     6.5
   764   1      33.971847675068176      37.573147091699774                     6.5
   765   1      36.700510138929083      35.918983383260176                     6.5
   766   1      39.429172602789997      34.264819674820572                     6.5
   767   1      42.157835066650911      32.610655966380975                     6.5
   768   1      44.886497530511818      30.956492257941374                     6.5
   769   1      47.615159994372732       29.30232854950178                     6.5
   770   1      50.343822458233646      27.648164841062179                     6.5
   771   1      53.072484922094553      25.994001132622579                     6.5
   772   1      55.801147385955467      24.339837424182981                     6.5
   773   1      58.529809849816374      22.685673715743384                     6.5
   774   1      61.258472313677295      21.031510007303787                     6.5
   775   1      63.987134777538202      19.377346298864182                     6.5
   776   1      66.715797241399116      17.723182590424585                     6.5
   777   1      69.444459705260016      16.069018881984981                     6.5
   778   1      72.173122169120944      14.414855173545391                     6.5
   779   1      74.901784632981858      12.760691465105785                     6.5
   780   1      77.630447096842758      11.106527756666187                     6.5
   781   1      28.582739308942859       44.07164737485536                     6.5
   782   1      31.311401772803769      42.417483666415762                     6.5
   783   1      34.040064236664684      40.763319957976158                     6.5
   784   1       36.76872670052559      39.109156249536554                     6.5
   785   1      39.497389164386512      37.454992541096964                     6.5
   786   1      42.226051628247411      35.800828832657359                     6.5
   787   1      44.954714092108333      34.146665124217762                     6.5
   788   1       47.68337655596924      32.492501415778165                     6.5
   789   1      50.412039019830161      30.838337707338564                     6.5
   790   1      53.140701483691061      29.184173998898963                     6.5
   791   1      55.869363947551975      27.530010290459362                     6.5
   792   1      58.598026411412889      25.875846582019765                     6.5
   793   1      61.326688875273803      24.221682873580168                     6.5
   794   1      64.055351339134717      22.567519165140563                     6.5
   795   1      66.784013802995631      20.913355456700973                     6.5
   796   1      69.512676266856545      19.259191748261379                     6.5
   797   1      72.241338730717445      17.605028039821775                     6.5
   798   1      74.970001194578359      15.950864331382176                     6.5
   799   1      77.698663658439258      14.296700622942572                     6.5
   800   1      80.427326122300187       12.64253691450298                     6.5
   801   1      28.650955870539374      47.261820241131751                     6.5
   802   1      31.379618334400284      45.607656532692147                     6.5
   803   1      34.108280798261198       43.95349282425255                     6.5
   804   1      36.836943262122105      42.299329115812945                     6.5
   805   1      39.565605725983019      40.645165407373348                     6.5
   806   1      42.294268189843933      38.991001698933751                     6.5
   807   1      45.022930653704847      37.336837990494146                     6.5
   808   1      47.751593117565754      35.682674282054549                     6.5
   809   1      50.480255581426668      34.028510573614952                     6.5
   810   1      53.208918045287582      32.374346865175355                     6.5
   811   1      55.937580509148496      30.720183156735754                     6.5
   812   1      58.666242973009403      29.066019448296156                     6.5
   813   1      61.394905436870317      27.411855739856552                     6.5
   814   1      64.123567900731231      25.757692031416958                     6.5
   815   1      66.852230364592131       24.10352832297735                     6.5
   816   1      69.580892828453045      22.449364614537757                     6.5
   817   1      72.309555292313959      20.795200906098167                     6.5
   818   1      75.038217756174873      19.141037197658562                     6.5
   819   1      77.766880220035773      17.486873489218965                     6.5
   820   1      80.495542683896701      15.832709780779361                     6.5
   821   1      31.447834895996792      48.797829398968531                     6.5
   822   1      34.176497359857706      47.143665690528934                     6.5
   823   1       36.90515982371862      45.489501982089337                     6.5
   824   1      39.633822287579534      43.835338273649732                     6.5
   825   1      42.362484751440448      42.181174565210135                     6.5
   826   1      45.091147215301355      40.527010856770538                     6.5
   827   1      47.819809679162262      38.872847148330933                     6.5
   828   1      50.548472143023183      37.218683439891336                     6.5
   829   1       53.27713460688409      35.564519731451739                     6.5
   830   1      56.005797070745004      33.910356023012142                     6.5
   831   1      58.734459534605918      32.256192314572537                     6.5
   832   1      61.463121998466825       30.60202860613294                     6.5
   833   1      64.191784462327732      28.947864897693336                     6.5
   834   1       66.92044692618866      27.293701189253746                     6.5
   835   1       69.64910939004956      25.639537480814141                     6.5
   836   1      72.377771853910474      23.985373772374544                     6.5
   837   1      75.106434317771374      22.331210063934943                     6.5
   838   1      77.835096781632288      20.677046355495346                     6.5
   839   1      80.563759245493216      19.022882647055749                     6.5
   840   1      83.292421709354116      17.368718938616151                     6.5
   841   1      31.516051457593317      51.988002265244923                     6.5
   842   1      34.244713921454228      50.333838556805325                     6.5
   843   1      36.973376385315127      48.679674848365721                     6.5
   844   1      39.702038849176049      47.025511139926124                     6.5
   845   1      42.430701313036963      45.371347431486527                     6.5
   846   1      45.159363776897877      43.717183723046929                     6.5
   847   1      47.888026240758776      42.063020014607325                     6.5
   848   1       50.61668870461969      40.408856306167721                     6.5
   849   1      53.345351168480605      38.754692597728123                     6.5
   850   1      56.074013632341526      37.100528889288526                     6.5
   851   1      58.802676096202433      35.446365180848929                     6.5
   852   1       61.53133856006334      33.792201472409324                     6.5
   853   1      64.260001023924247      32.138037763969727                     6.5
   854   1      66.988663487785161      30.483874055530126                     6.5
   855   1      69.717325951646075      28.829710347090536                     6.5
   856   1      72.445988415506989      27.175546638650932                     6.5
   857   1      75.174650879367903      25.521382930211335                     6.5
   858   1      77.903313343228817      23.867219221771734                     6.5
   859   1      80.631975807089717      22.213055513332137                     6.5
   860   1      83.360638270950645      20.558891804892539                     6.5
   861   1      34.312930483050742       53.52401142308171                     6.5
   862   1      37.041592946911649      51.869847714642113                     6.5
   863   1      39.770255410772563      50.215684006202508                     6.5
   864   1      42.498917874633477      48.561520297762918                     6.5
   865   1      45.227580338494384      46.907356589323307                     6.5
   866   1      47.956242802355305      45.253192880883709                     6.5
   867   1      50.684905266216212      43.599029172444119                     6.5
   868   1      53.413567730077126      41.944865464004515                     6.5
   869   1      56.142230193938026      40.290701755564918                     6.5
   870   1      58.870892657798954       38.63653804712532                     6.5
   871   1      61.599555121659861      36.982374338685723                     6.5
   872   1      64.328217585520775      35.328210630246119                     6.5
   873   1      67.056880049381675      33.674046921806521                     6.5
   874   1      69.785542513242589      32.019883213366917                     6.5
   875   1      72.514204977103503      30.365719504927327                     6.5
   876   1      75.242867440964417      28.711555796487723                     6.5
   877   1      77.971529904825331      27.057392088048125                     6.5
   878   1      80.700192368686245      25.403228379608525                     6.5
   879   1      83.428854832547145      23.749064671168924                     6.5
   880   1      86.157517296408059      22.094900962729326                     6.5
   881   1      34.381147044647243      56.714184289358087                     6.5
   882   1      37.109809508508164       55.06002058091849                     6.5
   883   1      39.838471972369064      53.405856872478893                     6.5
   884   1      42.567134436229978      51.751693164039295                     6.5
   885   1      45.295796900090885      50.097529455599691                     6.5
   886   1      48.024459363951813      48.443365747160101                     6.5
   887   1      50.753121827812713      46.789202038720497                     6.5
   888   1      53.481784291673627      45.135038330280899                     6.5
   889   1      56.210446755534534      43.480874621841295                     6.5
   890   1      58.939109219395448      41.826710913401698                     6.5
   891   1      61.667771683256362        40.1725472049621                     6.5
   892   1      64.396434147117276      38.518383496522503                     6.5
   893   1       67.12509661097819      36.864219788082899                     6.5
   894   1       69.85375907483909      35.210056079643302                     6.5
   895   1      72.582421538700004      33.555892371203697                     6.5
   896   1      75.311084002560918      31.901728662764111                     6.5
   897   1      78.039746466421846      30.247564954324506                     6.5
   898   1      80.768408930282746      28.593401245884909                     6.5
   899   1      83.497071394143646      26.939237537445305                     6.5
   900   1       86.22573385800456      25.285073829005707                     6.5
   901   1      34.449363606243757      59.904357155634472                     6.5
   902   1      37.178026070104671      58.250193447194881                     6.5
   903   1      39.906688533965585      56.596029738755284                     6.5
   904   1        42.6353509978265       54.94186603031568                     6.5
   905   1      45.364013461687399      53.287702321876083                     6.5
   906   1      48.092675925548313      51.633538613436478                     6.5
   907   1      50.821338389409235      49.979374904996888                     6.5
   908   1      53.550000853270149      48.325211196557284                     6.5
   909   1      56.278663317131048      46.671047488117694                     6.5
   910   1      59.007325780991962      45.016883779678082                     6.5
   911   1      61.735988244852884      43.362720071238485                     6.5
   912   1      64.464650708713805      41.708556362798888                     6.5
   913   1      67.193313172574705       40.05439265435929                     6.5
   914   1      69.921975636435619      38.400228945919686                     6.5
   915   1      72.650638100296518      36.746065237480096                     6.5
   916   1      75.379300564157433      35.091901529040484                     6.5
   917   1      78.107963028018361      33.437737820600901                     6.5
   918   1      80.836625491879261      31.783574112161297                     6.5
   919   1      83.565287955740175      30.129410403721696                     6.5
   920   1      86.293950419601074      28.475246695282095                     6.5
   921   1      89.022612883461989      26.821082986842498                     6.5
   922   1      37.246242631701186      61.440366313471266                     6.5
   923   1        39.9749050955621      59.786202605031662                     6.5
   924   1      42.703567559423014      58.132038896592071                     6.5
   925   1      45.432230023283921      56.477875188152474                     6.5
   926   1      48.160892487144835      54.823711479712877                     6.5
   927   1      50.889554951005749      53.169547771273272                     6.5
   928   1      53.618217414866663      51.515384062833682                     6.5
   929   1      56.346879878727577      49.861220354394078                     6.5
   930   1      59.075542342588477      48.207056645954481                     6.5
   931   1      61.804204806449398      46.552892937514876                     6.5
   932   1      64.532867270310305      44.898729229075279                     6.5
   933   1      67.261529734171219      43.244565520635682                     6.5
   934   1      69.990192198032133      41.590401812196085                     6.5
   935   1      72.718854661893033       39.93623810375648                     6.5
   936   1      75.447517125753961      38.282074395316883                     6.5
   937   1      78.176179589614861      36.627910686877279                     6.5
   938   1      80.904842053475775      34.973746978437688                     6.5
   939   1      83.633504517336689      33.319583269998084                     6.5
   940   1      86.362166981197603      31.665419561558487                     6.5
   941   1      89.090829445058517      30.011255853118886                     6.5
   942   1      37.314459193297687      64.630539179747643                     6.5
   943   1      40.043121657158601      62.976375471308053                     6.5
   944   1      42.771784121019508      61.322211762868442                     6.5
   945   1      45.500446584880436      59.668048054428859                     6.5
   946   1      48.229109048741336      58.013884345989254                     6.5
   947   1       50.95777151260225      56.359720637549657                     6.5
   948   1      53.686433976463157      54.705556929110053                     6.5
   949   1      56.415096440324078      53.051393220670462                     6.5
   950   1      59.143758904184992      51.397229512230858                     6.5
   951   1      61.872421368045899      49.743065803791261                     6.5
   952   1       64.60108383190682      48.088902095351656                     6.5
   953   1       67.32974629576772      46.434738386912059                     6.5
   954   1      70.058408759628634      44.780574678472462                     6.5
   955   1      72.787071223489548      43.126410970032865                     6.5
   956   1      75.515733687350462       41.47224726159326                     6.5
   957   1      78.244396151211362      39.818083553153663                     6.5
   958   1      80.973058615072276      38.163919844714059                     6.5
   959   1       83.70172107893319      36.509756136274476                     6.5
   960   1      86.430383542794118      34.855592427834864                     6.5
   961   1      89.159046006655018      33.201428719395267                     6.5
   962   1      91.887708470515918       31.54726501095567                     6.5
   963   1      42.840000682616029      64.512384629144833                     6.5
   964   1       45.56866314647695      62.858220920705243                     6.5
   965   1      48.297325610337857      61.204057212265646                     6.5
   966   1      51.025988074198771      59.549893503826048                     6.5
   967   1      53.754650538059671      57.895729795386444                     6.5
   968   1      56.483313001920592       56.24156608694684                     6.5
   969   1      59.211975465781507       54.58740237850725                     6.5
   970   1      61.940637929642413      52.933238670067645                     6.5
   971   1      64.669300393503335      51.279074961628055                     6.5
   972   1      67.397962857364234      49.624911253188451                     6.5
   973   1      70.126625321225148      47.970747544748846                     6.5
   974   1      72.855287785086063      46.316583836309256                     6.5
   975   1      75.583950248946977      44.662420127869659                     6.5
   976   1      78.312612712807891      43.008256419430055                     6.5
   977   1       81.04127517666879      41.354092710990457                     6.5
   978   1      83.769937640529704      39.699929002550853                     6.5
   979   1      86.498600104390633      38.045765294111263                     6.5
   980   1      89.227262568251533      36.391601585671658                     6.5
   981   1      91.955925032112447      34.737437877232061                     6.5
   982   1      48.365542171934372      64.394230078542023                     6.5
   983   1      51.094204635795286       62.74006637010244                     6.5
   984   1      53.822867099656186      61.085902661662836                     6.5
   985   1      56.551529563517107      59.431738953223238                     6.5
   986   1      59.280192027378007      57.777575244783634                     6.5
   987   1      62.008854491238942      56.123411536344044                     6.5
   988   1      64.737516955099849      54.469247827904439                     6.5
   989   1      67.466179418960749      52.815084119464842                     6.5
   990   1      70.194841882821663      51.160920411025238                     6.5
   991   1      72.923504346682577      49.506756702585641                     6.5
   992   1      75.652166810543491      47.852592994146043                     6.5
   993   1      78.380829274404405      46.198429285706446                     6.5
   994   1      81.109491738265305      44.544265577266842                     6.5
   995   1      83.838154202126233      42.890101868827244                     6.5
   996   1      86.566816665987133       41.23593816038764                     6.5
   997   1      89.295479129848047       39.58177445194805                     6.5
   998   1      92.024141593708961      37.927610743508446                     6.5
   999   1      94.752804057569875      36.273447035068848                     6.5
  1000   1      53.891083661252722      64.276075527939227                     6.5
  1001   1      56.619746125113622      62.621911819499623                     6.5
  1002   1      59.348408588974543      60.967748111060025                     6.5
  1003   1      62.077071052835443      59.313584402620421                     6.5
  1004   1      64.805733516696364      57.659420694180831                     6.5
  1005   1      67.534395980557278      56.005256985741227                     6.5
  1006   1      70.263058444418178      54.351093277301629                     6.5
  1007   1      72.991720908279092      52.696929568862025                     6.5
  1008   1      75.720383372140006      51.042765860422428                     6.5
  1009   1       78.44904583600092       49.38860215198283                     6.5
  1010   1      81.177708299861834      47.734438443543233                     6.5
  1011   1      83.906370763722748      46.080274735103629                     6.5
  1012   1      86.635033227583648      44.426111026664032                     6.5
  1013   1      89.363695691444562      42.771947318224434                     6.5
  1014   1      92.092358155305476      41.117783609784844                     6.5
  1015   1       94.82102061916639       39.46361990134524                     6.5
  1016   1      59.416625150571043      64.157920977336403                     6.5
  1017   1      62.145287614431943      62.503757268896805                     6.5
  1018   1      64.873950078292864      60.849593560457208                     6.5
  1019   1      67.602612542153778      59.195429852017611                     6.5
  1020   1      70.331275006014678      57.541266143578007                     6.5
  1021   1      73.059937469875607      55.887102435138416                     6.5
  1022   1      75.788599933736506      54.232938726698812                     6.5
  1023   1       78.51726239759742      52.578775018259215                     6.5
  1024   1      81.245924861458334      50.924611309819618                     6.5
  1025   1      83.974587325319249       49.27044760138002                     6.5
  1026   1      86.703249789180163      47.616283892940416                     6.5
  1027   1      89.431912253041062      45.962120184500819                     6.5
  1028   1      92.160574716901976      44.307956476061214                     6.5
  1029   1      94.889237180762905      42.653792767621624                     6.5
  1030   1      97.617899644623805       40.99962905918202                     6.5
  1031   1      64.942166639889379      64.039766426733593                     6.5
  1032   1      67.670829103750279      62.385602718293995                     6.5
  1033   1      70.399491567611221      60.731439009854405                     6.5
  1034   1      73.128154031472121      59.077275301414801                     6.5
  1035   1      75.856816495333021      57.423111592975204                     6.5
  1036   1      78.585478959193935      55.768947884535599                     6.5
  1037   1      81.314141423054849      54.114784176096002                     6.5
  1038   1      84.042803886915777      52.460620467656405                     6.5
  1039   1      86.771466350776677      50.806456759216807                     6.5
  1040   1      89.500128814637577      49.152293050777203                     6.5
  1041   1      92.228791278498505      47.498129342337606                     6.5
  1042   1      94.957453742359405      45.843965633898001                     6.5
  1043   1      97.686116206220319      44.189801925458411                     6.5
  1044   1      70.467708129207722      63.921611876130783                     6.5
  1045   1      73.196370593068636      62.267448167691185                     6.5
  1046   1       75.92503305692955      60.613284459251588                     6.5
  1047   1       78.65369552079045      58.959120750811991                     6.5
  1048   1      81.382357984651364      57.304957042372386                     6.5
  1049   1      84.111020448512278      55.650793333932789                     6.5
  1050   1      86.839682912373192      53.996629625493192                     6.5
  1051   1      89.568345376234106      52.342465917053602                     6.5
  1052   1       92.29700784009502      50.688302208613997                     6.5
  1053   1       95.02567030395592        49.0341385001744                     6.5
  1054   1      97.754332767816834      47.379974791734796                     6.5
  1055   1      100.48299523167775      45.725811083295206                     6.5
  1056   1       75.99324961852605      63.803457325527972                     6.5
  1057   1       78.72191208238695      62.149293617088368                     6.5
  1058   1      81.450574546247879      60.495129908648771                     6.5
  1059   1      84.179237010108778      58.840966200209174                     6.5
  1060   1      86.907899473969692      57.186802491769569                     6.5
  1061   1      89.636561937830606      55.532638783329979                     6.5
  1062   1       92.36522440169152      53.878475074890382                     6.5
  1063   1      95.093886865552435      52.224311366450777                     6.5
  1064   1      97.822549329413334       50.57014765801118                     6.5
  1065   1      100.55121179327425      48.915983949571576                     6.5
  1066   1      81.518791107844393      63.685302774925162                     6.5
  1067   1      84.247453571705293      62.031139066485558                     6.5
  1068   1      86.976116035566207      60.376975358045961                     6.5
  1069   1      89.704778499427121      58.722811649606356                     6.5
  1070   1      92.433440963288049      57.068647941166766                     6.5
  1071   1      95.162103427148949      55.414484232727162                     6.5
  1072   1      97.890765891009849      53.760320524287565                     6.5
  1073   1      100.61942835487078       52.10615681584796                     6.5
  1074   1      103.34809081873168      50.451993107408363                     6.5
  1075   1      87.044332597162722      63.567148224322352                     6.5
  1076   1      89.772995061023636      61.912984515882748                     6.5
  1077   1       92.50165752488455      60.258820807443144                     6.5
  1078   1      95.230319988745464       58.60465709900356                     6.5
  1079   1      97.958982452606378      56.950493390563956                     6.5
  1080   1      100.68764491646729      55.296329682124359                     6.5
  1081   1      103.41630738032819      53.642165973684754                     6.5
  1082   1      92.569874086481065      63.448993673719542                     6.5
  1083   1      95.298536550341979      61.794829965279938                     6.5
  1084   1      98.027199014202893      60.140666256840348                     6.5
  1085   1      100.75586147806381      58.486502548400743                     6.5
  1086   1      103.48452394192472      56.832338839961146                     6.5
  1087   1      106.21318640578562      55.178175131521542                     6.5
  1088   1      98.095415575799379      63.330839123116718                     6.5
  1089   1      100.82407803966032      61.676675414677128                     6.5
  1090   1      103.55274050352122      60.022511706237523                     6.5
  1091   1      106.28140296738212      58.368347997797926                     6.5
  1092   1      103.62095706511774      63.212684572513922                     6.5
  1093   1      106.34961952897865      61.558520864074318                     6.5
  1094   1      109.14649855443608      63.094530021911112                     6.5
  1095   2      2.7286624638609069      1.6541637084396081            1.5785248507
  1096   2      2.7286624638609069      1.6541637084396081           -1.5785248507
  1097   2      5.5255414893183366     0.11815455060282955            1.5785248507
  1098   2      5.5255414893183366     0.11815455060282955           -1.5785248507
  1099   2      2.6604459022643847      4.8443365747159941            1.5785248507
  1100   2      2.6604459022643847      4.8443365747159941           -1.5785248507
  1101   2      5.4573249277218139      3.3083274168792158            1.5785248507
  1102   2      5.4573249277218139      3.3083274168792158           -1.5785248507
  1103   2      8.2542039531792426      1.7723182590424376            1.5785248507
  1104   2      8.2542039531792426      1.7723182590424376           -1.5785248507
  1105   2      11.051082978636673     0.23630910120565909            1.5785248507
  1106   2      11.051082978636673     0.23630910120565909           -1.5785248507
  1107   2      5.3891083661252912       6.498500283155602            1.5785248507
  1108   2      5.3891083661252912       6.498500283155602           -1.5785248507
  1109   2      8.1859873915827208      4.9624911253188237            1.5785248507
  1110   2      8.1859873915827208      4.9624911253188237           -1.5785248507
  1111   2       10.98286641704015      3.4264819674820464            1.5785248507
  1112   2       10.98286641704015      3.4264819674820464           -1.5785248507
  1113   2       13.77974544249758       1.890472809645267            1.5785248507
  1114   2       13.77974544249758       1.890472809645267           -1.5785248507
  1115   2      16.576624467955007     0.35446365180848938            1.5785248507
  1116   2      16.576624467955007     0.35446365180848938           -1.5785248507
  1117   2      8.1177708299861973      8.1526639915952099            1.5785248507
  1118   2      8.1177708299861973      8.1526639915952099           -1.5785248507
  1119   2      10.914649855443628      6.6166548337584317            1.5785248507
  1120   2      10.914649855443628      6.6166548337584317           -1.5785248507
  1121   2      13.711528880901056      5.0806456759216534            1.5785248507
  1122   2      13.711528880901056      5.0806456759216534           -1.5785248507
  1123   2      16.508407906358482      3.5446365180848733            1.5785248507
  1124   2      16.508407906358482      3.5446365180848733           -1.5785248507
  1125   2      19.305286931815914      2.0086273602480973            1.5785248507
  1126   2      19.305286931815914      2.0086273602480973           -1.5785248507
  1127   2      22.102165957273346     0.47261820241131819            1.5785248507
  1128   2      22.102165957273346     0.47261820241131819           -1.5785248507
  1129   2      8.0495542683896755      11.342836857871596            1.5785248507
  1130   2      8.0495542683896755      11.342836857871596           -1.5785248507
  1131   2      10.846433293847104      9.8068277000348179            1.5785248507
  1132   2      10.846433293847104      9.8068277000348179           -1.5785248507
  1133   2      13.643312319304531      8.2708185421980378            1.5785248507
  1134   2      13.643312319304531      8.2708185421980378           -1.5785248507
  1135   2      16.440191344761963      6.7348093843612613            1.5785248507
  1136   2      16.440191344761963      6.7348093843612613           -1.5785248507
  1137   2      19.237070370219392       5.198800226524483            1.5785248507
  1138   2      19.237070370219392       5.198800226524483           -1.5785248507
  1139   2      22.033949395676821      3.6627910686877052            1.5785248507
  1140   2      22.033949395676821      3.6627910686877052           -1.5785248507
  1141   2       24.83082842113425       2.126781910850926            1.5785248507
  1142   2       24.83082842113425       2.126781910850926           -1.5785248507
  1143   2      27.627707446591682     0.59077275301414689            1.5785248507
  1144   2      27.627707446591682     0.59077275301414689           -1.5785248507
  1145   2      10.778216732250582      12.997000566311204            1.5785248507
  1146   2      10.778216732250582      12.997000566311204           -1.5785248507
  1147   2      13.575095757708013      11.460991408474428            1.5785248507
  1148   2      13.575095757708013      11.460991408474428           -1.5785248507
  1149   2      16.371974783165442      9.9249822506376475            1.5785248507
  1150   2      16.371974783165442      9.9249822506376475           -1.5785248507
  1151   2       19.16885380862287      8.3889730928008692            1.5785248507
  1152   2       19.16885380862287      8.3889730928008692           -1.5785248507
  1153   2      21.965732834080299      6.8529639349640927            1.5785248507
  1154   2      21.965732834080299      6.8529639349640927           -1.5785248507
  1155   2      24.762611859537728      5.3169547771273136            1.5785248507
  1156   2      24.762611859537728      5.3169547771273136           -1.5785248507
  1157   2       27.55949088499516       3.780945619290534            1.5785248507
  1158   2       27.55949088499516       3.780945619290534           -1.5785248507
  1159   2      30.356369910452585      2.2449364614537548            1.5785248507
  1160   2      30.356369910452585      2.2449364614537548           -1.5785248507
  1161   2      33.153248935910014     0.70892730361697875            1.5785248507
  1162   2      33.153248935910014     0.70892730361697875           -1.5785248507
  1163   2      10.710000170654059      16.187173432587588            1.5785248507
  1164   2      10.710000170654059      16.187173432587588           -1.5785248507
  1165   2      13.506879196111486       14.65116427475081            1.5785248507
  1166   2      13.506879196111486       14.65116427475081           -1.5785248507
  1167   2       16.30375822156892      13.115155116914034            1.5785248507
  1168   2       16.30375822156892      13.115155116914034           -1.5785248507
  1169   2      19.100637247026345      11.579145959077255            1.5785248507
  1170   2      19.100637247026345      11.579145959077255           -1.5785248507
  1171   2      21.897516272483774      10.043136801240475            1.5785248507
  1172   2      21.897516272483774      10.043136801240475           -1.5785248507
  1173   2      24.694395297941206      8.5071276434036989            1.5785248507
  1174   2      24.694395297941206      8.5071276434036989           -1.5785248507
  1175   2      27.491274323398631      6.9711184855669215            1.5785248507
  1176   2      27.491274323398631      6.9711184855669215           -1.5785248507
  1177   2      30.288153348856063      5.4351093277301405            1.5785248507
  1178   2      30.288153348856063      5.4351093277301405           -1.5785248507
  1179   2      33.085032374313492      3.8991001698933609            1.5785248507
  1180   2      33.085032374313492      3.8991001698933609           -1.5785248507
  1181   2      35.881911399770921      2.3630910120565867            1.5785248507
  1182   2      35.881911399770921      2.3630910120565867           -1.5785248507
  1183   2      38.678790425228357     0.82708185421980929            1.5785248507
  1184   2      38.678790425228357     0.82708185421980929           -1.5785248507
  1185   2      13.438662634514968      17.841337141027196            1.5785248507
  1186   2      13.438662634514968      17.841337141027196           -1.5785248507
  1187   2      16.235541659972395       16.30532798319042            1.5785248507
  1188   2      16.235541659972395       16.30532798319042           -1.5785248507
  1189   2      19.032420685429827      14.769318825353642            1.5785248507
  1190   2      19.032420685429827      14.769318825353642           -1.5785248507
  1191   2      21.829299710887256      13.233309667516863            1.5785248507
  1192   2      21.829299710887256      13.233309667516863           -1.5785248507
  1193   2      24.626178736344681      11.697300509680085            1.5785248507
  1194   2      24.626178736344681      11.697300509680085           -1.5785248507
  1195   2      27.423057761802113      10.161291351843307            1.5785248507
  1196   2      27.423057761802113      10.161291351843307           -1.5785248507
  1197   2      30.219936787259538      8.6252821940065285            1.5785248507
  1198   2      30.219936787259538      8.6252821940065285           -1.5785248507
  1199   2       33.01681581271697      7.0892730361697502            1.5785248507
  1200   2       33.01681581271697      7.0892730361697502           -1.5785248507
  1201   2      35.813694838174406      5.5532638783329729            1.5785248507
  1202   2      35.813694838174406      5.5532638783329729           -1.5785248507
  1203   2      38.610573863631828      4.0172547204961946            1.5785248507
  1204   2      38.610573863631828      4.0172547204961946           -1.5785248507
  1205   2      41.407452889089257      2.4812455626594137            1.5785248507
  1206   2      41.407452889089257      2.4812455626594137           -1.5785248507
  1207   2      44.204331914546692     0.94523640482263638            1.5785248507
  1208   2      44.204331914546692     0.94523640482263638           -1.5785248507
  1209   2      13.370446072918446      21.031510007303588            1.5785248507
  1210   2      13.370446072918446      21.031510007303588           -1.5785248507
  1211   2      16.167325098375876      19.495500849466804            1.5785248507
  1212   2      16.167325098375876      19.495500849466804           -1.5785248507
  1213   2      18.964204123833305      17.959491691630028            1.5785248507
  1214   2      18.964204123833305      17.959491691630028           -1.5785248507
  1215   2      21.761083149290734      16.423482533793251            1.5785248507
  1216   2      21.761083149290734      16.423482533793251           -1.5785248507
  1217   2      24.557962174748162      14.887473375956471            1.5785248507
  1218   2      24.557962174748162      14.887473375956471           -1.5785248507
  1219   2      27.354841200205588      13.351464218119693            1.5785248507
  1220   2      27.354841200205588      13.351464218119693           -1.5785248507
  1221   2       30.15172022566302      11.815455060282915            1.5785248507
  1222   2       30.15172022566302      11.815455060282915           -1.5785248507
  1223   2      32.948599251120449      10.279445902446138            1.5785248507
  1224   2      32.948599251120449      10.279445902446138           -1.5785248507
  1225   2      35.745478276577877      8.7434367446093617            1.5785248507
  1226   2      35.745478276577877      8.7434367446093617           -1.5785248507
  1227   2      38.542357302035306      7.2074275867725772            1.5785248507
  1228   2      38.542357302035306      7.2074275867725772           -1.5785248507
  1229   2      41.339236327492735      5.6714184289358025            1.5785248507
  1230   2      41.339236327492735      5.6714184289358025           -1.5785248507
  1231   2      44.136115352950164      4.1354092710990216            1.5785248507
  1232   2      44.136115352950164      4.1354092710990216           -1.5785248507
  1233   2      46.932994378407599      2.5994001132622442            1.5785248507
  1234   2      46.932994378407599      2.5994001132622442           -1.5785248507
  1235   2      49.729873403865021      1.0633909554254668            1.5785248507
  1236   2      49.729873403865021      1.0633909554254668           -1.5785248507
  1237   2      16.099108536779351      22.685673715743192            1.5785248507
  1238   2      16.099108536779351      22.685673715743192           -1.5785248507
  1239   2       18.89598756223678      21.149664557906412            1.5785248507
  1240   2       18.89598756223678      21.149664557906412           -1.5785248507
  1241   2      21.692866587694208      19.613655400069636            1.5785248507
  1242   2      21.692866587694208      19.613655400069636           -1.5785248507
  1243   2      24.489745613151637      18.077646242232859            1.5785248507
  1244   2      24.489745613151637      18.077646242232859           -1.5785248507
  1245   2      27.286624638609069      16.541637084396079            1.5785248507
  1246   2      27.286624638609069      16.541637084396079           -1.5785248507
  1247   2      30.083503664066498      15.005627926559303            1.5785248507
  1248   2      30.083503664066498      15.005627926559303           -1.5785248507
  1249   2      32.880382689523927      13.469618768722523            1.5785248507
  1250   2      32.880382689523927      13.469618768722523           -1.5785248507
  1251   2      35.677261714981356      11.933609610885743            1.5785248507
  1252   2      35.677261714981356      11.933609610885743           -1.5785248507
  1253   2      38.474140740438784      10.397600453048966            1.5785248507
  1254   2      38.474140740438784      10.397600453048966           -1.5785248507
  1255   2      41.271019765896213      8.8615912952121842            1.5785248507
  1256   2      41.271019765896213      8.8615912952121842           -1.5785248507
  1257   2      44.067898791353642      7.3255821373754104            1.5785248507
  1258   2      44.067898791353642      7.3255821373754104           -1.5785248507
  1259   2       46.86477781681107       5.789572979538633            1.5785248507
  1260   2       46.86477781681107       5.789572979538633           -1.5785248507
  1261   2      49.661656842268499      4.2535638217018521            1.5785248507
  1262   2      49.661656842268499      4.2535638217018521           -1.5785248507
  1263   2      52.458535867725928      2.7175546638650747            1.5785248507
  1264   2      52.458535867725928      2.7175546638650747           -1.5785248507
  1265   2      55.255414893183364      1.1815455060282938            1.5785248507
  1266   2      55.255414893183364      1.1815455060282938           -1.5785248507
  1267   2      16.030891975182826       25.87584658201958            1.5785248507
  1268   2      16.030891975182826       25.87584658201958           -1.5785248507
  1269   2      18.827771000640254        24.3398374241828            1.5785248507
  1270   2      18.827771000640254        24.3398374241828           -1.5785248507
  1271   2      21.624650026097687       22.80382826634602            1.5785248507
  1272   2      21.624650026097687       22.80382826634602           -1.5785248507
  1273   2      24.421529051555112       21.26781910850924            1.5785248507
  1274   2      24.421529051555112       21.26781910850924           -1.5785248507
  1275   2      27.218408077012541      19.731809950672464            1.5785248507
  1276   2      27.218408077012541      19.731809950672464           -1.5785248507
  1277   2      30.015287102469973      18.195800792835687            1.5785248507
  1278   2      30.015287102469973      18.195800792835687           -1.5785248507
  1279   2      32.812166127927405      16.659791634998907            1.5785248507
  1280   2      32.812166127927405      16.659791634998907           -1.5785248507
  1281   2      35.609045153384827      15.123782477162127            1.5785248507
  1282   2      35.609045153384827      15.123782477162127           -1.5785248507
  1283   2      38.405924178842263       13.58777331932535            1.5785248507
  1284   2      38.405924178842263       13.58777331932535           -1.5785248507
  1285   2      41.202803204299691      12.051764161488574            1.5785248507
  1286   2      41.202803204299691      12.051764161488574           -1.5785248507
  1287   2      43.999682229757113      10.515755003651792            1.5785248507
  1288   2      43.999682229757113      10.515755003651792           -1.5785248507
  1289   2      46.796561255214542      8.9797458458150192            1.5785248507
  1290   2      46.796561255214542      8.9797458458150192           -1.5785248507
  1291   2       49.59344028067197      7.4437366879782374            1.5785248507
  1292   2       49.59344028067197      7.4437366879782374           -1.5785248507
  1293   2      52.390319306129406      5.9077275301414565            1.5785248507
  1294   2      52.390319306129406      5.9077275301414565           -1.5785248507
  1295   2      55.187198331586835      4.3717183723046791            1.5785248507
  1296   2      55.187198331586835      4.3717183723046791           -1.5785248507
  1297   2      57.984077357044264      2.8357092144678981            1.5785248507
  1298   2      57.984077357044264      2.8357092144678981           -1.5785248507
  1299   2      60.780956382501685      1.2997000566311239            1.5785248507
  1300   2      60.780956382501685      1.2997000566311239           -1.5785248507
  1301   2      18.759554439043736      27.530010290459188            1.5785248507
  1302   2      18.759554439043736      27.530010290459188           -1.5785248507
  1303   2      21.556433464501165      25.994001132622408            1.5785248507
  1304   2      21.556433464501165      25.994001132622408           -1.5785248507
  1305   2      24.353312489958597      24.457991974785632            1.5785248507
  1306   2      24.353312489958597      24.457991974785632           -1.5785248507
  1307   2      27.150191515416026      22.921982816948855            1.5785248507
  1308   2      27.150191515416026      22.921982816948855           -1.5785248507
  1309   2      29.947070540873451      21.385973659112071            1.5785248507
  1310   2      29.947070540873451      21.385973659112071           -1.5785248507
  1311   2      32.743949566330883      19.849964501275295            1.5785248507
  1312   2      32.743949566330883      19.849964501275295           -1.5785248507
  1313   2      35.540828591788319      18.313955343438518            1.5785248507
  1314   2      35.540828591788319      18.313955343438518           -1.5785248507
  1315   2      38.337707617245741      16.777946185601738            1.5785248507
  1316   2      38.337707617245741      16.777946185601738           -1.5785248507
  1317   2      41.134586642703169      15.241937027764962            1.5785248507
  1318   2      41.134586642703169      15.241937027764962           -1.5785248507
  1319   2      43.931465668160598      13.705927869928185            1.5785248507
  1320   2      43.931465668160598      13.705927869928185           -1.5785248507
  1321   2      46.728344693618027      12.169918712091404            1.5785248507
  1322   2      46.728344693618027      12.169918712091404           -1.5785248507
  1323   2      49.525223719075456      10.633909554254627            1.5785248507
  1324   2      49.525223719075456      10.633909554254627           -1.5785248507
  1325   2      52.322102744532884      9.0979003964178453            1.5785248507
  1326   2      52.322102744532884      9.0979003964178453           -1.5785248507
  1327   2       55.11898176999032      7.5618912385810679            1.5785248507
  1328   2       55.11898176999032      7.5618912385810679           -1.5785248507
  1329   2      57.915860795447742      6.0258820807442905            1.5785248507
  1330   2      57.915860795447742      6.0258820807442905           -1.5785248507
  1331   2      60.712739820905171      4.4898729229075096            1.5785248507
  1332   2      60.712739820905171      4.4898729229075096           -1.5785248507
  1333   2      63.509618846362599      2.9538637650707353            1.5785248507
  1334   2      63.509618846362599      2.9538637650707353           -1.5785248507
  1335   2      66.306497871820028      1.4178546072339575            1.5785248507
  1336   2      66.306497871820028      1.4178546072339575           -1.5785248507
  1337   2      18.691337877447214      30.720183156735573            1.5785248507
  1338   2      18.691337877447214      30.720183156735573           -1.5785248507
  1339   2      21.488216902904643      29.184173998898796            1.5785248507
  1340   2      21.488216902904643      29.184173998898796           -1.5785248507
  1341   2      24.285095928362068      27.648164841062016            1.5785248507
  1342   2      24.285095928362068      27.648164841062016           -1.5785248507
  1343   2        27.0819749538195      26.112155683225236            1.5785248507
  1344   2        27.0819749538195      26.112155683225236           -1.5785248507
  1345   2      29.878853979276933      24.576146525388459            1.5785248507
  1346   2      29.878853979276933      24.576146525388459           -1.5785248507
  1347   2      32.675733004734354      23.040137367551679            1.5785248507
  1348   2      32.675733004734354      23.040137367551679           -1.5785248507
  1349   2       35.47261203019179      21.504128209714903            1.5785248507
  1350   2       35.47261203019179      21.504128209714903           -1.5785248507
  1351   2      38.269491055649219      19.968119051878126            1.5785248507
  1352   2      38.269491055649219      19.968119051878126           -1.5785248507
  1353   2      41.066370081106641      18.432109894041346            1.5785248507
  1354   2      41.066370081106641      18.432109894041346           -1.5785248507
  1355   2      43.863249106564076       16.89610073620457            1.5785248507
  1356   2      43.863249106564076       16.89610073620457           -1.5785248507
  1357   2      46.660128132021505       15.36009157836779            1.5785248507
  1358   2      46.660128132021505       15.36009157836779           -1.5785248507
  1359   2      49.457007157478934      13.824082420531008            1.5785248507
  1360   2      49.457007157478934      13.824082420531008           -1.5785248507
  1361   2      52.253886182936363      12.288073262694235            1.5785248507
  1362   2      52.253886182936363      12.288073262694235           -1.5785248507
  1363   2      55.050765208393791      10.752064104857457            1.5785248507
  1364   2      55.050765208393791      10.752064104857457           -1.5785248507
  1365   2       57.84764423385122      9.2160549470206767            1.5785248507
  1366   2       57.84764423385122      9.2160549470206767           -1.5785248507
  1367   2      60.644523259308649      7.6800457891838985            1.5785248507
  1368   2      60.644523259308649      7.6800457891838985           -1.5785248507
  1369   2      63.441402284766085      6.1440366313471175            1.5785248507
  1370   2      63.441402284766085      6.1440366313471175           -1.5785248507
  1371   2      66.238281310223513      4.6080274735103401            1.5785248507
  1372   2      66.238281310223513      4.6080274735103401           -1.5785248507
  1373   2      69.035160335680928      3.0720183156735654            1.5785248507
  1374   2      69.035160335680928      3.0720183156735654           -1.5785248507
  1375   2      71.832039361138371      1.5360091578367887            1.5785248507
  1376   2      71.832039361138371      1.5360091578367887           -1.5785248507
  1377   2      21.420000341308118      32.374346865175177            1.5785248507
  1378   2      21.420000341308118      32.374346865175177           -1.5785248507
  1379   2      24.216879366765546        30.8383377073384            1.5785248507
  1380   2      24.216879366765546        30.8383377073384           -1.5785248507
  1381   2      27.013758392222972       29.30232854950162            1.5785248507
  1382   2      27.013758392222972       29.30232854950162           -1.5785248507
  1383   2      29.810637417680407      27.766319391664844            1.5785248507
  1384   2      29.810637417680407      27.766319391664844           -1.5785248507
  1385   2       32.60751644313784      26.230310233828067            1.5785248507
  1386   2       32.60751644313784      26.230310233828067           -1.5785248507
  1387   2      35.404395468595254      24.694301075991287            1.5785248507
  1388   2      35.404395468595254      24.694301075991287           -1.5785248507
  1389   2       38.20127449405269      23.158291918154511            1.5785248507
  1390   2       38.20127449405269      23.158291918154511           -1.5785248507
  1391   2      40.998153519510126      21.622282760317734            1.5785248507
  1392   2      40.998153519510126      21.622282760317734           -1.5785248507
  1393   2      43.795032544967547      20.086273602480951            1.5785248507
  1394   2      43.795032544967547      20.086273602480951           -1.5785248507
  1395   2      46.591911570424983      18.550264444644174            1.5785248507
  1396   2      46.591911570424983      18.550264444644174           -1.5785248507
  1397   2      49.388790595882412      17.014255286807398            1.5785248507
  1398   2      49.388790595882412      17.014255286807398           -1.5785248507
  1399   2      52.185669621339834      15.478246128970616            1.5785248507
  1400   2      52.185669621339834      15.478246128970616           -1.5785248507
  1401   2      54.982548646797262      13.942236971133843            1.5785248507
  1402   2      54.982548646797262      13.942236971133843           -1.5785248507
  1403   2      57.779427672254691      12.406227813297061            1.5785248507
  1404   2      57.779427672254691      12.406227813297061           -1.5785248507
  1405   2      60.576306697712127      10.870218655460281            1.5785248507
  1406   2      60.576306697712127      10.870218655460281           -1.5785248507
  1407   2      63.373185723169556      9.3342094976235028            1.5785248507
  1408   2      63.373185723169556      9.3342094976235028           -1.5785248507
  1409   2      66.170064748626984      7.7982003397867219            1.5785248507
  1410   2      66.170064748626984      7.7982003397867219           -1.5785248507
  1411   2      68.966943774084413      6.2621911819499481            1.5785248507
  1412   2      68.966943774084413      6.2621911819499481           -1.5785248507
  1413   2      71.763822799541828      4.7261820241131662            1.5785248507
  1414   2      71.763822799541828      4.7261820241131662           -1.5785248507
  1415   2      74.560701824999271      3.1901728662763857            1.5785248507
  1416   2      74.560701824999271      3.1901728662763857           -1.5785248507
  1417   2      21.351783779711603      35.564519731451568            1.5785248507
  1418   2      21.351783779711603      35.564519731451568           -1.5785248507
  1419   2      24.148662805169028      34.028510573614788            1.5785248507
  1420   2      24.148662805169028      34.028510573614788           -1.5785248507
  1421   2       26.94554183062646      32.492501415778015            1.5785248507
  1422   2       26.94554183062646      32.492501415778015           -1.5785248507
  1423   2      29.742420856083886      30.956492257941232            1.5785248507
  1424   2      29.742420856083886      30.956492257941232           -1.5785248507
  1425   2      32.539299881541311      29.420483100104455            1.5785248507
  1426   2      32.539299881541311      29.420483100104455           -1.5785248507
  1427   2      35.336178906998747      27.884473942267679            1.5785248507
  1428   2      35.336178906998747      27.884473942267679           -1.5785248507
  1429   2      38.133057932456168      26.348464784430899            1.5785248507
  1430   2      38.133057932456168      26.348464784430899           -1.5785248507
  1431   2      40.929936957913604      24.812455626594119            1.5785248507
  1432   2      40.929936957913604      24.812455626594119           -1.5785248507
  1433   2       43.72681598337104      23.276446468757342            1.5785248507
  1434   2       43.72681598337104      23.276446468757342           -1.5785248507
  1435   2      46.523695008828462      21.740437310920562            1.5785248507
  1436   2      46.523695008828462      21.740437310920562           -1.5785248507
  1437   2       49.32057403428589      20.204428153083786            1.5785248507
  1438   2       49.32057403428589      20.204428153083786           -1.5785248507
  1439   2      52.117453059743319      18.668418995247009            1.5785248507
  1440   2      52.117453059743319      18.668418995247009           -1.5785248507
  1441   2      54.914332085200748      17.132409837410229            1.5785248507
  1442   2      54.914332085200748      17.132409837410229           -1.5785248507
  1443   2      57.711211110658176      15.596400679573451            1.5785248507
  1444   2      57.711211110658176      15.596400679573451           -1.5785248507
  1445   2      60.508090136115605      14.060391521736669            1.5785248507
  1446   2      60.508090136115605      14.060391521736669           -1.5785248507
  1447   2      63.304969161573034      12.524382363899893            1.5785248507
  1448   2      63.304969161573034      12.524382363899893           -1.5785248507
  1449   2       66.10184818703047      10.988373206063118            1.5785248507
  1450   2       66.10184818703047      10.988373206063118           -1.5785248507
  1451   2      68.898727212487884      9.4523640482263271            1.5785248507
  1452   2      68.898727212487884      9.4523640482263271           -1.5785248507
  1453   2      71.695606237945313      7.9163548903895524            1.5785248507
  1454   2      71.695606237945313      7.9163548903895524           -1.5785248507
  1455   2      74.492485263402756      6.3803457325527848            1.5785248507
  1456   2      74.492485263402756      6.3803457325527848           -1.5785248507
  1457   2      24.080446243572503      37.218683439891173            1.5785248507
  1458   2      24.080446243572503      37.218683439891173           -1.5785248507
  1459   2      26.877325269029935      35.682674282054393            1.5785248507
  1460   2      26.877325269029935      35.682674282054393           -1.5785248507
  1461   2       29.67420429448736       34.14666512421762            1.5785248507
  1462   2       29.67420429448736       34.14666512421762           -1.5785248507
  1463   2      32.471083319944789       32.61065596638084            1.5785248507
  1464   2      32.471083319944789       32.61065596638084           -1.5785248507
  1465   2      35.267962345402218      31.074646808544063            1.5785248507
  1466   2      35.267962345402218      31.074646808544063           -1.5785248507
  1467   2      38.064841370859654      29.538637650707283            1.5785248507
  1468   2      38.064841370859654      29.538637650707283           -1.5785248507
  1469   2      40.861720396317075      28.002628492870503            1.5785248507
  1470   2      40.861720396317075      28.002628492870503           -1.5785248507
  1471   2      43.658599421774511      26.466619335033727            1.5785248507
  1472   2      43.658599421774511      26.466619335033727           -1.5785248507
  1473   2       46.45547844723194       24.93061017719695            1.5785248507
  1474   2       46.45547844723194       24.93061017719695           -1.5785248507
  1475   2      49.252357472689361       23.39460101936017            1.5785248507
  1476   2      49.252357472689361       23.39460101936017           -1.5785248507
  1477   2      52.049236498146797      21.858591861523394            1.5785248507
  1478   2      52.049236498146797      21.858591861523394           -1.5785248507
  1479   2      54.846115523604226      20.322582703686614            1.5785248507
  1480   2      54.846115523604226      20.322582703686614           -1.5785248507
  1481   2      57.642994549061655      18.786573545849834            1.5785248507
  1482   2      57.642994549061655      18.786573545849834           -1.5785248507
  1483   2      60.439873574519076      17.250564388013057            1.5785248507
  1484   2      60.439873574519076      17.250564388013057           -1.5785248507
  1485   2      63.236752599976512      15.714555230176284            1.5785248507
  1486   2      63.236752599976512      15.714555230176284           -1.5785248507
  1487   2      66.033631625433927      14.178546072339493            1.5785248507
  1488   2      66.033631625433927      14.178546072339493           -1.5785248507
  1489   2       68.83051065089137      12.642536914502715            1.5785248507
  1490   2       68.83051065089137      12.642536914502715           -1.5785248507
  1491   2      71.627389676348812      11.106527756665946            1.5785248507
  1492   2      71.627389676348812      11.106527756665946           -1.5785248507
  1493   2      74.424268701806227      9.5705185988291639            1.5785248507
  1494   2      74.424268701806227      9.5705185988291639           -1.5785248507
  1495   2      77.221147727263656      8.0345094409923892            1.5785248507
  1496   2      77.221147727263656      8.0345094409923892           -1.5785248507
  1497   2      24.012229681975985      40.408856306167564            1.5785248507
  1498   2      24.012229681975985      40.408856306167564           -1.5785248507
  1499   2       26.80910870743341      38.872847148330784            1.5785248507
  1500   2       26.80910870743341      38.872847148330784           -1.5785248507
  1501   2      29.605987732890835      37.336837990494004            1.5785248507
  1502   2      29.605987732890835      37.336837990494004           -1.5785248507
  1503   2      32.402866758348267      35.800828832657231            1.5785248507
  1504   2      32.402866758348267      35.800828832657231           -1.5785248507
  1505   2      35.199745783805696      34.264819674820444            1.5785248507
  1506   2      35.199745783805696      34.264819674820444           -1.5785248507
  1507   2      37.996624809263125      32.728810516983664            1.5785248507
  1508   2      37.996624809263125      32.728810516983664           -1.5785248507
  1509   2      40.793503834720561      31.192801359146891            1.5785248507
  1510   2      40.793503834720561      31.192801359146891           -1.5785248507
  1511   2      43.590382860177975      29.656792201310111            1.5785248507
  1512   2      43.590382860177975      29.656792201310111           -1.5785248507
  1513   2      46.387261885635411      28.120783043473335            1.5785248507
  1514   2      46.387261885635411      28.120783043473335           -1.5785248507
  1515   2      49.184140911092847      26.584773885636558            1.5785248507
  1516   2      49.184140911092847      26.584773885636558           -1.5785248507
  1517   2      51.981019936550268      25.048764727799774            1.5785248507
  1518   2      51.981019936550268      25.048764727799774           -1.5785248507
  1519   2      54.777898962007704      23.512755569962998            1.5785248507
  1520   2      54.777898962007704      23.512755569962998           -1.5785248507
  1521   2      57.574777987465126      21.976746412126221            1.5785248507
  1522   2      57.574777987465126      21.976746412126221           -1.5785248507
  1523   2      60.371657012922554      20.440737254289441            1.5785248507
  1524   2      60.371657012922554      20.440737254289441           -1.5785248507
  1525   2      63.168536038379976      18.904728096452658            1.5785248507
  1526   2      63.168536038379976      18.904728096452658           -1.5785248507
  1527   2      65.965415063837412      17.368718938615881            1.5785248507
  1528   2      65.965415063837412      17.368718938615881           -1.5785248507
  1529   2      68.762294089294855      15.832709780779112            1.5785248507
  1530   2      68.762294089294855      15.832709780779112           -1.5785248507
  1531   2      71.559173114752284      14.296700622942327            1.5785248507
  1532   2      71.559173114752284      14.296700622942327           -1.5785248507
  1533   2      74.356052140209712       12.76069146510555            1.5785248507
  1534   2      74.356052140209712       12.76069146510555           -1.5785248507
  1535   2      77.152931165667141      11.224682307268775            1.5785248507
  1536   2      77.152931165667141      11.224682307268775           -1.5785248507
  1537   2      79.949810191124556      9.6886731494319935            1.5785248507
  1538   2      79.949810191124556      9.6886731494319935           -1.5785248507
  1539   2      26.740892145836892      42.063020014607176            1.5785248507
  1540   2      26.740892145836892      42.063020014607176           -1.5785248507
  1541   2      29.537771171294324      40.527010856770396            1.5785248507
  1542   2      29.537771171294324      40.527010856770396           -1.5785248507
  1543   2      32.334650196751753      38.991001698933609            1.5785248507
  1544   2      32.334650196751753      38.991001698933609           -1.5785248507
  1545   2      35.131529222209181      37.454992541096836            1.5785248507
  1546   2      35.131529222209181      37.454992541096836           -1.5785248507
  1547   2       37.92840824766661      35.918983383260056            1.5785248507
  1548   2       37.92840824766661      35.918983383260056           -1.5785248507
  1549   2      40.725287273124032      34.382974225423276            1.5785248507
  1550   2      40.725287273124032      34.382974225423276           -1.5785248507
  1551   2      43.522166298581467      32.846965067586503            1.5785248507
  1552   2      43.522166298581467      32.846965067586503           -1.5785248507
  1553   2      46.319045324038889      31.310955909749723            1.5785248507
  1554   2      46.319045324038889      31.310955909749723           -1.5785248507
  1555   2      49.115924349496325      29.774946751912942            1.5785248507
  1556   2      49.115924349496325      29.774946751912942           -1.5785248507
  1557   2      51.912803374953761      28.238937594076166            1.5785248507
  1558   2      51.912803374953761      28.238937594076166           -1.5785248507
  1559   2      54.709682400411175      26.702928436239386            1.5785248507
  1560   2      54.709682400411175      26.702928436239386           -1.5785248507
  1561   2      57.506561425868611      25.166919278402613            1.5785248507
  1562   2      57.506561425868611      25.166919278402613           -1.5785248507
  1563   2       60.30344045132604      23.630910120565829            1.5785248507
  1564   2       60.30344045132604      23.630910120565829           -1.5785248507
  1565   2      63.100319476783476      22.094900962729053            1.5785248507
  1566   2      63.100319476783476      22.094900962729053           -1.5785248507
  1567   2      65.897198502240897      20.558891804892276            1.5785248507
  1568   2      65.897198502240897      20.558891804892276           -1.5785248507
  1569   2      68.694077527698326      19.022882647055493            1.5785248507
  1570   2      68.694077527698326      19.022882647055493           -1.5785248507
  1571   2      71.490956553155755      17.486873489218723            1.5785248507
  1572   2      71.490956553155755      17.486873489218723           -1.5785248507
  1573   2      74.287835578613183      15.950864331381938            1.5785248507
  1574   2      74.287835578613183      15.950864331381938           -1.5785248507
  1575   2      77.084714604070612      14.414855173545154            1.5785248507
  1576   2      77.084714604070612      14.414855173545154           -1.5785248507
  1577   2      79.881593629528041       12.87884601570838            1.5785248507
  1578   2      79.881593629528041       12.87884601570838           -1.5785248507
  1579   2      26.672675584240363       45.25319288088356            1.5785248507
  1580   2      26.672675584240363       45.25319288088356           -1.5785248507
  1581   2      29.469554609697798       43.71718372304678            1.5785248507
  1582   2      29.469554609697798       43.71718372304678           -1.5785248507
  1583   2      32.266433635155224      42.181174565209993            1.5785248507
  1584   2      32.266433635155224      42.181174565209993           -1.5785248507
  1585   2      35.063312660612659       40.64516540737322            1.5785248507
  1586   2      35.063312660612659       40.64516540737322           -1.5785248507
  1587   2      37.860191686070081      39.109156249536447            1.5785248507
  1588   2      37.860191686070081      39.109156249536447           -1.5785248507
  1589   2       40.65707071152751      37.573147091699667            1.5785248507
  1590   2       40.65707071152751      37.573147091699667           -1.5785248507
  1591   2      43.453949736984939      36.037137933862887            1.5785248507
  1592   2      43.453949736984939      36.037137933862887           -1.5785248507
  1593   2      46.250828762442374      34.501128776026107            1.5785248507
  1594   2      46.250828762442374      34.501128776026107           -1.5785248507
  1595   2      49.047707787899796      32.965119618189327            1.5785248507
  1596   2      49.047707787899796      32.965119618189327           -1.5785248507
  1597   2      51.844586813357225       31.42911046035255            1.5785248507
  1598   2      51.844586813357225       31.42911046035255           -1.5785248507
  1599   2      54.641465838814661      29.893101302515777            1.5785248507
  1600   2      54.641465838814661      29.893101302515777           -1.5785248507
  1601   2      57.438344864272075      28.357092144678987            1.5785248507
  1602   2      57.438344864272075      28.357092144678987           -1.5785248507
  1603   2      60.235223889729511       26.82108298684221            1.5785248507
  1604   2      60.235223889729511       26.82108298684221           -1.5785248507
  1605   2      63.032102915186947      25.285073829005441            1.5785248507
  1606   2      63.032102915186947      25.285073829005441           -1.5785248507
  1607   2      65.828981940644383      23.749064671168657            1.5785248507
  1608   2      65.828981940644383      23.749064671168657           -1.5785248507
  1609   2      68.625860966101797      22.213055513331881            1.5785248507
  1610   2      68.625860966101797      22.213055513331881           -1.5785248507
  1611   2       71.42273999155924      20.677046355495104            1.5785248507
  1612   2       71.42273999155924      20.677046355495104           -1.5785248507
  1613   2      74.219619017016655      19.141037197658321            1.5785248507
  1614   2      74.219619017016655      19.141037197658321           -1.5785248507
  1615   2      77.016498042474083      17.605028039821544            1.5785248507
  1616   2      77.016498042474083      17.605028039821544           -1.5785248507
  1617   2      79.813377067931526      16.069018881984764            1.5785248507
  1618   2      79.813377067931526      16.069018881984764           -1.5785248507
  1619   2      82.610256093388955      14.533009724147991            1.5785248507
  1620   2      82.610256093388955      14.533009724147991           -1.5785248507
  1621   2       29.40133804810127      46.907356589323165            1.5785248507
  1622   2       29.40133804810127      46.907356589323165           -1.5785248507
  1623   2      32.198217073558702      45.371347431486384            1.5785248507
  1624   2      32.198217073558702      45.371347431486384           -1.5785248507
  1625   2      34.995096099016131      43.835338273649604            1.5785248507
  1626   2      34.995096099016131      43.835338273649604           -1.5785248507
  1627   2      37.791975124473559      42.299329115812824            1.5785248507
  1628   2      37.791975124473559      42.299329115812824           -1.5785248507
  1629   2      40.588854149930988      40.763319957976051            1.5785248507
  1630   2      40.588854149930988      40.763319957976051           -1.5785248507
  1631   2      43.385733175388417      39.227310800139271            1.5785248507
  1632   2      43.385733175388417      39.227310800139271           -1.5785248507
  1633   2      46.182612200845846      37.691301642302491            1.5785248507
  1634   2      46.182612200845846      37.691301642302491           -1.5785248507
  1635   2      48.979491226303274      36.155292484465718            1.5785248507
  1636   2      48.979491226303274      36.155292484465718           -1.5785248507
  1637   2      51.776370251760696      34.619283326628938            1.5785248507
  1638   2      51.776370251760696      34.619283326628938           -1.5785248507
  1639   2      54.573249277218125      33.083274168792151            1.5785248507
  1640   2      54.573249277218125      33.083274168792151           -1.5785248507
  1641   2       57.37012830267556      31.547265010955375            1.5785248507
  1642   2       57.37012830267556      31.547265010955375           -1.5785248507
  1643   2      60.167007328132996      30.011255853118605            1.5785248507
  1644   2      60.167007328132996      30.011255853118605           -1.5785248507
  1645   2      62.963886353590425      28.475246695281822            1.5785248507
  1646   2      62.963886353590425      28.475246695281822           -1.5785248507
  1647   2      65.760765379047854      26.939237537445045            1.5785248507
  1648   2      65.760765379047854      26.939237537445045           -1.5785248507
  1649   2      68.557644404505282      25.403228379608269            1.5785248507
  1650   2      68.557644404505282      25.403228379608269           -1.5785248507
  1651   2      71.354523429962711      23.867219221771485            1.5785248507
  1652   2      71.354523429962711      23.867219221771485           -1.5785248507
  1653   2       74.15140245542014      22.331210063934709            1.5785248507
  1654   2       74.15140245542014      22.331210063934709           -1.5785248507
  1655   2      76.948281480877569      20.795200906097932            1.5785248507
  1656   2      76.948281480877569      20.795200906097932           -1.5785248507
  1657   2      79.745160506334997      19.259191748261156            1.5785248507
  1658   2      79.745160506334997      19.259191748261156           -1.5785248507
  1659   2      82.542039531792426      17.723182590424368            1.5785248507
  1660   2      82.542039531792426      17.723182590424368           -1.5785248507
  1661   2      29.333121486504751      50.097529455599556            1.5785248507
  1662   2      29.333121486504751      50.097529455599556           -1.5785248507
  1663   2       32.13000051196218      48.561520297762776            1.5785248507
  1664   2       32.13000051196218      48.561520297762776           -1.5785248507
  1665   2      34.926879537419609      47.025511139925996            1.5785248507
  1666   2      34.926879537419609      47.025511139925996           -1.5785248507
  1667   2      37.723758562877045      45.489501982089216            1.5785248507
  1668   2      37.723758562877045      45.489501982089216           -1.5785248507
  1669   2      40.520637588334473      43.953492824252436            1.5785248507
  1670   2      40.520637588334473      43.953492824252436           -1.5785248507
  1671   2      43.317516613791902      42.417483666415663            1.5785248507
  1672   2      43.317516613791902      42.417483666415663           -1.5785248507
  1673   2      46.114395639249324      40.881474508578883            1.5785248507
  1674   2      46.114395639249324      40.881474508578883           -1.5785248507
  1675   2      48.911274664706752      39.345465350742103            1.5785248507
  1676   2      48.911274664706752      39.345465350742103           -1.5785248507
  1677   2      51.708153690164188      37.809456192905323            1.5785248507
  1678   2      51.708153690164188      37.809456192905323           -1.5785248507
  1679   2      54.505032715621617       36.27344703506855            1.5785248507
  1680   2      54.505032715621617       36.27344703506855           -1.5785248507
  1681   2      57.301911741079046       34.73743787723177            1.5785248507
  1682   2      57.301911741079046       34.73743787723177           -1.5785248507
  1683   2      60.098790766536474      33.201428719394983            1.5785248507
  1684   2      60.098790766536474      33.201428719394983           -1.5785248507
  1685   2      62.895669791993903      31.665419561558217            1.5785248507
  1686   2      62.895669791993903      31.665419561558217           -1.5785248507
  1687   2      65.692548817451325      30.129410403721433            1.5785248507
  1688   2      65.692548817451325      30.129410403721433           -1.5785248507
  1689   2      68.489427842908754       28.59340124588465            1.5785248507
  1690   2      68.489427842908754       28.59340124588465           -1.5785248507
  1691   2      71.286306868366196       27.05739208804788            1.5785248507
  1692   2      71.286306868366196       27.05739208804788           -1.5785248507
  1693   2      74.083185893823625      25.521382930211097            1.5785248507
  1694   2      74.083185893823625      25.521382930211097           -1.5785248507
  1695   2      76.880064919281054       23.98537377237432            1.5785248507
  1696   2      76.880064919281054       23.98537377237432           -1.5785248507
  1697   2      79.676943944738483      22.449364614537544            1.5785248507
  1698   2      79.676943944738483      22.449364614537544           -1.5785248507
  1699   2      82.473822970195911      20.913355456700767            1.5785248507
  1700   2      82.473822970195911      20.913355456700767           -1.5785248507
  1701   2       85.27070199565334       19.37734629886398            1.5785248507
  1702   2       85.27070199565334       19.37734629886398           -1.5785248507
  1703   2      32.061783950365651       51.75169316403916            1.5785248507
  1704   2      32.061783950365651       51.75169316403916           -1.5785248507
  1705   2       34.85866297582308       50.21568400620238            1.5785248507
  1706   2       34.85866297582308       50.21568400620238           -1.5785248507
  1707   2      37.655542001280509        48.6796748483656            1.5785248507
  1708   2      37.655542001280509        48.6796748483656           -1.5785248507
  1709   2      40.452421026737944       47.14366569052882            1.5785248507
  1710   2      40.452421026737944       47.14366569052882           -1.5785248507
  1711   2      43.249300052195373       45.60765653269204            1.5785248507
  1712   2      43.249300052195373       45.60765653269204           -1.5785248507
  1713   2      46.046179077652795      44.071647374855267            1.5785248507
  1714   2      46.046179077652795      44.071647374855267           -1.5785248507
  1715   2      48.843058103110224       42.53563821701848            1.5785248507
  1716   2      48.843058103110224       42.53563821701848           -1.5785248507
  1717   2      51.639937128567652        40.9996290591817            1.5785248507
  1718   2      51.639937128567652        40.9996290591817           -1.5785248507
  1719   2      54.436816154025081      39.463619901344927            1.5785248507
  1720   2      54.436816154025081      39.463619901344927           -1.5785248507
  1721   2      57.233695179482517      37.927610743508154            1.5785248507
  1722   2      57.233695179482517      37.927610743508154           -1.5785248507
  1723   2      60.030574204939946      36.391601585671374            1.5785248507
  1724   2      60.030574204939946      36.391601585671374           -1.5785248507
  1725   2      62.827453230397374      34.855592427834587            1.5785248507
  1726   2      62.827453230397374      34.855592427834587           -1.5785248507
  1727   2       65.62433225585481      33.319583269997814            1.5785248507
  1728   2       65.62433225585481      33.319583269997814           -1.5785248507
  1729   2      68.421211281312225      31.783574112161038            1.5785248507
  1730   2      68.421211281312225      31.783574112161038           -1.5785248507
  1731   2      71.218090306769653      30.247564954324254            1.5785248507
  1732   2      71.218090306769653      30.247564954324254           -1.5785248507
  1733   2      74.014969332227096      28.711555796487485            1.5785248507
  1734   2      74.014969332227096      28.711555796487485           -1.5785248507
  1735   2      76.811848357684525      27.175546638650701            1.5785248507
  1736   2      76.811848357684525      27.175546638650701           -1.5785248507
  1737   2      79.608727383141954      25.639537480813924            1.5785248507
  1738   2      79.608727383141954      25.639537480813924           -1.5785248507
  1739   2      82.405606408599382      24.103528322977148            1.5785248507
  1740   2      82.405606408599382      24.103528322977148           -1.5785248507
  1741   2      85.202485434056811      22.567519165140364            1.5785248507
  1742   2      85.202485434056811      22.567519165140364           -1.5785248507
  1743   2      31.993567388769133      54.941866030315545            1.5785248507
  1744   2      31.993567388769133      54.941866030315545           -1.5785248507
  1745   2      34.790446414226565      53.405856872478765            1.5785248507
  1746   2      34.790446414226565      53.405856872478765           -1.5785248507
  1747   2      37.587325439683994      51.869847714641985            1.5785248507
  1748   2      37.587325439683994      51.869847714641985           -1.5785248507
  1749   2      40.384204465141416      50.333838556805212            1.5785248507
  1750   2      40.384204465141416      50.333838556805212           -1.5785248507
  1751   2      43.181083490598851      48.797829398968432            1.5785248507
  1752   2      43.181083490598851      48.797829398968432           -1.5785248507
  1753   2      45.977962516056273      47.261820241131645            1.5785248507
  1754   2      45.977962516056273      47.261820241131645           -1.5785248507
  1755   2      48.774841541513702      45.725811083294872            1.5785248507
  1756   2      48.774841541513702      45.725811083294872           -1.5785248507
  1757   2      51.571720566971145      44.189801925458099            1.5785248507
  1758   2      51.571720566971145      44.189801925458099           -1.5785248507
  1759   2      54.368599592428566      42.653792767621312            1.5785248507
  1760   2      54.368599592428566      42.653792767621312           -1.5785248507
  1761   2      57.165478617885995      41.117783609784539            1.5785248507
  1762   2      57.165478617885995      41.117783609784539           -1.5785248507
  1763   2      59.962357643343424      39.581774451947766            1.5785248507
  1764   2      59.962357643343424      39.581774451947766           -1.5785248507
  1765   2      62.759236668800852      38.045765294110979            1.5785248507
  1766   2      62.759236668800852      38.045765294110979           -1.5785248507
  1767   2      65.556115694258281      36.509756136274198            1.5785248507
  1768   2      65.556115694258281      36.509756136274198           -1.5785248507
  1769   2      68.352994719715724      34.973746978437426            1.5785248507
  1770   2      68.352994719715724      34.973746978437426           -1.5785248507
  1771   2      71.149873745173139      33.437737820600653            1.5785248507
  1772   2      71.149873745173139      33.437737820600653           -1.5785248507
  1773   2      73.946752770630567      31.901728662763865            1.5785248507
  1774   2      73.946752770630567      31.901728662763865           -1.5785248507
  1775   2       76.74363179608801      30.365719504927096            1.5785248507
  1776   2       76.74363179608801      30.365719504927096           -1.5785248507
  1777   2      79.540510821545439      28.829710347090312            1.5785248507
  1778   2      79.540510821545439      28.829710347090312           -1.5785248507
  1779   2      82.337389847002868      27.293701189253529            1.5785248507
  1780   2      82.337389847002868      27.293701189253529           -1.5785248507
  1781   2      85.134268872460282      25.757692031416759            1.5785248507
  1782   2      85.134268872460282      25.757692031416759           -1.5785248507
  1783   2      87.931147897917711      24.221682873579976            1.5785248507
  1784   2      87.931147897917711      24.221682873579976           -1.5785248507
  1785   2      34.722229852630051      56.596029738755156            1.5785248507
  1786   2      34.722229852630051      56.596029738755156           -1.5785248507
  1787   2      37.519108878087472      55.060020580918376            1.5785248507
  1788   2      37.519108878087472      55.060020580918376           -1.5785248507
  1789   2      40.315987903544901      53.524011423081603            1.5785248507
  1790   2      40.315987903544901      53.524011423081603           -1.5785248507
  1791   2       43.11286692900233      51.988002265244816            1.5785248507
  1792   2       43.11286692900233      51.988002265244816           -1.5785248507
  1793   2      45.909745954459765      50.451993107408036            1.5785248507
  1794   2      45.909745954459765      50.451993107408036           -1.5785248507
  1795   2      48.706624979917194      48.915983949571263            1.5785248507
  1796   2      48.706624979917194      48.915983949571263           -1.5785248507
  1797   2      51.503504005374616      47.379974791734483            1.5785248507
  1798   2      51.503504005374616      47.379974791734483           -1.5785248507
  1799   2      54.300383030832052       45.84396563389771            1.5785248507
  1800   2      54.300383030832052       45.84396563389771           -1.5785248507
  1801   2      57.097262056289473      44.307956476060923            1.5785248507
  1802   2      57.097262056289473      44.307956476060923           -1.5785248507
  1803   2      59.894141081746902      42.771947318224143            1.5785248507
  1804   2      59.894141081746902      42.771947318224143           -1.5785248507
  1805   2      62.691020107204338      41.235938160387377            1.5785248507
  1806   2      62.691020107204338      41.235938160387377           -1.5785248507
  1807   2      65.487899132661767       39.69992900255059            1.5785248507
  1808   2      65.487899132661767       39.69992900255059           -1.5785248507
  1809   2      68.284778158119195       38.16391984471381            1.5785248507
  1810   2      68.284778158119195       38.16391984471381           -1.5785248507
  1811   2      71.081657183576638      36.627910686877037            1.5785248507
  1812   2      71.081657183576638      36.627910686877037           -1.5785248507
  1813   2      73.878536209034053      35.091901529040264            1.5785248507
  1814   2      73.878536209034053      35.091901529040264           -1.5785248507
  1815   2      76.675415234491481      33.555892371203477            1.5785248507
  1816   2      76.675415234491481      33.555892371203477           -1.5785248507
  1817   2       79.47229425994891      32.019883213366697            1.5785248507
  1818   2       79.47229425994891      32.019883213366697           -1.5785248507
  1819   2      82.269173285406339      30.483874055529924            1.5785248507
  1820   2      82.269173285406339      30.483874055529924           -1.5785248507
  1821   2      85.066052310863768       28.94786489769314            1.5785248507
  1822   2      85.066052310863768       28.94786489769314           -1.5785248507
  1823   2      87.862931336321196      27.411855739856371            1.5785248507
  1824   2      87.862931336321196      27.411855739856371           -1.5785248507
  1825   2      34.654013291033515      59.786202605031534            1.5785248507
  1826   2      34.654013291033515      59.786202605031534           -1.5785248507
  1827   2      37.450892316490943      58.250193447194761            1.5785248507
  1828   2      37.450892316490943      58.250193447194761           -1.5785248507
  1829   2      40.247771341948365      56.714184289357974            1.5785248507
  1830   2      40.247771341948365      56.714184289357974           -1.5785248507
  1831   2      43.044650367405801      55.178175131521201            1.5785248507
  1832   2      43.044650367405801      55.178175131521201           -1.5785248507
  1833   2      45.841529392863222      53.642165973684421            1.5785248507
  1834   2      45.841529392863222      53.642165973684421           -1.5785248507
  1835   2      48.638408418320665       52.10615681584764            1.5785248507
  1836   2      48.638408418320665       52.10615681584764           -1.5785248507
  1837   2      51.435287443778094      50.570147658010868            1.5785248507
  1838   2      51.435287443778094      50.570147658010868           -1.5785248507
  1839   2      54.232166469235516      49.034138500174087            1.5785248507
  1840   2      54.232166469235516      49.034138500174087           -1.5785248507
  1841   2      57.029045494692951      47.498129342337307            1.5785248507
  1842   2      57.029045494692951      47.498129342337307           -1.5785248507
  1843   2      59.825924520150373      45.962120184500527            1.5785248507
  1844   2      59.825924520150373      45.962120184500527           -1.5785248507
  1845   2      62.622803545607802      44.426111026663747            1.5785248507
  1846   2      62.622803545607802      44.426111026663747           -1.5785248507
  1847   2      65.419682571065238      42.890101868826982            1.5785248507
  1848   2      65.419682571065238      42.890101868826982           -1.5785248507
  1849   2      68.216561596522666      41.354092710990194            1.5785248507
  1850   2      68.216561596522666      41.354092710990194           -1.5785248507
  1851   2      71.013440621980095      39.818083553153414            1.5785248507
  1852   2      71.013440621980095      39.818083553153414           -1.5785248507
  1853   2      73.810319647437538      38.282074395316641            1.5785248507
  1854   2      73.810319647437538      38.282074395316641           -1.5785248507
  1855   2      76.607198672894953      36.746065237479861            1.5785248507
  1856   2      76.607198672894953      36.746065237479861           -1.5785248507
  1857   2      79.404077698352367      35.210056079643081            1.5785248507
  1858   2      79.404077698352367      35.210056079643081           -1.5785248507
  1859   2       82.20095672380981      33.674046921806301            1.5785248507
  1860   2       82.20095672380981      33.674046921806301           -1.5785248507
  1861   2      84.997835749267239      32.138037763969528            1.5785248507
  1862   2      84.997835749267239      32.138037763969528           -1.5785248507
  1863   2      87.794714774724667      30.602028606132745            1.5785248507
  1864   2      87.794714774724667      30.602028606132745           -1.5785248507
  1865   2      90.591593800182096      29.066019448295975            1.5785248507
  1866   2      90.591593800182096      29.066019448295975           -1.5785248507
  1867   2      37.382675754894414      61.440366313471138            1.5785248507
  1868   2      37.382675754894414      61.440366313471138           -1.5785248507
  1869   2       40.17955478035185      59.904357155634365            1.5785248507
  1870   2       40.17955478035185      59.904357155634365           -1.5785248507
  1871   2      42.976433805809286      58.368347997797592            1.5785248507
  1872   2      42.976433805809286      58.368347997797592           -1.5785248507
  1873   2      45.773312831266715      56.832338839960812            1.5785248507
  1874   2      45.773312831266715      56.832338839960812           -1.5785248507
  1875   2      48.570191856724136      55.296329682124032            1.5785248507
  1876   2      48.570191856724136      55.296329682124032           -1.5785248507
  1877   2      51.367070882181572      53.760320524287252            1.5785248507
  1878   2      51.367070882181572      53.760320524287252           -1.5785248507
  1879   2      54.163949907639001      52.224311366450472            1.5785248507
  1880   2      54.163949907639001      52.224311366450472           -1.5785248507
  1881   2      56.960828933096423      50.688302208613699            1.5785248507
  1882   2      56.960828933096423      50.688302208613699           -1.5785248507
  1883   2      59.757707958553866      49.152293050776919            1.5785248507
  1884   2      59.757707958553866      49.152293050776919           -1.5785248507
  1885   2      62.554586984011287      47.616283892940139            1.5785248507
  1886   2      62.554586984011287      47.616283892940139           -1.5785248507
  1887   2      65.351466009468709      46.080274735103359            1.5785248507
  1888   2      65.351466009468709      46.080274735103359           -1.5785248507
  1889   2      68.148345034926152      44.544265577266593            1.5785248507
  1890   2      68.148345034926152      44.544265577266593           -1.5785248507
  1891   2       70.94522406038358      43.008256419429806            1.5785248507
  1892   2       70.94522406038358      43.008256419429806           -1.5785248507
  1893   2      73.742103085841009      41.472247261593019            1.5785248507
  1894   2      73.742103085841009      41.472247261593019           -1.5785248507
  1895   2      76.538982111298438      39.936238103756253            1.5785248507
  1896   2      76.538982111298438      39.936238103756253           -1.5785248507
  1897   2      79.335861136755852      38.400228945919473            1.5785248507
  1898   2      79.335861136755852      38.400228945919473           -1.5785248507
  1899   2      82.132740162213281      36.864219788082693            1.5785248507
  1900   2      82.132740162213281      36.864219788082693           -1.5785248507
  1901   2      84.929619187670724      35.328210630245913            1.5785248507
  1902   2      84.929619187670724      35.328210630245913           -1.5785248507
  1903   2      87.726498213128153       33.79220147240914            1.5785248507
  1904   2      87.726498213128153       33.79220147240914           -1.5785248507
  1905   2      90.523377238585581       32.25619231457236            1.5785248507
  1906   2      90.523377238585581       32.25619231457236           -1.5785248507
  1907   2      37.314459193297907      64.630539179747529            1.5785248507
  1908   2      37.314459193297907      64.630539179747529           -1.5785248507
  1909   2      40.111338218755336      63.094530021910757            1.5785248507
  1910   2      40.111338218755336      63.094530021910757           -1.5785248507
  1911   2      42.908217244212771      61.558520864073984            1.5785248507
  1912   2      42.908217244212771      61.558520864073984           -1.5785248507
  1913   2      45.705096269670193      60.022511706237204            1.5785248507
  1914   2      45.705096269670193      60.022511706237204           -1.5785248507
  1915   2      48.501975295127622      58.486502548400424            1.5785248507
  1916   2      48.501975295127622      58.486502548400424           -1.5785248507
  1917   2      51.298854320585043      56.950493390563636            1.5785248507
  1918   2      51.298854320585043      56.950493390563636           -1.5785248507
  1919   2      54.095733346042486      55.414484232726863            1.5785248507
  1920   2      54.095733346042486      55.414484232726863           -1.5785248507
  1921   2      56.892612371499915      53.878475074890083            1.5785248507
  1922   2      56.892612371499915      53.878475074890083           -1.5785248507
  1923   2      59.689491396957337       52.34246591705331            1.5785248507
  1924   2      59.689491396957337       52.34246591705331           -1.5785248507
  1925   2       62.48637042241478       50.80645675921653            1.5785248507
  1926   2       62.48637042241478       50.80645675921653           -1.5785248507
  1927   2      65.283249447872208       49.27044760137975            1.5785248507
  1928   2      65.283249447872208       49.27044760137975           -1.5785248507
  1929   2      68.080128473329623       47.73443844354297            1.5785248507
  1930   2      68.080128473329623       47.73443844354297           -1.5785248507
  1931   2      70.877007498787052      46.198429285706197            1.5785248507
  1932   2      70.877007498787052      46.198429285706197           -1.5785248507
  1933   2       73.67388652424448      44.662420127869417            1.5785248507
  1934   2       73.67388652424448      44.662420127869417           -1.5785248507
  1935   2      76.470765549701909       43.12641097003263            1.5785248507
  1936   2      76.470765549701909       43.12641097003263           -1.5785248507
  1937   2      79.267644575159352      41.590401812195864            1.5785248507
  1938   2      79.267644575159352      41.590401812195864           -1.5785248507
  1939   2      82.064523600616766      40.054392654359084            1.5785248507
  1940   2      82.064523600616766      40.054392654359084           -1.5785248507
  1941   2      84.861402626074195      38.518383496522304            1.5785248507
  1942   2      84.861402626074195      38.518383496522304           -1.5785248507
  1943   2      87.658281651531638      36.982374338685524            1.5785248507
  1944   2      87.658281651531638      36.982374338685524           -1.5785248507
  1945   2      90.455160676989067      35.446365180848744            1.5785248507
  1946   2      90.455160676989067      35.446365180848744           -1.5785248507
  1947   2      93.252039702446496      33.910356023011971            1.5785248507
  1948   2      93.252039702446496      33.910356023011971           -1.5785248507
  1949   2      45.636879708073671      63.212684572513588            1.5785248507
  1950   2      45.636879708073671      63.212684572513588           -1.5785248507
  1951   2      48.433758733531093      61.676675414676801            1.5785248507
  1952   2      48.433758733531093      61.676675414676801           -1.5785248507
  1953   2      51.230637758988522      60.140666256840028            1.5785248507
  1954   2      51.230637758988522      60.140666256840028           -1.5785248507
  1955   2      54.027516784445943      58.604657099003241            1.5785248507
  1956   2      54.027516784445943      58.604657099003241           -1.5785248507
  1957   2      56.824395809903386      57.068647941166468            1.5785248507
  1958   2      56.824395809903386      57.068647941166468           -1.5785248507
  1959   2      59.621274835360815      55.532638783329688            1.5785248507
  1960   2      59.621274835360815      55.532638783329688           -1.5785248507
  1961   2      62.418153860818236      53.996629625492915            1.5785248507
  1962   2      62.418153860818236      53.996629625492915           -1.5785248507
  1963   2      65.215032886275679      52.460620467656135            1.5785248507
  1964   2      65.215032886275679      52.460620467656135           -1.5785248507
  1965   2      68.011911911733108      50.924611309819348            1.5785248507
  1966   2      68.011911911733108      50.924611309819348           -1.5785248507
  1967   2      70.808790937190508      49.388602151982575            1.5785248507
  1968   2      70.808790937190508      49.388602151982575           -1.5785248507
  1969   2      73.605669962647951      47.852592994145802            1.5785248507
  1970   2      73.605669962647951      47.852592994145802           -1.5785248507
  1971   2       76.40254898810538      46.316583836309022            1.5785248507
  1972   2       76.40254898810538      46.316583836309022           -1.5785248507
  1973   2      79.199428013562809      44.780574678472234            1.5785248507
  1974   2      79.199428013562809      44.780574678472234           -1.5785248507
  1975   2      81.996307039020252      43.244565520635469            1.5785248507
  1976   2      81.996307039020252      43.244565520635469           -1.5785248507
  1977   2      84.793186064477666      41.708556362798689            1.5785248507
  1978   2      84.793186064477666      41.708556362798689           -1.5785248507
  1979   2      87.590065089935095      40.172547204961901            1.5785248507
  1980   2      87.590065089935095      40.172547204961901           -1.5785248507
  1981   2      90.386944115392538      38.636538047125129            1.5785248507
  1982   2      90.386944115392538      38.636538047125129           -1.5785248507
  1983   2      93.183823140849967      37.100528889288348            1.5785248507
  1984   2      93.183823140849967      37.100528889288348           -1.5785248507
  1985   2      51.162421197392007      63.330839123116412            1.5785248507
  1986   2      51.162421197392007      63.330839123116412           -1.5785248507
  1987   2      53.959300222849436      61.794829965279639            1.5785248507
  1988   2      53.959300222849436      61.794829965279639           -1.5785248507
  1989   2      56.756179248306857      60.258820807442852            1.5785248507
  1990   2      56.756179248306857      60.258820807442852           -1.5785248507
  1991   2        59.5530582737643      58.722811649606079            1.5785248507
  1992   2        59.5530582737643      58.722811649606079           -1.5785248507
  1993   2      62.349937299221729      57.186802491769299            1.5785248507
  1994   2      62.349937299221729      57.186802491769299           -1.5785248507
  1995   2      65.146816324679151      55.650793333932519            1.5785248507
  1996   2      65.146816324679151      55.650793333932519           -1.5785248507
  1997   2      67.943695350136579      54.114784176095746            1.5785248507
  1998   2      67.943695350136579      54.114784176095746           -1.5785248507
  1999   2      70.740574375594008      52.578775018258959            1.5785248507
  2000   2      70.740574375594008      52.578775018258959           -1.5785248507
  2001   2      73.537453401051422      51.042765860422186            1.5785248507
  2002   2      73.537453401051422      51.042765860422186           -1.5785248507
  2003   2      76.334332426508865      49.506756702585413            1.5785248507
  2004   2      76.334332426508865      49.506756702585413           -1.5785248507
  2005   2      79.131211451966294      47.970747544748633            1.5785248507
  2006   2      79.131211451966294      47.970747544748633           -1.5785248507
  2007   2      81.928090477423723      46.434738386911846            1.5785248507
  2008   2      81.928090477423723      46.434738386911846           -1.5785248507
  2009   2      84.724969502881166      44.898729229075073            1.5785248507
  2010   2      84.724969502881166      44.898729229075073           -1.5785248507
  2011   2       87.52184852833858        43.3627200712383            1.5785248507
  2012   2       87.52184852833858        43.3627200712383           -1.5785248507
  2013   2      90.318727553796009      41.826710913401513            1.5785248507
  2014   2      90.318727553796009      41.826710913401513           -1.5785248507
  2015   2      93.115606579253452       40.29070175556474            1.5785248507
  2016   2      93.115606579253452       40.29070175556474           -1.5785248507
  2017   2      95.912485604710881       38.75469259772796            1.5785248507
  2018   2      95.912485604710881       38.75469259772796           -1.5785248507
  2019   2       56.68796268671035      63.448993673719251            1.5785248507
  2020   2       56.68796268671035      63.448993673719251           -1.5785248507
  2021   2      59.484841712167771      61.912984515882464            1.5785248507
  2022   2      59.484841712167771      61.912984515882464           -1.5785248507
  2023   2        62.2817207376252      60.376975358045684            1.5785248507
  2024   2        62.2817207376252      60.376975358045684           -1.5785248507
  2025   2      65.078599763082622      58.840966200208911            1.5785248507
  2026   2      65.078599763082622      58.840966200208911           -1.5785248507
  2027   2       67.87547878854005      57.304957042372131            1.5785248507
  2028   2       67.87547878854005      57.304957042372131           -1.5785248507
  2029   2      70.672357813997493      55.768947884535358            1.5785248507
  2030   2      70.672357813997493      55.768947884535358           -1.5785248507
  2031   2      73.469236839454922      54.232938726698571            1.5785248507
  2032   2      73.469236839454922      54.232938726698571           -1.5785248507
  2033   2      76.266115864912337      52.696929568861798            1.5785248507
  2034   2      76.266115864912337      52.696929568861798           -1.5785248507
  2035   2      79.062994890369779      51.160920411025025            1.5785248507
  2036   2      79.062994890369779      51.160920411025025           -1.5785248507
  2037   2      81.859873915827208      49.624911253188237            1.5785248507
  2038   2      81.859873915827208      49.624911253188237           -1.5785248507
  2039   2      84.656752941284637      48.088902095351457            1.5785248507
  2040   2      84.656752941284637      48.088902095351457           -1.5785248507
  2041   2       87.45363196674208      46.552892937514684            1.5785248507
  2042   2       87.45363196674208      46.552892937514684           -1.5785248507
  2043   2      90.250510992199494      45.016883779677912            1.5785248507
  2044   2      90.250510992199494      45.016883779677912           -1.5785248507
  2045   2      93.047390017656923      43.480874621841124            1.5785248507
  2046   2      93.047390017656923      43.480874621841124           -1.5785248507
  2047   2      95.844269043114352      41.944865464004351            1.5785248507
  2048   2      95.844269043114352      41.944865464004351           -1.5785248507
  2049   2      62.213504176028657      63.567148224322068            1.5785248507
  2050   2      62.213504176028657      63.567148224322068           -1.5785248507
  2051   2      65.010383201486093      62.031139066485288            1.5785248507
  2052   2      65.010383201486093      62.031139066485288           -1.5785248507
  2053   2      67.807262226943521      60.495129908648515            1.5785248507
  2054   2      67.807262226943521      60.495129908648515           -1.5785248507
  2055   2       70.60414125240095      58.959120750811735            1.5785248507
  2056   2       70.60414125240095      58.959120750811735           -1.5785248507
  2057   2      73.401020277858393      57.423111592974962            1.5785248507
  2058   2      73.401020277858393      57.423111592974962           -1.5785248507
  2059   2      76.197899303315822      55.887102435138175            1.5785248507
  2060   2      76.197899303315822      55.887102435138175           -1.5785248507
  2061   2      78.994778328773236      54.351093277301395            1.5785248507
  2062   2      78.994778328773236      54.351093277301395           -1.5785248507
  2063   2      81.791657354230679      52.815084119464629            1.5785248507
  2064   2      81.791657354230679      52.815084119464629           -1.5785248507
  2065   2      84.588536379688108      51.279074961627842            1.5785248507
  2066   2      84.588536379688108      51.279074961627842           -1.5785248507
  2067   2      87.385415405145537      49.743065803791062            1.5785248507
  2068   2      87.385415405145537      49.743065803791062           -1.5785248507
  2069   2       90.18229443060298      48.207056645954289            1.5785248507
  2070   2       90.18229443060298      48.207056645954289           -1.5785248507
  2071   2       92.97917345606038      46.671047488117516            1.5785248507
  2072   2       92.97917345606038      46.671047488117516           -1.5785248507
  2073   2      95.776052481517809      45.135038330280729            1.5785248507
  2074   2      95.776052481517809      45.135038330280729           -1.5785248507
  2075   2      98.572931506975252      43.599029172443949            1.5785248507
  2076   2      98.572931506975252      43.599029172443949           -1.5785248507
  2077   2      67.739045665347007      63.685302774924899            1.5785248507
  2078   2      67.739045665347007      63.685302774924899           -1.5785248507
  2079   2      70.535924690804435      62.149293617088126            1.5785248507
  2080   2      70.535924690804435      62.149293617088126           -1.5785248507
  2081   2      73.332803716261864      60.613284459251346            1.5785248507
  2082   2      73.332803716261864      60.613284459251346           -1.5785248507
  2083   2      76.129682741719307      59.077275301414566            1.5785248507
  2084   2      76.129682741719307      59.077275301414566           -1.5785248507
  2085   2      78.926561767176736      57.541266143577786            1.5785248507
  2086   2      78.926561767176736      57.541266143577786           -1.5785248507
  2087   2       81.72344079263415      56.005256985741006            1.5785248507
  2088   2       81.72344079263415      56.005256985741006           -1.5785248507
  2089   2      84.520319818091593       54.46924782790424            1.5785248507
  2090   2      84.520319818091593       54.46924782790424           -1.5785248507
  2091   2      87.317198843549022      52.933238670067453            1.5785248507
  2092   2      87.317198843549022      52.933238670067453           -1.5785248507
  2093   2      90.114077869006437      51.397229512230673            1.5785248507
  2094   2      90.114077869006437      51.397229512230673           -1.5785248507
  2095   2       92.91095689446388        49.8612203543939            1.5785248507
  2096   2       92.91095689446388        49.8612203543939           -1.5785248507
  2097   2      95.707835919921294       48.32521119655712            1.5785248507
  2098   2      95.707835919921294       48.32521119655712           -1.5785248507
  2099   2      98.504714945378723       46.78920203872034            1.5785248507
  2100   2      98.504714945378723       46.78920203872034           -1.5785248507
  2101   2       73.26458715466535      63.803457325527731            1.5785248507
  2102   2       73.26458715466535      63.803457325527731           -1.5785248507
  2103   2      76.061466180122778      62.267448167690958            1.5785248507
  2104   2      76.061466180122778      62.267448167690958           -1.5785248507
  2105   2      78.858345205580221      60.731439009854178            1.5785248507
  2106   2      78.858345205580221      60.731439009854178           -1.5785248507
  2107   2       81.65522423103765      59.195429852017398            1.5785248507
  2108   2       81.65522423103765      59.195429852017398           -1.5785248507
  2109   2      84.452103256495064      57.659420694180618            1.5785248507
  2110   2      84.452103256495064      57.659420694180618           -1.5785248507
  2111   2      87.248982281952493      56.123411536343852            1.5785248507
  2112   2      87.248982281952493      56.123411536343852           -1.5785248507
  2113   2      90.045861307409922      54.587402378507065            1.5785248507
  2114   2      90.045861307409922      54.587402378507065           -1.5785248507
  2115   2      92.842740332867351      53.051393220670278            1.5785248507
  2116   2      92.842740332867351      53.051393220670278           -1.5785248507
  2117   2      95.639619358324794      51.515384062833512            1.5785248507
  2118   2      95.639619358324794      51.515384062833512           -1.5785248507
  2119   2      98.436498383782208      49.979374904996732            1.5785248507
  2120   2      98.436498383782208      49.979374904996732           -1.5785248507
  2121   2      101.23337740923964      48.443365747159952            1.5785248507
  2122   2      101.23337740923964      48.443365747159952           -1.5785248507
  2123   2      78.790128643983678      63.921611876130562            1.5785248507
  2124   2      78.790128643983678      63.921611876130562           -1.5785248507
  2125   2      81.587007669441121      62.385602718293782            1.5785248507
  2126   2      81.587007669441121      62.385602718293782           -1.5785248507
  2127   2      84.383886694898536      60.849593560457002            1.5785248507
  2128   2      84.383886694898536      60.849593560457002           -1.5785248507
  2129   2       87.18076572035595      59.313584402620222            1.5785248507
  2130   2       87.18076572035595      59.313584402620222           -1.5785248507
  2131   2      89.977644745813393      57.777575244783449            1.5785248507
  2132   2      89.977644745813393      57.777575244783449           -1.5785248507
  2133   2      92.774523771270822      56.241566086946669            1.5785248507
  2134   2      92.774523771270822      56.241566086946669           -1.5785248507
  2135   2       95.57140279672825      54.705556929109882            1.5785248507
  2136   2       95.57140279672825      54.705556929109882           -1.5785248507
  2137   2      98.368281822185693      53.169547771273116            1.5785248507
  2138   2      98.368281822185693      53.169547771273116           -1.5785248507
  2139   2      101.16516084764311      51.633538613436336            1.5785248507
  2140   2      101.16516084764311      51.633538613436336           -1.5785248507
  2141   2      84.315670133302021      64.039766426733394            1.5785248507
  2142   2      84.315670133302021      64.039766426733394           -1.5785248507
  2143   2       87.11254915875945      62.503757268896607            1.5785248507
  2144   2       87.11254915875945      62.503757268896607           -1.5785248507
  2145   2      89.909428184216864      60.967748111059834            1.5785248507
  2146   2      89.909428184216864      60.967748111059834           -1.5785248507
  2147   2      92.706307209674307      59.431738953223061            1.5785248507
  2148   2      92.706307209674307      59.431738953223061           -1.5785248507
  2149   2      95.503186235131736      57.895729795386281            1.5785248507
  2150   2      95.503186235131736      57.895729795386281           -1.5785248507
  2151   2      98.300065260589164      56.359720637549493            1.5785248507
  2152   2      98.300065260589164      56.359720637549493           -1.5785248507
  2153   2      101.09694428604661      54.823711479712721            1.5785248507
  2154   2      101.09694428604661      54.823711479712721           -1.5785248507
  2155   2      103.89382331150402      53.287702321875948            1.5785248507
  2156   2      103.89382331150402      53.287702321875948           -1.5785248507
  2157   2      89.841211622620364      64.157920977336218            1.5785248507
  2158   2      89.841211622620364      64.157920977336218           -1.5785248507
  2159   2      92.638090648077778      62.621911819499445            1.5785248507
  2160   2      92.638090648077778      62.621911819499445           -1.5785248507
  2161   2      95.434969673535221      61.085902661662672            1.5785248507
  2162   2      95.434969673535221      61.085902661662672           -1.5785248507
  2163   2       98.23184869899265      59.549893503825885            1.5785248507
  2164   2       98.23184869899265      59.549893503825885           -1.5785248507
  2165   2      101.02872772445008      58.013884345989105            1.5785248507
  2166   2      101.02872772445008      58.013884345989105           -1.5785248507
  2167   2      103.82560674990752      56.477875188152332            1.5785248507
  2168   2      103.82560674990752      56.477875188152332           -1.5785248507
  2169   2      95.366753111938678      64.276075527939042            1.5785248507
  2170   2      95.366753111938678      64.276075527939042           -1.5785248507
  2171   2      98.163632137396121      62.740066370102276            1.5785248507
  2172   2      98.163632137396121      62.740066370102276           -1.5785248507
  2173   2      100.96051116285355      61.204057212265489            1.5785248507
  2174   2      100.96051116285355      61.204057212265489           -1.5785248507
  2175   2      103.75739018831098      59.668048054428709            1.5785248507
  2176   2      103.75739018831098      59.668048054428709           -1.5785248507
  2177   2      106.55426921376841      58.132038896591936            1.5785248507
  2178   2      106.55426921376841      58.132038896591936           -1.5785248507
  2179   2      100.89229460125703      64.394230078541881            1.5785248507
  2180   2      100.89229460125703      64.394230078541881           -1.5785248507
  2181   2      103.68917362671445      62.858220920705101            1.5785248507
  2182   2      103.68917362671445      62.858220920705101           -1.5785248507
  2183   2      106.48605265217188      61.322211762868321            1.5785248507
  2184   2      106.48605265217188      61.322211762868321           -1.5785248507
  2185   2      106.41783609057536      64.512384629144719            1.5785248507
  2186   2      106.41783609057536      64.512384629144719           -1.5785248507
  2187   2      109.21471511603279      62.976375471307932            1.5785248507
  2188   2      109.21471511603279      62.976375471307932           -1.5785248507
  2189   2       4.603807290488537      1.5542255510741541      8.0785248506999991
  2190   2       4.603807290488537      1.5542255510741541            4.9214751493
  2191   2      4.6720238520850499      4.7443984173505411      8.0785248506999991
  2192   2      4.6720238520850499      4.7443984173505411            4.9214751493
  2193   2      7.4006863159459604      3.0902347089109417      8.0785248506999991
  2194   2      7.4006863159459604      3.0902347089109417            4.9214751493
  2195   2      10.129348779806874      1.4360710004713428      8.0785248506999991
  2196   2      10.129348779806874      1.4360710004713428            4.9214751493
  2197   2      7.4689028775424724      6.2804075751873283      8.0785248506999991
  2198   2      7.4689028775424724      6.2804075751873283            4.9214751493
  2199   2      10.197565341403385      4.6262438667477301      8.0785248506999991
  2200   2      10.197565341403385      4.6262438667477301            4.9214751493
  2201   2      12.926227805264297      2.9720801583081307      8.0785248506999991
  2202   2      12.926227805264297      2.9720801583081307            4.9214751493
  2203   2      15.654890269125209      1.3179164498685312      8.0785248506999991
  2204   2      15.654890269125209      1.3179164498685312            4.9214751493
  2205   2       7.537119439138988      9.4705804414637154      8.0785248506999991
  2206   2       7.537119439138988      9.4705804414637154            4.9214751493
  2207   2      10.265781902999899      7.8164167330241163      8.0785248506999991
  2208   2      10.265781902999899      7.8164167330241163            4.9214751493
  2209   2      12.994444366860812      6.1622530245845173      8.0785248506999991
  2210   2      12.994444366860812      6.1622530245845173            4.9214751493
  2211   2      15.723106830721724      4.5080893161449191      8.0785248506999991
  2212   2      15.723106830721724      4.5080893161449191            4.9214751493
  2213   2      18.451769294582633      2.8539256077053183      8.0785248506999991
  2214   2      18.451769294582633      2.8539256077053183            4.9214751493
  2215   2      21.180431758443547      1.1997618992657195      8.0785248506999991
  2216   2      21.180431758443547      1.1997618992657195            4.9214751493
  2217   2      10.333998464596412      11.006589599300504      8.0785248506999991
  2218   2      10.333998464596412      11.006589599300504            4.9214751493
  2219   2      13.062660928457321      9.3524258908609035      8.0785248506999991
  2220   2      13.062660928457321      9.3524258908609035            4.9214751493
  2221   2      15.791323392318233      7.6982621824213044      8.0785248506999991
  2222   2      15.791323392318233      7.6982621824213044            4.9214751493
  2223   2      18.519985856179147      6.0440984739817054      8.0785248506999991
  2224   2      18.519985856179147      6.0440984739817054            4.9214751493
  2225   2      21.248648320040058      4.3899347655421073      8.0785248506999991
  2226   2      21.248648320040058      4.3899347655421073            4.9214751493
  2227   2      23.977310783900972      2.7357710571025073      8.0785248506999991
  2228   2      23.977310783900972      2.7357710571025073            4.9214751493
  2229   2      26.705973247761882      1.0816073486629081      8.0785248506999991
  2230   2      26.705973247761882      1.0816073486629081            4.9214751493
  2231   2      10.402215026192922      14.196762465576889      8.0785248506999991
  2232   2      10.402215026192922      14.196762465576889            4.9214751493
  2233   2      13.130877490053834       12.54259875713729      8.0785248506999991
  2234   2      13.130877490053834       12.54259875713729            4.9214751493
  2235   2      15.859539953914746      10.888435048697691      8.0785248506999991
  2236   2      15.859539953914746      10.888435048697691            4.9214751493
  2237   2      18.588202417775658      9.2342713402580916      8.0785248506999991
  2238   2      18.588202417775658      9.2342713402580916            4.9214751493
  2239   2      21.316864881636569      7.5801076318184935      8.0785248506999991
  2240   2      21.316864881636569      7.5801076318184935            4.9214751493
  2241   2      24.045527345497483      5.9259439233788953      8.0785248506999991
  2242   2      24.045527345497483      5.9259439233788953            4.9214751493
  2243   2      26.774189809358397      4.2717802149392954      8.0785248506999991
  2244   2      26.774189809358397      4.2717802149392954            4.9214751493
  2245   2      29.502852273219307      2.6176165064996941      8.0785248506999991
  2246   2      29.502852273219307      2.6176165064996941            4.9214751493
  2247   2      32.231514737080218     0.96345279806009465      8.0785248506999991
  2248   2      32.231514737080218     0.96345279806009465            4.9214751493
  2249   2      13.199094051650352      15.732771623413678      8.0785248506999991
  2250   2      13.199094051650352      15.732771623413678            4.9214751493
  2251   2      15.927756515511257      14.078607914974079      8.0785248506999991
  2252   2      15.927756515511257      14.078607914974079            4.9214751493
  2253   2      18.656418979372173       12.42444420653448      8.0785248506999991
  2254   2      18.656418979372173       12.42444420653448            4.9214751493
  2255   2      21.385081443233084      10.770280498094881      8.0785248506999991
  2256   2      21.385081443233084      10.770280498094881            4.9214751493
  2257   2      24.113743907093998      9.1161167896552815      8.0785248506999991
  2258   2      24.113743907093998      9.1161167896552815            4.9214751493
  2259   2      26.842406370954908      7.4619530812156833      8.0785248506999991
  2260   2      26.842406370954908      7.4619530812156833            4.9214751493
  2261   2      29.571068834815819      5.8077893727760816      8.0785248506999991
  2262   2      29.571068834815819      5.8077893727760816            4.9214751493
  2263   2      32.299731298676733      4.1536256643364826      8.0785248506999991
  2264   2      32.299731298676733      4.1536256643364826            4.9214751493
  2265   2       35.02839376253764       2.499461955896884      8.0785248506999991
  2266   2       35.02839376253764       2.499461955896884            4.9214751493
  2267   2      37.757056226398554     0.84529824745728599      8.0785248506999991
  2268   2      37.757056226398554     0.84529824745728599            4.9214751493
  2269   2      13.267310613246863      18.922944489690064      8.0785248506999991
  2270   2      13.267310613246863      18.922944489690064            4.9214751493
  2271   2      15.995973077107774      17.268780781250463      8.0785248506999991
  2272   2      15.995973077107774      17.268780781250463            4.9214751493
  2273   2      18.724635540968684      15.614617072810866      8.0785248506999991
  2274   2      18.724635540968684      15.614617072810866            4.9214751493
  2275   2      21.453298004829598      13.960453364371267      8.0785248506999991
  2276   2      21.453298004829598      13.960453364371267            4.9214751493
  2277   2      24.181960468690509      12.306289655931668      8.0785248506999991
  2278   2      24.181960468690509      12.306289655931668            4.9214751493
  2279   2      26.910622932551423       10.65212594749207      8.0785248506999991
  2280   2      26.910622932551423       10.65212594749207            4.9214751493
  2281   2      29.639285396412333      8.9979622390524714      8.0785248506999991
  2282   2      29.639285396412333      8.9979622390524714            4.9214751493
  2283   2      32.367947860273247      7.3437985306128715      8.0785248506999991
  2284   2      32.367947860273247      7.3437985306128715            4.9214751493
  2285   2      35.096610324134154      5.6896348221732698      8.0785248506999991
  2286   2      35.096610324134154      5.6896348221732698            4.9214751493
  2287   2      37.825272787995075      4.0354711137336743      8.0785248506999991
  2288   2      37.825272787995075      4.0354711137336743            4.9214751493
  2289   2      40.553935251855975      2.3813074052940757      8.0785248506999991
  2290   2      40.553935251855975      2.3813074052940757            4.9214751493
  2291   2      43.282597715716889     0.72714369685447444      8.0785248506999991
  2292   2      43.282597715716889     0.72714369685447444            4.9214751493
  2293   2      16.064189638704288      20.458953647526851      8.0785248506999991
  2294   2      16.064189638704288      20.458953647526851            4.9214751493
  2295   2      18.792852102565199      18.804789939087254      8.0785248506999991
  2296   2      18.792852102565199      18.804789939087254            4.9214751493
  2297   2      21.521514566426109      17.150626230647653      8.0785248506999991
  2298   2      21.521514566426109      17.150626230647653            4.9214751493
  2299   2       24.25017703028702      15.496462522208056      8.0785248506999991
  2300   2       24.25017703028702      15.496462522208056            4.9214751493
  2301   2      26.978839494147934      13.842298813768457      8.0785248506999991
  2302   2      26.978839494147934      13.842298813768457            4.9214751493
  2303   2      29.707501958008844      12.188135105328856      8.0785248506999991
  2304   2      29.707501958008844      12.188135105328856            4.9214751493
  2305   2      32.436164421869762      10.533971396889259      8.0785248506999991
  2306   2      32.436164421869762      10.533971396889259            4.9214751493
  2307   2      35.164826885730669      8.8798076884496577      8.0785248506999991
  2308   2      35.164826885730669      8.8798076884496577            4.9214751493
  2309   2      37.893489349591583      7.2256439800100596      8.0785248506999991
  2310   2      37.893489349591583      7.2256439800100596            4.9214751493
  2311   2       40.62215181345249      5.5714802715704606      8.0785248506999991
  2312   2       40.62215181345249      5.5714802715704606            4.9214751493
  2313   2      43.350814277313411      3.9173165631308655      8.0785248506999991
  2314   2      43.350814277313411      3.9173165631308655            4.9214751493
  2315   2      46.079476741174318      2.2631528546912643      8.0785248506999991
  2316   2      46.079476741174318      2.2631528546912643            4.9214751493
  2317   2      48.808139205035232     0.60898914625166289      8.0785248506999991
  2318   2      48.808139205035232     0.60898914625166289            4.9214751493
  2319   2        16.1324062003008      23.649126513803239      8.0785248506999991
  2320   2        16.1324062003008      23.649126513803239            4.9214751493
  2321   2       18.86106866416171      21.994962805363638      8.0785248506999991
  2322   2       18.86106866416171      21.994962805363638            4.9214751493
  2323   2      21.589731128022624      20.340799096924037      8.0785248506999991
  2324   2      21.589731128022624      20.340799096924037            4.9214751493
  2325   2      24.318393591883535       18.68663538848444      8.0785248506999991
  2326   2      24.318393591883535       18.68663538848444            4.9214751493
  2327   2      27.047056055744449      17.032471680044843      8.0785248506999991
  2328   2      27.047056055744449      17.032471680044843            4.9214751493
  2329   2      29.775718519605359      15.378307971605242      8.0785248506999991
  2330   2      29.775718519605359      15.378307971605242            4.9214751493
  2331   2       32.50438098346627      13.724144263165647      8.0785248506999991
  2332   2       32.50438098346627      13.724144263165647            4.9214751493
  2333   2      35.233043447327184      12.069980554726046      8.0785248506999991
  2334   2      35.233043447327184      12.069980554726046            4.9214751493
  2335   2      37.961705911188098      10.415816846286448      8.0785248506999991
  2336   2      37.961705911188098      10.415816846286448            4.9214751493
  2337   2      40.690368375049005      8.7616531378468476      8.0785248506999991
  2338   2      40.690368375049005      8.7616531378468476            4.9214751493
  2339   2      43.419030838909919      7.1074894294072468      8.0785248506999991
  2340   2      43.419030838909919      7.1074894294072468            4.9214751493
  2341   2      46.147693302770826      5.4533257209676513      8.0785248506999991
  2342   2      46.147693302770826      5.4533257209676513            4.9214751493
  2343   2       48.87635576663174      3.7991620125280505      8.0785248506999991
  2344   2       48.87635576663174      3.7991620125280505            4.9214751493
  2345   2      51.605018230492654      2.1449983040884528      8.0785248506999991
  2346   2      51.605018230492654      2.1449983040884528            4.9214751493
  2347   2      54.333680694353568     0.49083459564885135      8.0785248506999991
  2348   2      54.333680694353568     0.49083459564885135            4.9214751493
  2349   2      18.929285225758225      25.185135671640026      8.0785248506999991
  2350   2      18.929285225758225      25.185135671640026            4.9214751493
  2351   2      21.657947689619139      23.530971963200429      8.0785248506999991
  2352   2      21.657947689619139      23.530971963200429            4.9214751493
  2353   2      24.386610153480049      21.876808254760832      8.0785248506999991
  2354   2      24.386610153480049      21.876808254760832            4.9214751493
  2355   2       27.11527261734096      20.222644546321231      8.0785248506999991
  2356   2       27.11527261734096      20.222644546321231            4.9214751493
  2357   2      29.843935081201874      18.568480837881634      8.0785248506999991
  2358   2      29.843935081201874      18.568480837881634            4.9214751493
  2359   2      32.572597545062784      16.914317129442033      8.0785248506999991
  2360   2      32.572597545062784      16.914317129442033            4.9214751493
  2361   2      35.301260008923691      15.260153421002432      8.0785248506999991
  2362   2      35.301260008923691      15.260153421002432            4.9214751493
  2363   2      38.029922472784612      13.605989712562835      8.0785248506999991
  2364   2      38.029922472784612      13.605989712562835            4.9214751493
  2365   2      40.758584936645512      11.951826004123236      8.0785248506999991
  2366   2      40.758584936645512      11.951826004123236            4.9214751493
  2367   2      43.487247400506433      10.297662295683638      8.0785248506999991
  2368   2      43.487247400506433      10.297662295683638            4.9214751493
  2369   2      46.215909864367347      8.6434985872440357      8.0785248506999991
  2370   2      46.215909864367347      8.6434985872440357            4.9214751493
  2371   2      48.944572328228254      6.9893348788044376      8.0785248506999991
  2372   2      48.944572328228254      6.9893348788044376            4.9214751493
  2373   2      51.673234792089161      5.3351711703648403      8.0785248506999991
  2374   2      51.673234792089161      5.3351711703648403            4.9214751493
  2375   2      54.401897255950075      3.6810074619252386      8.0785248506999991
  2376   2      54.401897255950075      3.6810074619252386            4.9214751493
  2377   2      57.130559719810996      2.0268437534856409      8.0785248506999991
  2378   2      57.130559719810996      2.0268437534856409            4.9214751493
  2379   2      59.859222183671903      0.3726800450460398      8.0785248506999991
  2380   2      59.859222183671903      0.3726800450460398            4.9214751493
  2381   2      18.997501787354736      28.375308537916411      8.0785248506999991
  2382   2      18.997501787354736      28.375308537916411            4.9214751493
  2383   2      21.726164251215646      26.721144829476817      8.0785248506999991
  2384   2      21.726164251215646      26.721144829476817            4.9214751493
  2385   2      24.454826715076557      25.066981121037212      8.0785248506999991
  2386   2      24.454826715076557      25.066981121037212            4.9214751493
  2387   2      27.183489178937471      23.412817412597615      8.0785248506999991
  2388   2      27.183489178937471      23.412817412597615            4.9214751493
  2389   2      29.912151642798381      21.758653704158018      8.0785248506999991
  2390   2      29.912151642798381      21.758653704158018            4.9214751493
  2391   2      32.640814106659299      20.104489995718421      8.0785248506999991
  2392   2      32.640814106659299      20.104489995718421            4.9214751493
  2393   2      35.369476570520206       18.45032628727882      8.0785248506999991
  2394   2      35.369476570520206       18.45032628727882            4.9214751493
  2395   2      38.098139034381113      16.796162578839219      8.0785248506999991
  2396   2      38.098139034381113      16.796162578839219            4.9214751493
  2397   2      40.826801498242034      15.141998870399622      8.0785248506999991
  2398   2      40.826801498242034      15.141998870399622            4.9214751493
  2399   2      43.555463962102941      13.487835161960021      8.0785248506999991
  2400   2      43.555463962102941      13.487835161960021            4.9214751493
  2401   2      46.284126425963855      11.833671453520424      8.0785248506999991
  2402   2      46.284126425963855      11.833671453520424            4.9214751493
  2403   2      49.012788889824762      10.179507745080823      8.0785248506999991
  2404   2      49.012788889824762      10.179507745080823            4.9214751493
  2405   2      51.741451353685683      8.5253440366412274      8.0785248506999991
  2406   2      51.741451353685683      8.5253440366412274            4.9214751493
  2407   2       54.47011381754659      6.8711803282016266      8.0785248506999991
  2408   2       54.47011381754659      6.8711803282016266            4.9214751493
  2409   2      57.198776281407504      5.2170166197620249      8.0785248506999991
  2410   2      57.198776281407504      5.2170166197620249            4.9214751493
  2411   2      59.927438745268411      3.5628529113224272      8.0785248506999991
  2412   2      59.927438745268411      3.5628529113224272            4.9214751493
  2413   2      62.656101209129325       1.908689202882826      8.0785248506999991
  2414   2      62.656101209129325       1.908689202882826            4.9214751493
  2415   2      65.384763672990232      0.2545254944432343      8.0785248506999991
  2416   2      65.384763672990232      0.2545254944432343            4.9214751493
  2417   2      21.794380812812161      29.911317695753198      8.0785248506999991
  2418   2      21.794380812812161      29.911317695753198            4.9214751493
  2419   2      24.523043276673075        28.2571539873136      8.0785248506999991
  2420   2      24.523043276673075        28.2571539873136            4.9214751493
  2421   2      27.251705740533982         26.602990278874      8.0785248506999991
  2422   2      27.251705740533982         26.602990278874            4.9214751493
  2423   2      29.980368204394896      24.948826570434406      8.0785248506999991
  2424   2      29.980368204394896      24.948826570434406            4.9214751493
  2425   2      32.709030668255807      23.294662861994805      8.0785248506999991
  2426   2      32.709030668255807      23.294662861994805            4.9214751493
  2427   2      35.437693132116728      21.640499153555208      8.0785248506999991
  2428   2      35.437693132116728      21.640499153555208            4.9214751493
  2429   2      38.166355595977635      19.986335445115611      8.0785248506999991
  2430   2      38.166355595977635      19.986335445115611            4.9214751493
  2431   2      40.895018059838542      18.332171736676006      8.0785248506999991
  2432   2      40.895018059838542      18.332171736676006            4.9214751493
  2433   2      43.623680523699456      16.678008028236412      8.0785248506999991
  2434   2      43.623680523699456      16.678008028236412            4.9214751493
  2435   2       46.35234298756037      15.023844319796812      8.0785248506999991
  2436   2       46.35234298756037      15.023844319796812            4.9214751493
  2437   2      49.081005451421284      13.369680611357213      8.0785248506999991
  2438   2      49.081005451421284      13.369680611357213            4.9214751493
  2439   2      51.809667915282191      11.715516902917612      8.0785248506999991
  2440   2      51.809667915282191      11.715516902917612            4.9214751493
  2441   2      54.538330379143105      10.061353194478018      8.0785248506999991
  2442   2      54.538330379143105      10.061353194478018            4.9214751493
  2443   2      57.266992843004019      8.4071894860384155      8.0785248506999991
  2444   2      57.266992843004019      8.4071894860384155            4.9214751493
  2445   2      59.995655306864926      6.7530257775988147      8.0785248506999991
  2446   2      59.995655306864926      6.7530257775988147            4.9214751493
  2447   2      62.724317770725847      5.0988620691592175      8.0785248506999991
  2448   2      62.724317770725847      5.0988620691592175            4.9214751493
  2449   2      65.452980234586747      3.4446983607196158      8.0785248506999991
  2450   2      65.452980234586747      3.4446983607196158            4.9214751493
  2451   2      68.181642698447661       1.790534652280021      8.0785248506999991
  2452   2      68.181642698447661       1.790534652280021            4.9214751493
  2453   2      70.910305162308575     0.13637094384042583      8.0785248506999991
  2454   2      70.910305162308575     0.13637094384042583            4.9214751493
  2455   2      21.862597374408672      33.101490562029582      8.0785248506999991
  2456   2      21.862597374408672      33.101490562029582            4.9214751493
  2457   2       24.59125983826959      31.447326853589985      8.0785248506999991
  2458   2       24.59125983826959      31.447326853589985            4.9214751493
  2459   2      27.319922302130497      29.793163145150388      8.0785248506999991
  2460   2      27.319922302130497      29.793163145150388            4.9214751493
  2461   2      30.048584765991407      28.138999436710787      8.0785248506999991
  2462   2      30.048584765991407      28.138999436710787            4.9214751493
  2463   2      32.777247229852321      26.484835728271189      8.0785248506999991
  2464   2      32.777247229852321      26.484835728271189            4.9214751493
  2465   2      35.505909693713235      24.830672019831589      8.0785248506999991
  2466   2      35.505909693713235      24.830672019831589            4.9214751493
  2467   2      38.234572157574142      23.176508311391995      8.0785248506999991
  2468   2      38.234572157574142      23.176508311391995            4.9214751493
  2469   2      40.963234621435056      21.522344602952394      8.0785248506999991
  2470   2      40.963234621435056      21.522344602952394            4.9214751493
  2471   2      43.691897085295963      19.868180894512793      8.0785248506999991
  2472   2      43.691897085295963      19.868180894512793            4.9214751493
  2473   2      46.420559549156884      18.214017186073196      8.0785248506999991
  2474   2      46.420559549156884      18.214017186073196            4.9214751493
  2475   2      49.149222013017784      16.559853477633599      8.0785248506999991
  2476   2      49.149222013017784      16.559853477633599            4.9214751493
  2477   2      51.877884476878705         14.905689769194      8.0785248506999991
  2478   2      51.877884476878705         14.905689769194            4.9214751493
  2479   2      54.606546940739619      13.251526060754399      8.0785248506999991
  2480   2      54.606546940739619      13.251526060754399            4.9214751493
  2481   2      57.335209404600526        11.5973623523148      8.0785248506999991
  2482   2      57.335209404600526        11.5973623523148            4.9214751493
  2483   2      60.063871868461433      9.9431986438752027      8.0785248506999991
  2484   2      60.063871868461433      9.9431986438752027            4.9214751493
  2485   2      62.792534332322347      8.2890349354356019      8.0785248506999991
  2486   2      62.792534332322347      8.2890349354356019            4.9214751493
  2487   2      65.521196796183261      6.6348712269960028      8.0785248506999991
  2488   2      65.521196796183261      6.6348712269960028            4.9214751493
  2489   2      68.249859260044175       4.980707518556402      8.0785248506999991
  2490   2      68.249859260044175       4.980707518556402            4.9214751493
  2491   2      70.978521723905089       3.326543810116803      8.0785248506999991
  2492   2      70.978521723905089       3.326543810116803            4.9214751493
  2493   2      73.707184187765989      1.6723801016772055      8.0785248506999991
  2494   2      73.707184187765989      1.6723801016772055            4.9214751493
  2495   2      24.659476399866101      34.637499719866376      8.0785248506999991
  2496   2      24.659476399866101      34.637499719866376            4.9214751493
  2497   2      27.388138863727018      32.983336011426779      8.0785248506999991
  2498   2      27.388138863727018      32.983336011426779            4.9214751493
  2499   2      30.116801327587922      31.329172302987178      8.0785248506999991
  2500   2      30.116801327587922      31.329172302987178            4.9214751493
  2501   2      32.845463791448836      29.675008594547577      8.0785248506999991
  2502   2      32.845463791448836      29.675008594547577            4.9214751493
  2503   2       35.57412625530975       28.02084488610798      8.0785248506999991
  2504   2       35.57412625530975       28.02084488610798            4.9214751493
  2505   2      38.302788719170657      26.366681177668379      8.0785248506999991
  2506   2      38.302788719170657      26.366681177668379            4.9214751493
  2507   2      41.031451183031571      24.712517469228782      8.0785248506999991
  2508   2      41.031451183031571      24.712517469228782            4.9214751493
  2509   2      43.760113646892478      23.058353760789181      8.0785248506999991
  2510   2      43.760113646892478      23.058353760789181            4.9214751493
  2511   2      46.488776110753392       21.40419005234958      8.0785248506999991
  2512   2      46.488776110753392       21.40419005234958            4.9214751493
  2513   2      49.217438574614313      19.750026343909987      8.0785248506999991
  2514   2      49.217438574614313      19.750026343909987            4.9214751493
  2515   2       51.94610103847522      18.095862635470386      8.0785248506999991
  2516   2       51.94610103847522      18.095862635470386            4.9214751493
  2517   2      54.674763502336134      16.441698927030789      8.0785248506999991
  2518   2      54.674763502336134      16.441698927030789            4.9214751493
  2519   2      57.403425966197041      14.787535218591188      8.0785248506999991
  2520   2      57.403425966197041      14.787535218591188            4.9214751493
  2521   2      60.132088430057948      13.133371510151592      8.0785248506999991
  2522   2      60.132088430057948      13.133371510151592            4.9214751493
  2523   2      62.860750893918869      11.479207801711995      8.0785248506999991
  2524   2      62.860750893918869      11.479207801711995            4.9214751493
  2525   2      65.589413357779776      9.8250440932723944      8.0785248506999991
  2526   2      65.589413357779776      9.8250440932723944            4.9214751493
  2527   2       68.31807582164069      8.1708803848327918      8.0785248506999991
  2528   2       68.31807582164069      8.1708803848327918            4.9214751493
  2529   2      71.046738285501604      6.5167166763931945      8.0785248506999991
  2530   2      71.046738285501604      6.5167166763931945            4.9214751493
  2531   2      73.775400749362518      4.8625529679535902      8.0785248506999991
  2532   2      73.775400749362518      4.8625529679535902            4.9214751493
  2533   2      76.504063213223432      3.2083892595140053      8.0785248506999991
  2534   2      76.504063213223432      3.2083892595140053            4.9214751493
  2535   2      24.727692961462616      37.827672586142761      8.0785248506999991
  2536   2      24.727692961462616      37.827672586142761            4.9214751493
  2537   2      27.456355425323519      36.173508877703156      8.0785248506999991
  2538   2      27.456355425323519      36.173508877703156            4.9214751493
  2539   2      30.185017889184433      34.519345169263559      8.0785248506999991
  2540   2      30.185017889184433      34.519345169263559            4.9214751493
  2541   2      32.913680353045351      32.865181460823962      8.0785248506999991
  2542   2      32.913680353045351      32.865181460823962            4.9214751493
  2543   2      35.642342816906257      31.211017752384361      8.0785248506999991
  2544   2      35.642342816906257      31.211017752384361            4.9214751493
  2545   2      38.371005280767172      29.556854043944764      8.0785248506999991
  2546   2      38.371005280767172      29.556854043944764            4.9214751493
  2547   2      41.099667744628078      27.902690335505167      8.0785248506999991
  2548   2      41.099667744628078      27.902690335505167            4.9214751493
  2549   2         43.828330208489      26.248526627065569      8.0785248506999991
  2550   2         43.828330208489      26.248526627065569            4.9214751493
  2551   2      46.556992672349907      24.594362918625968      8.0785248506999991
  2552   2      46.556992672349907      24.594362918625968            4.9214751493
  2553   2      49.285655136210821      22.940199210186368      8.0785248506999991
  2554   2      49.285655136210821      22.940199210186368            4.9214751493
  2555   2      52.014317600071728       21.28603550174677      8.0785248506999991
  2556   2      52.014317600071728       21.28603550174677            4.9214751493
  2557   2      54.742980063932642       19.63187179330717      8.0785248506999991
  2558   2      54.742980063932642       19.63187179330717            4.9214751493
  2559   2      57.471642527793556      17.977708084867576      8.0785248506999991
  2560   2      57.471642527793556      17.977708084867576            4.9214751493
  2561   2       60.20030499165447      16.323544376427979      8.0785248506999991
  2562   2       60.20030499165447      16.323544376427979            4.9214751493
  2563   2      62.928967455515377       14.66938066798838      8.0785248506999991
  2564   2      62.928967455515377       14.66938066798838            4.9214751493
  2565   2      65.657629919376291      13.015216959548775      8.0785248506999991
  2566   2      65.657629919376291      13.015216959548775            4.9214751493
  2567   2      68.386292383237205      11.361053251109176      8.0785248506999991
  2568   2      68.386292383237205      11.361053251109176            4.9214751493
  2569   2      71.114954847098105      9.7068895426695718      8.0785248506999991
  2570   2      71.114954847098105      9.7068895426695718            4.9214751493
  2571   2      73.843617310959033      8.0527258342299817      8.0785248506999991
  2572   2      73.843617310959033      8.0527258342299817            4.9214751493
  2573   2      76.572279774819933      6.3985621257903826      8.0785248506999991
  2574   2      76.572279774819933      6.3985621257903826            4.9214751493
  2575   2      27.524571986920034      39.363681743979548      8.0785248506999991
  2576   2      27.524571986920034      39.363681743979548            4.9214751493
  2577   2      30.253234450780944      37.709518035539951      8.0785248506999991
  2578   2      30.253234450780944      37.709518035539951            4.9214751493
  2579   2      32.981896914641858      36.055354327100346      8.0785248506999991
  2580   2      32.981896914641858      36.055354327100346            4.9214751493
  2581   2      35.710559378502765      34.401190618660749      8.0785248506999991
  2582   2      35.710559378502765      34.401190618660749            4.9214751493
  2583   2      38.439221842363679      32.747026910221152      8.0785248506999991
  2584   2      38.439221842363679      32.747026910221152            4.9214751493
  2585   2      41.167884306224593      31.092863201781551      8.0785248506999991
  2586   2      41.167884306224593      31.092863201781551            4.9214751493
  2587   2      43.896546770085507       29.43869949334195      8.0785248506999991
  2588   2      43.896546770085507       29.43869949334195            4.9214751493
  2589   2      46.625209233946414      27.784535784902353      8.0785248506999991
  2590   2      46.625209233946414      27.784535784902353            4.9214751493
  2591   2      49.353871697807328      26.130372076462756      8.0785248506999991
  2592   2      49.353871697807328      26.130372076462756            4.9214751493
  2593   2      52.082534161668235      24.476208368023155      8.0785248506999991
  2594   2      52.082534161668235      24.476208368023155            4.9214751493
  2595   2      54.811196625529156      22.822044659583558      8.0785248506999991
  2596   2      54.811196625529156      22.822044659583558            4.9214751493
  2597   2      57.539859089390056      21.167880951143957      8.0785248506999991
  2598   2      57.539859089390056      21.167880951143957            4.9214751493
  2599   2      60.268521553250977      19.513717242704359      8.0785248506999991
  2600   2      60.268521553250977      19.513717242704359            4.9214751493
  2601   2      62.997184017111891      17.859553534264759      8.0785248506999991
  2602   2      62.997184017111891      17.859553534264759            4.9214751493
  2603   2      65.725846480972791      16.205389825825165      8.0785248506999991
  2604   2      65.725846480972791      16.205389825825165            4.9214751493
  2605   2      68.454508944833705      14.551226117385561      8.0785248506999991
  2606   2      68.454508944833705      14.551226117385561            4.9214751493
  2607   2      71.183171408694619       12.89706240894597      8.0785248506999991
  2608   2      71.183171408694619       12.89706240894597            4.9214751493
  2609   2      73.911833872555533      11.242898700506364      8.0785248506999991
  2610   2      73.911833872555533      11.242898700506364            4.9214751493
  2611   2      76.640496336416447       9.588734992066767      8.0785248506999991
  2612   2      76.640496336416447       9.588734992066767            4.9214751493
  2613   2      79.369158800277361      7.9345712836271627      8.0785248506999991
  2614   2      79.369158800277361      7.9345712836271627            4.9214751493
  2615   2      27.592788548516545      42.553854610255932      8.0785248506999991
  2616   2      27.592788548516545      42.553854610255932            4.9214751493
  2617   2      30.321451012377462      40.899690901816335      8.0785248506999991
  2618   2      30.321451012377462      40.899690901816335            4.9214751493
  2619   2      33.050113476238373      39.245527193376738      8.0785248506999991
  2620   2      33.050113476238373      39.245527193376738            4.9214751493
  2621   2      35.778775940099294      37.591363484937141      8.0785248506999991
  2622   2      35.778775940099294      37.591363484937141            4.9214751493
  2623   2      38.507438403960201      35.937199776497536      8.0785248506999991
  2624   2      38.507438403960201      35.937199776497536            4.9214751493
  2625   2      41.236100867821101      34.283036068057939      8.0785248506999991
  2626   2      41.236100867821101      34.283036068057939            4.9214751493
  2627   2      43.964763331682022      32.628872359618342      8.0785248506999991
  2628   2      43.964763331682022      32.628872359618342            4.9214751493
  2629   2      46.693425795542929      30.974708651178741      8.0785248506999991
  2630   2      46.693425795542929      30.974708651178741            4.9214751493
  2631   2       49.42208825940385      29.320544942739144      8.0785248506999991
  2632   2       49.42208825940385      29.320544942739144            4.9214751493
  2633   2       52.15075072326475      27.666381234299543      8.0785248506999991
  2634   2       52.15075072326475      27.666381234299543            4.9214751493
  2635   2      54.879413187125664      26.012217525859942      8.0785248506999991
  2636   2      54.879413187125664      26.012217525859942            4.9214751493
  2637   2      57.608075650986585      24.358053817420345      8.0785248506999991
  2638   2      57.608075650986585      24.358053817420345            4.9214751493
  2639   2      60.336738114847492      22.703890108980751      8.0785248506999991
  2640   2      60.336738114847492      22.703890108980751            4.9214751493
  2641   2      63.065400578708406       21.04972640054115      8.0785248506999991
  2642   2      63.065400578708406       21.04972640054115            4.9214751493
  2643   2      65.794063042569306      19.395562692101549      8.0785248506999991
  2644   2      65.794063042569306      19.395562692101549            4.9214751493
  2645   2       68.52272550643022      17.741398983661952      8.0785248506999991
  2646   2       68.52272550643022      17.741398983661952            4.9214751493
  2647   2      71.251387970291134      16.087235275222348      8.0785248506999991
  2648   2      71.251387970291134      16.087235275222348            4.9214751493
  2649   2      73.980050434152048      14.433071566782756      8.0785248506999991
  2650   2      73.980050434152048      14.433071566782756            4.9214751493
  2651   2      76.708712898012962      12.778907858343151      8.0785248506999991
  2652   2      76.708712898012962      12.778907858343151            4.9214751493
  2653   2      79.437375361873876      11.124744149903554      8.0785248506999991
  2654   2      79.437375361873876      11.124744149903554            4.9214751493
  2655   2      30.389667573973966      44.089863768092727      8.0785248506999991
  2656   2      30.389667573973966      44.089863768092727            4.9214751493
  2657   2      33.118330037834887      42.435700059653129      8.0785248506999991
  2658   2      33.118330037834887      42.435700059653129            4.9214751493
  2659   2      35.846992501695787      40.781536351213525      8.0785248506999991
  2660   2      35.846992501695787      40.781536351213525            4.9214751493
  2661   2      38.575654965556701      39.127372642773921      8.0785248506999991
  2662   2      38.575654965556701      39.127372642773921            4.9214751493
  2663   2      41.304317429417623      37.473208934334323      8.0785248506999991
  2664   2      41.304317429417623      37.473208934334323            4.9214751493
  2665   2      44.032979893278529      35.819045225894726      8.0785248506999991
  2666   2      44.032979893278529      35.819045225894726            4.9214751493
  2667   2      46.761642357139444      34.164881517455129      8.0785248506999991
  2668   2      46.761642357139444      34.164881517455129            4.9214751493
  2669   2       49.49030482100035      32.510717809015524      8.0785248506999991
  2670   2       49.49030482100035      32.510717809015524            4.9214751493
  2671   2      52.218967284861272      30.856554100575931      8.0785248506999991
  2672   2      52.218967284861272      30.856554100575931            4.9214751493
  2673   2      54.947629748722179       29.20239039213633      8.0785248506999991
  2674   2      54.947629748722179       29.20239039213633            4.9214751493
  2675   2      57.676292212583093      27.548226683696733      8.0785248506999991
  2676   2      57.676292212583093      27.548226683696733            4.9214751493
  2677   2         60.404954676444      25.894062975257135      8.0785248506999991
  2678   2         60.404954676444      25.894062975257135            4.9214751493
  2679   2      63.133617140304914      24.239899266817531      8.0785248506999991
  2680   2      63.133617140304914      24.239899266817531            4.9214751493
  2681   2      65.862279604165821      22.585735558377934      8.0785248506999991
  2682   2      65.862279604165821      22.585735558377934            4.9214751493
  2683   2      68.590942068026735       20.93157184993834      8.0785248506999991
  2684   2      68.590942068026735       20.93157184993834            4.9214751493
  2685   2      71.319604531887649      19.277408141498746      8.0785248506999991
  2686   2      71.319604531887649      19.277408141498746            4.9214751493
  2687   2      74.048266995748563      17.623244433059138      8.0785248506999991
  2688   2      74.048266995748563      17.623244433059138            4.9214751493
  2689   2      76.776929459609477      15.969080724619543      8.0785248506999991
  2690   2      76.776929459609477      15.969080724619543            4.9214751493
  2691   2      79.505591923470377      14.314917016179937      8.0785248506999991
  2692   2      79.505591923470377      14.314917016179937            4.9214751493
  2693   2      82.234254387331305      12.660753307740347      8.0785248506999991
  2694   2      82.234254387331305      12.660753307740347            4.9214751493
  2695   2      30.457884135570485      47.280036634369118      8.0785248506999991
  2696   2      30.457884135570485      47.280036634369118            4.9214751493
  2697   2      33.186546599431395      45.625872925929514      8.0785248506999991
  2698   2      33.186546599431395      45.625872925929514            4.9214751493
  2699   2      35.915209063292309      43.971709217489916      8.0785248506999991
  2700   2      35.915209063292309      43.971709217489916            4.9214751493
  2701   2      38.643871527153223      42.317545509050312      8.0785248506999991
  2702   2      38.643871527153223      42.317545509050312            4.9214751493
  2703   2       41.37253399101413      40.663381800610708      8.0785248506999991
  2704   2       41.37253399101413      40.663381800610708            4.9214751493
  2705   2      44.101196454875044      39.009218092171118      8.0785248506999991
  2706   2      44.101196454875044      39.009218092171118            4.9214751493
  2707   2      46.829858918735958      37.355054383731513      8.0785248506999991
  2708   2      46.829858918735958      37.355054383731513            4.9214751493
  2709   2      49.558521382596872      35.700890675291916      8.0785248506999991
  2710   2      49.558521382596872      35.700890675291916            4.9214751493
  2711   2      52.287183846457779      34.046726966852319      8.0785248506999991
  2712   2      52.287183846457779      34.046726966852319            4.9214751493
  2713   2      55.015846310318693      32.392563258412721      8.0785248506999991
  2714   2      55.015846310318693      32.392563258412721            4.9214751493
  2715   2        57.7445087741796      30.738399549973121      8.0785248506999991
  2716   2        57.7445087741796      30.738399549973121            4.9214751493
  2717   2      60.473171238040521      29.084235841533523      8.0785248506999991
  2718   2      60.473171238040521      29.084235841533523            4.9214751493
  2719   2      63.201833701901435      27.430072133093926      8.0785248506999991
  2720   2      63.201833701901435      27.430072133093926            4.9214751493
  2721   2      65.930496165762335      25.775908424654322      8.0785248506999991
  2722   2      65.930496165762335      25.775908424654322            4.9214751493
  2723   2      68.659158629623249      24.121744716214724      8.0785248506999991
  2724   2      68.659158629623249      24.121744716214724            4.9214751493
  2725   2      71.387821093484163      22.467581007775124      8.0785248506999991
  2726   2      71.387821093484163      22.467581007775124            4.9214751493
  2727   2      74.116483557345077      20.813417299335534      8.0785248506999991
  2728   2      74.116483557345077      20.813417299335534            4.9214751493
  2729   2      76.845146021205991      19.159253590895929      8.0785248506999991
  2730   2      76.845146021205991      19.159253590895929            4.9214751493
  2731   2      79.573808485066891      17.505089882456332      8.0785248506999991
  2732   2      79.573808485066891      17.505089882456332            4.9214751493
  2733   2      82.302470948927819      15.850926174016728      8.0785248506999991
  2734   2      82.302470948927819      15.850926174016728            4.9214751493
  2735   2       33.25476316102791      48.816045792205898      8.0785248506999991
  2736   2       33.25476316102791      48.816045792205898            4.9214751493
  2737   2      35.983425624888824      47.161882083766301      8.0785248506999991
  2738   2      35.983425624888824      47.161882083766301            4.9214751493
  2739   2      38.712088088749731      45.507718375326704      8.0785248506999991
  2740   2      38.712088088749731      45.507718375326704            4.9214751493
  2741   2      41.440750552610645      43.853554666887099      8.0785248506999991
  2742   2      41.440750552610645      43.853554666887099            4.9214751493
  2743   2      44.169413016471566      42.199390958447502      8.0785248506999991
  2744   2      44.169413016471566      42.199390958447502            4.9214751493
  2745   2      46.898075480332473      40.545227250007905      8.0785248506999991
  2746   2      46.898075480332473      40.545227250007905            4.9214751493
  2747   2      49.626737944193373      38.891063541568307      8.0785248506999991
  2748   2      49.626737944193373      38.891063541568307            4.9214751493
  2749   2      52.355400408054287      37.236899833128703      8.0785248506999991
  2750   2      52.355400408054287      37.236899833128703            4.9214751493
  2751   2      55.084062871915194      35.582736124689106      8.0785248506999991
  2752   2      55.084062871915194      35.582736124689106            4.9214751493
  2753   2      57.812725335776122      33.928572416249509      8.0785248506999991
  2754   2      57.812725335776122      33.928572416249509            4.9214751493
  2755   2      60.541387799637022      32.274408707809911      8.0785248506999991
  2756   2      60.541387799637022      32.274408707809911            4.9214751493
  2757   2      63.270050263497936      30.620244999370307      8.0785248506999991
  2758   2      63.270050263497936      30.620244999370307            4.9214751493
  2759   2       65.99871272735885      28.966081290930706      8.0785248506999991
  2760   2       65.99871272735885      28.966081290930706            4.9214751493
  2761   2      68.727375191219764      27.311917582491112      8.0785248506999991
  2762   2      68.727375191219764      27.311917582491112            4.9214751493
  2763   2      71.456037655080678      25.657753874051515      8.0785248506999991
  2764   2      71.456037655080678      25.657753874051515            4.9214751493
  2765   2      74.184700118941592      24.003590165611911      8.0785248506999991
  2766   2      74.184700118941592      24.003590165611911            4.9214751493
  2767   2      76.913362582802492      22.349426457172317      8.0785248506999991
  2768   2      76.913362582802492      22.349426457172317            4.9214751493
  2769   2      79.642025046663392      20.695262748732713      8.0785248506999991
  2770   2      79.642025046663392      20.695262748732713            4.9214751493
  2771   2      82.370687510524334      19.041099040293123      8.0785248506999991
  2772   2      82.370687510524334      19.041099040293123            4.9214751493
  2773   2      85.099349974385234      17.386935331853518      8.0785248506999991
  2774   2      85.099349974385234      17.386935331853518            4.9214751493
  2775   2      33.322979722624424       52.00621865848229      8.0785248506999991
  2776   2      33.322979722624424       52.00621865848229            4.9214751493
  2777   2      36.051642186485338      50.352054950042692      8.0785248506999991
  2778   2      36.051642186485338      50.352054950042692            4.9214751493
  2779   2      38.780304650346245      48.697891241603088      8.0785248506999991
  2780   2      38.780304650346245      48.697891241603088            4.9214751493
  2781   2      41.508967114207159      47.043727533163491      8.0785248506999991
  2782   2      41.508967114207159      47.043727533163491            4.9214751493
  2783   2      44.237629578068066      45.389563824723886      8.0785248506999991
  2784   2      44.237629578068066      45.389563824723886            4.9214751493
  2785   2      46.966292041928988      43.735400116284289      8.0785248506999991
  2786   2      46.966292041928988      43.735400116284289            4.9214751493
  2787   2      49.694954505789894      42.081236407844692      8.0785248506999991
  2788   2      49.694954505789894      42.081236407844692            4.9214751493
  2789   2      52.423616969650809      40.427072699405088      8.0785248506999991
  2790   2      52.423616969650809      40.427072699405088            4.9214751493
  2791   2      55.152279433511715       38.77290899096549      8.0785248506999991
  2792   2      55.152279433511715       38.77290899096549            4.9214751493
  2793   2      57.880941897372637        37.1187452825259      8.0785248506999991
  2794   2      57.880941897372637        37.1187452825259            4.9214751493
  2795   2      60.609604361233544      35.464581574086296      8.0785248506999991
  2796   2      60.609604361233544      35.464581574086296            4.9214751493
  2797   2      63.338266825094458      33.810417865646698      8.0785248506999991
  2798   2      63.338266825094458      33.810417865646698            4.9214751493
  2799   2      66.066929288955365      32.156254157207094      8.0785248506999991
  2800   2      66.066929288955365      32.156254157207094            4.9214751493
  2801   2      68.795591752816279      30.502090448767497      8.0785248506999991
  2802   2      68.795591752816279      30.502090448767497            4.9214751493
  2803   2      71.524254216677193      28.847926740327903      8.0785248506999991
  2804   2      71.524254216677193      28.847926740327903            4.9214751493
  2805   2      74.252916680538107      27.193763031888306      8.0785248506999991
  2806   2      74.252916680538107      27.193763031888306            4.9214751493
  2807   2      76.981579144399007      25.539599323448702      8.0785248506999991
  2808   2      76.981579144399007      25.539599323448702            4.9214751493
  2809   2      79.710241608259921      23.885435615009108      8.0785248506999991
  2810   2      79.710241608259921      23.885435615009108            4.9214751493
  2811   2      82.438904072120835      22.231271906569503      8.0785248506999991
  2812   2      82.438904072120835      22.231271906569503            4.9214751493
  2813   2      85.167566535981749       20.57710819812991      8.0785248506999991
  2814   2      85.167566535981749       20.57710819812991            4.9214751493
  2815   2      36.119858748081853      53.542227816319077      8.0785248506999991
  2816   2      36.119858748081853      53.542227816319077            4.9214751493
  2817   2       38.84852121194276       51.88806410787948      8.0785248506999991
  2818   2       38.84852121194276       51.88806410787948            4.9214751493
  2819   2      41.577183675803674      50.233900399439882      8.0785248506999991
  2820   2      41.577183675803674      50.233900399439882            4.9214751493
  2821   2      44.305846139664588      48.579736691000285      8.0785248506999991
  2822   2      44.305846139664588      48.579736691000285            4.9214751493
  2823   2      47.034508603525495      46.925572982560674      8.0785248506999991
  2824   2      47.034508603525495      46.925572982560674            4.9214751493
  2825   2      49.763171067386416      45.271409274121076      8.0785248506999991
  2826   2      49.763171067386416      45.271409274121076            4.9214751493
  2827   2      52.491833531247323      43.617245565681486      8.0785248506999991
  2828   2      52.491833531247323      43.617245565681486            4.9214751493
  2829   2      55.220495995108237      41.963081857241882      8.0785248506999991
  2830   2      55.220495995108237      41.963081857241882            4.9214751493
  2831   2      57.949158458969144      40.308918148802277      8.0785248506999991
  2832   2      57.949158458969144      40.308918148802277            4.9214751493
  2833   2      60.677820922830065      38.654754440362694      8.0785248506999991
  2834   2      60.677820922830065      38.654754440362694            4.9214751493
  2835   2      63.406483386690972       37.00059073192309      8.0785248506999991
  2836   2      63.406483386690972       37.00059073192309            4.9214751493
  2837   2      66.135145850551879      35.346427023483493      8.0785248506999991
  2838   2      66.135145850551879      35.346427023483493            4.9214751493
  2839   2      68.863808314412793      33.692263315043888      8.0785248506999991
  2840   2      68.863808314412793      33.692263315043888            4.9214751493
  2841   2      71.592470778273707      32.038099606604284      8.0785248506999991
  2842   2      71.592470778273707      32.038099606604284            4.9214751493
  2843   2      74.321133242134621      30.383935898164694      8.0785248506999991
  2844   2      74.321133242134621      30.383935898164694            4.9214751493
  2845   2      77.049795705995521      28.729772189725093      8.0785248506999991
  2846   2      77.049795705995521      28.729772189725093            4.9214751493
  2847   2      79.778458169856449      27.075608481285492      8.0785248506999991
  2848   2      79.778458169856449      27.075608481285492            4.9214751493
  2849   2      82.507120633717349      25.421444772845895      8.0785248506999991
  2850   2      82.507120633717349      25.421444772845895            4.9214751493
  2851   2      85.235783097578263      23.767281064406291      8.0785248506999991
  2852   2      85.235783097578263      23.767281064406291            4.9214751493
  2853   2      87.964445561439177        22.1131173559667      8.0785248506999991
  2854   2      87.964445561439177        22.1131173559667            4.9214751493
  2855   2      36.188075309678354      56.732400682595454      8.0785248506999991
  2856   2      36.188075309678354      56.732400682595454            4.9214751493
  2857   2      38.916737773539275      55.078236974155864      8.0785248506999991
  2858   2      38.916737773539275      55.078236974155864            4.9214751493
  2859   2      41.645400237400182       53.42407326571626      8.0785248506999991
  2860   2      41.645400237400182       53.42407326571626            4.9214751493
  2861   2      44.374062701261089      51.769909557276662      8.0785248506999991
  2862   2      44.374062701261089      51.769909557276662            4.9214751493
  2863   2      47.102725165121996      50.115745848837058      8.0785248506999991
  2864   2      47.102725165121996      50.115745848837058            4.9214751493
  2865   2      49.831387628982924      48.461582140397468      8.0785248506999991
  2866   2      49.831387628982924      48.461582140397468            4.9214751493
  2867   2      52.560050092843831      46.807418431957863      8.0785248506999991
  2868   2      52.560050092843831      46.807418431957863            4.9214751493
  2869   2      55.288712556704745      45.153254723518266      8.0785248506999991
  2870   2      55.288712556704745      45.153254723518266            4.9214751493
  2871   2      58.017375020565645      43.499091015078662      8.0785248506999991
  2872   2      58.017375020565645      43.499091015078662            4.9214751493
  2873   2      60.746037484426559      41.844927306639065      8.0785248506999991
  2874   2      60.746037484426559      41.844927306639065            4.9214751493
  2875   2       63.47469994828748      40.190763598199467      8.0785248506999991
  2876   2       63.47469994828748      40.190763598199467            4.9214751493
  2877   2       66.20336241214838       38.53659988975987      8.0785248506999991
  2878   2       66.20336241214838       38.53659988975987            4.9214751493
  2879   2      68.932024876009308      36.882436181320266      8.0785248506999991
  2880   2      68.932024876009308      36.882436181320266            4.9214751493
  2881   2      71.660687339870208      35.228272472880668      8.0785248506999991
  2882   2      71.660687339870208      35.228272472880668            4.9214751493
  2883   2      74.389349803731122      33.574108764441064      8.0785248506999991
  2884   2      74.389349803731122      33.574108764441064            4.9214751493
  2885   2      77.118012267592036      31.919945056001474      8.0785248506999991
  2886   2      77.118012267592036      31.919945056001474            4.9214751493
  2887   2       79.84667473145295      30.265781347561877      8.0785248506999991
  2888   2       79.84667473145295      30.265781347561877            4.9214751493
  2889   2      82.575337195313864      28.611617639122276      8.0785248506999991
  2890   2      82.575337195313864      28.611617639122276            4.9214751493
  2891   2      85.303999659174764      26.957453930682679      8.0785248506999991
  2892   2      85.303999659174764      26.957453930682679            4.9214751493
  2893   2      88.032662123035664      25.303290222243074      8.0785248506999991
  2894   2      88.032662123035664      25.303290222243074            4.9214751493
  2895   2      36.256291871274868      59.922573548871846      8.0785248506999991
  2896   2      36.256291871274868      59.922573548871846            4.9214751493
  2897   2      38.984954335135782      58.268409840432248      8.0785248506999991
  2898   2      38.984954335135782      58.268409840432248            4.9214751493
  2899   2      41.713616798996696      56.614246131992651      8.0785248506999991
  2900   2      41.713616798996696      56.614246131992651            4.9214751493
  2901   2       44.44227926285761      54.960082423553047      8.0785248506999991
  2902   2       44.44227926285761      54.960082423553047            4.9214751493
  2903   2      47.170941726718517      53.305918715113449      8.0785248506999991
  2904   2      47.170941726718517      53.305918715113449            4.9214751493
  2905   2      49.899604190579431      51.651755006673845      8.0785248506999991
  2906   2      49.899604190579431      51.651755006673845            4.9214751493
  2907   2      52.628266654440345      49.997591298234255      8.0785248506999991
  2908   2      52.628266654440345      49.997591298234255            4.9214751493
  2909   2       55.35692911830126      48.343427589794651      8.0785248506999991
  2910   2       55.35692911830126      48.343427589794651            4.9214751493
  2911   2      58.085591582162166      46.689263881355053      8.0785248506999991
  2912   2      58.085591582162166      46.689263881355053            4.9214751493
  2913   2       60.81425404602308      45.035100172915449      8.0785248506999991
  2914   2       60.81425404602308      45.035100172915449            4.9214751493
  2915   2       63.54291650988398      43.380936464475852      8.0785248506999991
  2916   2       63.54291650988398      43.380936464475852            4.9214751493
  2917   2      66.271578973744909      41.726772756036254      8.0785248506999991
  2918   2      66.271578973744909      41.726772756036254            4.9214751493
  2919   2      69.000241437605823      40.072609047596657      8.0785248506999991
  2920   2      69.000241437605823      40.072609047596657            4.9214751493
  2921   2      71.728903901466722      38.418445339157053      8.0785248506999991
  2922   2      71.728903901466722      38.418445339157053            4.9214751493
  2923   2      74.457566365327637      36.764281630717456      8.0785248506999991
  2924   2      74.457566365327637      36.764281630717456            4.9214751493
  2925   2      77.186228829188551      35.110117922277851      8.0785248506999991
  2926   2      77.186228829188551      35.110117922277851            4.9214751493
  2927   2      79.914891293049465      33.455954213838268      8.0785248506999991
  2928   2      79.914891293049465      33.455954213838268            4.9214751493
  2929   2      82.643553756910379       31.80179050539866      8.0785248506999991
  2930   2      82.643553756910379       31.80179050539866            4.9214751493
  2931   2      85.372216220771278      30.147626796959063      8.0785248506999991
  2932   2      85.372216220771278      30.147626796959063            4.9214751493
  2933   2      88.100878684632193      28.493463088519469      8.0785248506999991
  2934   2      88.100878684632193      28.493463088519469            4.9214751493
  2935   2      90.829541148493107      26.839299380079865      8.0785248506999991
  2936   2      90.829541148493107      26.839299380079865            4.9214751493
  2937   2      39.053170896732297      61.458582706708633      8.0785248506999991
  2938   2      39.053170896732297      61.458582706708633            4.9214751493
  2939   2      41.781833360593211      59.804418998269028      8.0785248506999991
  2940   2      41.781833360593211      59.804418998269028            4.9214751493
  2941   2      44.510495824454125      58.150255289829438      8.0785248506999991
  2942   2      44.510495824454125      58.150255289829438            4.9214751493
  2943   2      47.239158288315032      56.496091581389841      8.0785248506999991
  2944   2      47.239158288315032      56.496091581389841            4.9214751493
  2945   2      49.967820752175946      54.841927872950244      8.0785248506999991
  2946   2      49.967820752175946      54.841927872950244            4.9214751493
  2947   2      52.696483216036853      53.187764164510639      8.0785248506999991
  2948   2      52.696483216036853      53.187764164510639            4.9214751493
  2949   2      55.425145679897774      51.533600456071042      8.0785248506999991
  2950   2      55.425145679897774      51.533600456071042            4.9214751493
  2951   2      58.153808143758695      49.879436747631438      8.0785248506999991
  2952   2      58.153808143758695      49.879436747631438            4.9214751493
  2953   2      60.882470607619595      48.225273039191848      8.0785248506999991
  2954   2      60.882470607619595      48.225273039191848            4.9214751493
  2955   2      63.611133071480502      46.571109330752243      8.0785248506999991
  2956   2      63.611133071480502      46.571109330752243            4.9214751493
  2957   2      66.339795535341423      44.916945622312639      8.0785248506999991
  2958   2      66.339795535341423      44.916945622312639            4.9214751493
  2959   2      69.068457999202337      43.262781913873049      8.0785248506999991
  2960   2      69.068457999202337      43.262781913873049            4.9214751493
  2961   2      71.797120463063251      41.608618205433451      8.0785248506999991
  2962   2      71.797120463063251      41.608618205433451            4.9214751493
  2963   2      74.525782926924151      39.954454496993847      8.0785248506999991
  2964   2      74.525782926924151      39.954454496993847            4.9214751493
  2965   2      77.254445390785065       38.30029078855425      8.0785248506999991
  2966   2      77.254445390785065       38.30029078855425            4.9214751493
  2967   2      79.983107854645979      36.646127080114645      8.0785248506999991
  2968   2      79.983107854645979      36.646127080114645            4.9214751493
  2969   2      82.711770318506893      34.991963371675055      8.0785248506999991
  2970   2      82.711770318506893      34.991963371675055            4.9214751493
  2971   2      85.440432782367793      33.337799663235451      8.0785248506999991
  2972   2      85.440432782367793      33.337799663235451            4.9214751493
  2973   2      88.169095246228721      31.683635954795854      8.0785248506999991
  2974   2      88.169095246228721      31.683635954795854            4.9214751493
  2975   2      90.897757710089621      30.029472246356253      8.0785248506999991
  2976   2      90.897757710089621      30.029472246356253            4.9214751493
  2977   2      39.121387458328805       64.64875557298501      8.0785248506999991
  2978   2      39.121387458328805       64.64875557298501            4.9214751493
  2979   2      41.850049922189719      62.994591864545413      8.0785248506999991
  2980   2      41.850049922189719      62.994591864545413            4.9214751493
  2981   2      44.578712386050618      61.340428156105808      8.0785248506999991
  2982   2      44.578712386050618      61.340428156105808            4.9214751493
  2983   2      47.307374849911547      59.686264447666225      8.0785248506999991
  2984   2      47.307374849911547      59.686264447666225            4.9214751493
  2985   2      50.036037313772454      58.032100739226621      8.0785248506999991
  2986   2      50.036037313772454      58.032100739226621            4.9214751493
  2987   2      52.764699777633361      56.377937030787024      8.0785248506999991
  2988   2      52.764699777633361      56.377937030787024            4.9214751493
  2989   2      55.493362241494275      54.723773322347419      8.0785248506999991
  2990   2      55.493362241494275      54.723773322347419            4.9214751493
  2991   2      58.222024705355196      53.069609613907829      8.0785248506999991
  2992   2      58.222024705355196      53.069609613907829            4.9214751493
  2993   2      60.950687169216096      51.415445905468225      8.0785248506999991
  2994   2      60.950687169216096      51.415445905468225            4.9214751493
  2995   2      63.679349633077017      49.761282197028628      8.0785248506999991
  2996   2      63.679349633077017      49.761282197028628            4.9214751493
  2997   2      66.408012096937924      48.107118488589023      8.0785248506999991
  2998   2      66.408012096937924      48.107118488589023            4.9214751493
  2999   2      69.136674560798838      46.452954780149426      8.0785248506999991
  3000   2      69.136674560798838      46.452954780149426            4.9214751493
  3001   2      71.865337024659752      44.798791071709829      8.0785248506999991
  3002   2      71.865337024659752      44.798791071709829            4.9214751493
  3003   2      74.593999488520652      43.144627363270232      8.0785248506999991
  3004   2      74.593999488520652      43.144627363270232            4.9214751493
  3005   2       77.32266195238158      41.490463654830627      8.0785248506999991
  3006   2       77.32266195238158      41.490463654830627            4.9214751493
  3007   2       80.05132441624248       39.83629994639103      8.0785248506999991
  3008   2       80.05132441624248       39.83629994639103            4.9214751493
  3009   2      82.779986880103394      38.182136237951426      8.0785248506999991
  3010   2      82.779986880103394      38.182136237951426            4.9214751493
  3011   2      85.508649343964308      36.527972529511835      8.0785248506999991
  3012   2      85.508649343964308      36.527972529511835            4.9214751493
  3013   2      88.237311807825222      34.873808821072231      8.0785248506999991
  3014   2      88.237311807825222      34.873808821072231            4.9214751493
  3015   2      90.965974271686136      33.219645112632634      8.0785248506999991
  3016   2      90.965974271686136      33.219645112632634            4.9214751493
  3017   2      93.694636735547036      31.565481404193033      8.0785248506999991
  3018   2      93.694636735547036      31.565481404193033            4.9214751493
  3019   2      44.646928947647147        64.5306010223822      8.0785248506999991
  3020   2      44.646928947647147        64.5306010223822            4.9214751493
  3021   2      47.375591411508061       62.87643731394261      8.0785248506999991
  3022   2      47.375591411508061       62.87643731394261            4.9214751493
  3023   2      50.104253875368968      61.222273605503013      8.0785248506999991
  3024   2      50.104253875368968      61.222273605503013            4.9214751493
  3025   2      52.832916339229882      59.568109897063408      8.0785248506999991
  3026   2      52.832916339229882      59.568109897063408            4.9214751493
  3027   2      55.561578803090789      57.913946188623811      8.0785248506999991
  3028   2      55.561578803090789      57.913946188623811            4.9214751493
  3029   2      58.290241266951696      56.259782480184207      8.0785248506999991
  3030   2      58.290241266951696      56.259782480184207            4.9214751493
  3031   2      61.018903730812625      54.605618771744616      8.0785248506999991
  3032   2      61.018903730812625      54.605618771744616            4.9214751493
  3033   2      63.747566194673531      52.951455063305012      8.0785248506999991
  3034   2      63.747566194673531      52.951455063305012            4.9214751493
  3035   2      66.476228658534438      51.297291354865415      8.0785248506999991
  3036   2      66.476228658534438      51.297291354865415            4.9214751493
  3037   2      69.204891122395352       49.64312764642581      8.0785248506999991
  3038   2      69.204891122395352       49.64312764642581            4.9214751493
  3039   2      71.933553586256252      47.988963937986213      8.0785248506999991
  3040   2      71.933553586256252      47.988963937986213            4.9214751493
  3041   2      74.662216050117181      46.334800229546616      8.0785248506999991
  3042   2      74.662216050117181      46.334800229546616            4.9214751493
  3043   2      77.390878513978095      44.680636521107019      8.0785248506999991
  3044   2      77.390878513978095      44.680636521107019            4.9214751493
  3045   2      80.119540977838994      43.026472812667414      8.0785248506999991
  3046   2      80.119540977838994      43.026472812667414            4.9214751493
  3047   2      82.848203441699908      41.372309104227817      8.0785248506999991
  3048   2      82.848203441699908      41.372309104227817            4.9214751493
  3049   2      85.576865905560808       39.71814539578822      8.0785248506999991
  3050   2      85.576865905560808       39.71814539578822            4.9214751493
  3051   2      88.305528369421737       38.06398168734863      8.0785248506999991
  3052   2      88.305528369421737       38.06398168734863            4.9214751493
  3053   2      91.034190833282651      36.409817978909025      8.0785248506999991
  3054   2      91.034190833282651      36.409817978909025            4.9214751493
  3055   2       93.76285329714355      34.755654270469428      8.0785248506999991
  3056   2       93.76285329714355      34.755654270469428            4.9214751493
  3057   2      50.172470436965469       64.41244647177939      8.0785248506999991
  3058   2      50.172470436965469       64.41244647177939            4.9214751493
  3059   2      52.901132900826404        62.7582827633398      8.0785248506999991
  3060   2      52.901132900826404        62.7582827633398            4.9214751493
  3061   2      55.629795364687304      61.104119054900202      8.0785248506999991
  3062   2      55.629795364687304      61.104119054900202            4.9214751493
  3063   2      58.358457828548225      59.449955346460605      8.0785248506999991
  3064   2      58.358457828548225      59.449955346460605            4.9214751493
  3065   2      61.087120292409125      57.795791638021001      8.0785248506999991
  3066   2      61.087120292409125      57.795791638021001            4.9214751493
  3067   2      63.815782756270046      56.141627929581404      8.0785248506999991
  3068   2      63.815782756270046      56.141627929581404            4.9214751493
  3069   2      66.544445220130967      54.487464221141799      8.0785248506999991
  3070   2      66.544445220130967      54.487464221141799            4.9214751493
  3071   2      69.273107683991867      52.833300512702209      8.0785248506999991
  3072   2      69.273107683991867      52.833300512702209            4.9214751493
  3073   2      72.001770147852767      51.179136804262605      8.0785248506999991
  3074   2      72.001770147852767      51.179136804262605            4.9214751493
  3075   2      74.730432611713681      49.524973095823007      8.0785248506999991
  3076   2      74.730432611713681      49.524973095823007            4.9214751493
  3077   2      77.459095075574609       47.87080938738341      8.0785248506999991
  3078   2      77.459095075574609       47.87080938738341            4.9214751493
  3079   2      80.187757539435523      46.216645678943813      8.0785248506999991
  3080   2      80.187757539435523      46.216645678943813            4.9214751493
  3081   2      82.916420003296423      44.562481970504209      8.0785248506999991
  3082   2      82.916420003296423      44.562481970504209            4.9214751493
  3083   2      85.645082467157337      42.908318262064611      8.0785248506999991
  3084   2      85.645082467157337      42.908318262064611            4.9214751493
  3085   2      88.373744931018251      41.254154553625007      8.0785248506999991
  3086   2      88.373744931018251      41.254154553625007            4.9214751493
  3087   2      91.102407394879165      39.599990845185417      8.0785248506999991
  3088   2      91.102407394879165      39.599990845185417            4.9214751493
  3089   2      93.831069858740079      37.945827136745812      8.0785248506999991
  3090   2      93.831069858740079      37.945827136745812            4.9214751493
  3091   2      96.559732322600993      36.291663428306215      8.0785248506999991
  3092   2      96.559732322600993      36.291663428306215            4.9214751493
  3093   2      55.698011926283819      64.294291921176594      8.0785248506999991
  3094   2      55.698011926283819      64.294291921176594            4.9214751493
  3095   2       58.42667439014474       62.64012821273699      8.0785248506999991
  3096   2       58.42667439014474       62.64012821273699            4.9214751493
  3097   2       61.15533685400564      60.985964504297392      8.0785248506999991
  3098   2       61.15533685400564      60.985964504297392            4.9214751493
  3099   2      63.883999317866561      59.331800795857788      8.0785248506999991
  3100   2      63.883999317866561      59.331800795857788            4.9214751493
  3101   2      66.612661781727482      57.677637087418198      8.0785248506999991
  3102   2      66.612661781727482      57.677637087418198            4.9214751493
  3103   2      69.341324245588382      56.023473378978593      8.0785248506999991
  3104   2      69.341324245588382      56.023473378978593            4.9214751493
  3105   2      72.069986709449296      54.369309670538996      8.0785248506999991
  3106   2      72.069986709449296      54.369309670538996            4.9214751493
  3107   2       74.79864917331021      52.715145962099392      8.0785248506999991
  3108   2       74.79864917331021      52.715145962099392            4.9214751493
  3109   2      77.527311637171124      51.060982253659795      8.0785248506999991
  3110   2      77.527311637171124      51.060982253659795            4.9214751493
  3111   2      80.255974101032038      49.406818545220197      8.0785248506999991
  3112   2      80.255974101032038      49.406818545220197            4.9214751493
  3113   2      82.984636564892938        47.7526548367806      8.0785248506999991
  3114   2      82.984636564892938        47.7526548367806            4.9214751493
  3115   2      85.713299028753866      46.098491128340996      8.0785248506999991
  3116   2      85.713299028753866      46.098491128340996            4.9214751493
  3117   2      88.441961492614766      44.444327419901398      8.0785248506999991
  3118   2      88.441961492614766      44.444327419901398            4.9214751493
  3119   2      91.170623956475666      42.790163711461794      8.0785248506999991
  3120   2      91.170623956475666      42.790163711461794            4.9214751493
  3121   2      93.899286420336594      41.136000003022204      8.0785248506999991
  3122   2      93.899286420336594      41.136000003022204            4.9214751493
  3123   2      96.627948884197508      39.481836294582607      8.0785248506999991
  3124   2      96.627948884197508      39.481836294582607            4.9214751493
  3125   2      61.223553415602154       64.17613737057377      8.0785248506999991
  3126   2      61.223553415602154       64.17613737057377            4.9214751493
  3127   2      63.952215879463061       62.52197366213418      8.0785248506999991
  3128   2      63.952215879463061       62.52197366213418            4.9214751493
  3129   2      66.680878343323968      60.867809953694568      8.0785248506999991
  3130   2      66.680878343323968      60.867809953694568            4.9214751493
  3131   2      69.409540807184896      59.213646245254978      8.0785248506999991
  3132   2      69.409540807184896      59.213646245254978            4.9214751493
  3133   2      72.138203271045796      57.559482536815374      8.0785248506999991
  3134   2      72.138203271045796      57.559482536815374            4.9214751493
  3135   2       74.86686573490671      55.905318828375776      8.0785248506999991
  3136   2       74.86686573490671      55.905318828375776            4.9214751493
  3137   2      77.595528198767624      54.251155119936172      8.0785248506999991
  3138   2      77.595528198767624      54.251155119936172            4.9214751493
  3139   2      80.324190662628524      52.596991411496575      8.0785248506999991
  3140   2      80.324190662628524      52.596991411496575            4.9214751493
  3141   2      83.052853126489453      50.942827703056984      8.0785248506999991
  3142   2      83.052853126489453      50.942827703056984            4.9214751493
  3143   2      85.781515590350367      49.288663994617387      8.0785248506999991
  3144   2      85.781515590350367      49.288663994617387            4.9214751493
  3145   2      88.510178054211266      47.634500286177783      8.0785248506999991
  3146   2      88.510178054211266      47.634500286177783            4.9214751493
  3147   2       91.23884051807218      45.980336577738186      8.0785248506999991
  3148   2       91.23884051807218      45.980336577738186            4.9214751493
  3149   2       93.96750298193308      44.326172869298581      8.0785248506999991
  3150   2       93.96750298193308      44.326172869298581            4.9214751493
  3151   2      96.696165445794009      42.672009160858991      8.0785248506999991
  3152   2      96.696165445794009      42.672009160858991            4.9214751493
  3153   2      99.424827909654923      41.017845452419387      8.0785248506999991
  3154   2      99.424827909654923      41.017845452419387            4.9214751493
  3155   2      66.749094904920497       64.05798281997096      8.0785248506999991
  3156   2      66.749094904920497       64.05798281997096            4.9214751493
  3157   2      69.477757368781397      62.403819111531362      8.0785248506999991
  3158   2      69.477757368781397      62.403819111531362            4.9214751493
  3159   2      72.206419832642311      60.749655403091772      8.0785248506999991
  3160   2      72.206419832642311      60.749655403091772            4.9214751493
  3161   2      74.935082296503239      59.095491694652161      8.0785248506999991
  3162   2      74.935082296503239      59.095491694652161            4.9214751493
  3163   2      77.663744760364139      57.441327986212571      8.0785248506999991
  3164   2      77.663744760364139      57.441327986212571            4.9214751493
  3165   2      80.392407224225053      55.787164277772966      8.0785248506999991
  3166   2      80.392407224225053      55.787164277772966            4.9214751493
  3167   2      83.121069688085953      54.133000569333369      8.0785248506999991
  3168   2      83.121069688085953      54.133000569333369            4.9214751493
  3169   2      85.849732151946881      52.478836860893772      8.0785248506999991
  3170   2      85.849732151946881      52.478836860893772            4.9214751493
  3171   2      88.578394615807795      50.824673152454174      8.0785248506999991
  3172   2      88.578394615807795      50.824673152454174            4.9214751493
  3173   2      91.307057079668695       49.17050944401457      8.0785248506999991
  3174   2      91.307057079668695       49.17050944401457            4.9214751493
  3175   2      94.035719543529595      47.516345735574973      8.0785248506999991
  3176   2      94.035719543529595      47.516345735574973            4.9214751493
  3177   2      96.764382007390523      45.862182027135368      8.0785248506999991
  3178   2      96.764382007390523      45.862182027135368            4.9214751493
  3179   2      99.493044471251437      44.208018318695778      8.0785248506999991
  3180   2      99.493044471251437      44.208018318695778            4.9214751493
  3181   2      72.274636394238826      63.939828269368149      8.0785248506999991
  3182   2      72.274636394238826      63.939828269368149            4.9214751493
  3183   2      75.003298858099754      62.285664560928559      8.0785248506999991
  3184   2      75.003298858099754      62.285664560928559            4.9214751493
  3185   2      77.731961321960654      60.631500852488955      8.0785248506999991
  3186   2      77.731961321960654      60.631500852488955            4.9214751493
  3187   2      80.460623785821568      58.977337144049358      8.0785248506999991
  3188   2      80.460623785821568      58.977337144049358            4.9214751493
  3189   2      83.189286249682482      57.323173435609753      8.0785248506999991
  3190   2      83.189286249682482      57.323173435609753            4.9214751493
  3191   2      85.917948713543396      55.669009727170156      8.0785248506999991
  3192   2      85.917948713543396      55.669009727170156            4.9214751493
  3193   2       88.64661117740431      54.014846018730559      8.0785248506999991
  3194   2       88.64661117740431      54.014846018730559            4.9214751493
  3195   2       91.37527364126521      52.360682310290962      8.0785248506999991
  3196   2       91.37527364126521      52.360682310290962            4.9214751493
  3197   2      94.103936105126138      50.706518601851357      8.0785248506999991
  3198   2      94.103936105126138      50.706518601851357            4.9214751493
  3199   2      96.832598568987038       49.05235489341176      8.0785248506999991
  3200   2      96.832598568987038       49.05235489341176            4.9214751493
  3201   2      99.561261032847938      47.398191184972156      8.0785248506999991
  3202   2      99.561261032847938      47.398191184972156            4.9214751493
  3203   2      102.28992349670887      45.744027476532565      8.0785248506999991
  3204   2      102.28992349670887      45.744027476532565            4.9214751493
  3205   2      77.800177883557168      63.821673718765339      8.0785248506999991
  3206   2      77.800177883557168      63.821673718765339            4.9214751493
  3207   2      80.528840347418068      62.167510010325735      8.0785248506999991
  3208   2      80.528840347418068      62.167510010325735            4.9214751493
  3209   2      83.257502811278982      60.513346301886145      8.0785248506999991
  3210   2      83.257502811278982      60.513346301886145            4.9214751493
  3211   2      85.986165275139896       58.85918259344654      8.0785248506999991
  3212   2      85.986165275139896       58.85918259344654            4.9214751493
  3213   2      88.714827739000796      57.205018885006943      8.0785248506999991
  3214   2      88.714827739000796      57.205018885006943            4.9214751493
  3215   2      91.443490202861724      55.550855176567346      8.0785248506999991
  3216   2      91.443490202861724      55.550855176567346            4.9214751493
  3217   2      94.172152666722639      53.896691468127749      8.0785248506999991
  3218   2      94.172152666722639      53.896691468127749            4.9214751493
  3219   2      96.900815130583538      52.242527759688144      8.0785248506999991
  3220   2      96.900815130583538      52.242527759688144            4.9214751493
  3221   2      99.629477594444452      50.588364051248547      8.0785248506999991
  3222   2      99.629477594444452      50.588364051248547            4.9214751493
  3223   2      102.35814005830535      48.934200342808943      8.0785248506999991
  3224   2      102.35814005830535      48.934200342808943            4.9214751493
  3225   2      83.325719372875511      63.703519168162529      8.0785248506999991
  3226   2      83.325719372875511      63.703519168162529            4.9214751493
  3227   2      86.054381836736411      62.049355459722932      8.0785248506999991
  3228   2      86.054381836736411      62.049355459722932            4.9214751493
  3229   2      88.783044300597325      60.395191751283328      8.0785248506999991
  3230   2      88.783044300597325      60.395191751283328            4.9214751493
  3231   2      91.511706764458225       58.74102804284373      8.0785248506999991
  3232   2      91.511706764458225       58.74102804284373            4.9214751493
  3233   2      94.240369228319153      57.086864334404133      8.0785248506999991
  3234   2      94.240369228319153      57.086864334404133            4.9214751493
  3235   2      96.969031692180067      55.432700625964536      8.0785248506999991
  3236   2      96.969031692180067      55.432700625964536            4.9214751493
  3237   2      99.697694156040967      53.778536917524931      8.0785248506999991
  3238   2      99.697694156040967      53.778536917524931            4.9214751493
  3239   2      102.42635661990187      52.124373209085334      8.0785248506999991
  3240   2      102.42635661990187      52.124373209085334            4.9214751493
  3241   2       105.1550190837628       50.47020950064573      8.0785248506999991
  3242   2       105.1550190837628       50.47020950064573            4.9214751493
  3243   2       88.85126086219384      63.585364617559719      8.0785248506999991
  3244   2       88.85126086219384      63.585364617559719            4.9214751493
  3245   2       91.57992332605474      61.931200909120115      8.0785248506999991
  3246   2       91.57992332605474      61.931200909120115            4.9214751493
  3247   2      94.308585789915668      60.277037200680518      8.0785248506999991
  3248   2      94.308585789915668      60.277037200680518            4.9214751493
  3249   2      97.037248253776582       58.62287349224092      8.0785248506999991
  3250   2      97.037248253776582       58.62287349224092            4.9214751493
  3251   2      99.765910717637482      56.968709783801323      8.0785248506999991
  3252   2      99.765910717637482      56.968709783801323            4.9214751493
  3253   2      102.49457318149841      55.314546075361719      8.0785248506999991
  3254   2      102.49457318149841      55.314546075361719            4.9214751493
  3255   2      105.22323564535931      53.660382366922128      8.0785248506999991
  3256   2      105.22323564535931      53.660382366922128            4.9214751493
  3257   2      94.376802351512183      63.467210066956909      8.0785248506999991
  3258   2      94.376802351512183      63.467210066956909            4.9214751493
  3259   2      97.105464815373082      61.813046358517312      8.0785248506999991
  3260   2      97.105464815373082      61.813046358517312            4.9214751493
  3261   2      99.834127279233996      60.158882650077715      8.0785248506999991
  3262   2      99.834127279233996      60.158882650077715            4.9214751493
  3263   2      102.56278974309492      58.504718941638117      8.0785248506999991
  3264   2      102.56278974309492      58.504718941638117            4.9214751493
  3265   2      105.29145220695582      56.850555233198513      8.0785248506999991
  3266   2      105.29145220695582      56.850555233198513            4.9214751493
  3267   2      108.02011467081674      55.196391524758916      8.0785248506999991
  3268   2      108.02011467081674      55.196391524758916            4.9214751493
  3269   2      99.902343840830497      63.349055516354092      8.0785248506999991
  3270   2      99.902343840830497      63.349055516354092            4.9214751493
  3271   2      102.63100630469143      61.694891807914495      8.0785248506999991
  3272   2      102.63100630469143      61.694891807914495            4.9214751493
  3273   2      105.35966876855234      60.040728099474897      8.0785248506999991
  3274   2      105.35966876855234      60.040728099474897            4.9214751493
  3275   2      108.08833123241324      58.386564391035293      8.0785248506999991
  3276   2      108.08833123241324      58.386564391035293            4.9214751493
  3277   2      105.42788533014885      63.230900965751289      8.0785248506999991
  3278   2      105.42788533014885      63.230900965751289            4.9214751493
  3279   2      108.15654779400975      61.576737257311692      8.0785248506999991
  3280   2      108.15654779400975      61.576737257311692            4.9214751493
  3281   2       110.9534268194672      63.112746415148472      8.0785248506999991
  3282   2       110.9534268194672      63.112746415148472            4.9214751493
