rigid_bilayers/data_MoSe2_MoSe2_AP_5 (written by ASE) 

546 	 atoms 
2  atom types
0.0      31.693098589399199  xlo xhi
0.0      27.447028503064466  ylo yhi
0.0                      30  zlo zhi
    -15.846549294699596                       0                       0  xy xz yz


Atoms 

     1   1     0.87068952168679115      1.7091556210699483                       0
     2   1      3.8310338954218817     0.20107713189058266                       0
     3   1      3.6568959910845229      3.5188498080851884                       0
     4   1      6.6172403648196125      2.0107713189058218                       0
     5   1      9.5775847385547035     0.50269282972645712                       0
     6   1      3.4827580867471664      6.8366224842797942                       0
     7   1      6.4431024604822564      5.3285439951004285                       0
     8   1      9.4034468342173447      3.8204655059210624                       0
     9   1      12.363791207952435      2.3123870167416962                       0
    10   1      15.324135581687527      0.8043085275623314                       0
    11   1      6.2689645561448968      8.6463166712950343                       0
    12   1      9.2293089298799877      7.1382381821156677                       0
    13   1      12.189653303615076      5.6301596929363003                       0
    14   1      15.149997677350166      4.1220812037569354                       0
    15   1      18.110342051085254      2.6140027145775697                       0
    16   1      21.070686424820348      1.1059242253982025                       0
    17   1      6.0948266518075389       11.96408934748964                       0
    18   1       9.055171025542629      10.456010858310272                       0
    19   1      12.015515399277719      8.9479323691309069                       0
    20   1      14.975859773012807      7.4398538799515403                       0
    21   1      17.936204146747897      5.9317753907721729                       0
    22   1      20.896548520482987      4.4236969015928089                       0
    23   1      23.856892894218078      2.9156184124134397                       0
    24   1      26.817237267953168      1.4075399232340733                       0
    25   1      8.8810331212052738      13.773783534504881                       0
    26   1       11.84137749494036      12.265705045325513                       0
    27   1      14.801721868675452      10.757626556146146                       0
    28   1       17.76206624241054      9.2495480669667813                       0
    29   1      20.722410616145631      7.7414695777874138                       0
    30   1      23.682754989880721      6.2333910886080499                       0
    31   1      26.643099363615811      4.7253125994286806                       0
    32   1      29.603443737350901       3.217234110249314                       0
    33   1      8.7068952168679115      17.091556210699483                       0
    34   1      11.667239590603003      15.583477721520119                       0
    35   1      14.627583964338093      14.075399232340752                       0
    36   1      17.587928338073183      12.567320743161385                       0
    37   1      20.548272711808274      11.059242253982021                       0
    38   1       23.50861708554336      9.5511637648026539                       0
    39   1       26.46896145927845      8.0430852756232873                       0
    40   1      29.429305833013547      6.5350067864439216                       0
    41   1      32.389650206748634       5.026928297264555                       0
    42   1      11.493101686265645      18.901250397714723                       0
    43   1      14.453446060000735      17.393171908535358                       0
    44   1      17.413790433735823      15.885093419355989                       0
    45   1      20.374134807470913      14.377014930176625                       0
    46   1      23.334479181206003      12.868936440997258                       0
    47   1      26.294823554941093      11.360857951817893                       0
    48   1      29.255167928676183      9.8527794626385283                       0
    49   1       32.21551230241127      8.3447009734591582                       0
    50   1      11.318963781928284      22.219023073909327                       0
    51   1      14.279308155663374      20.710944584729958                       0
    52   1      17.239652529398466      19.202866095550597                       0
    53   1      20.199996903133556      17.694787606371229                       0
    54   1      23.160341276868646      16.186709117191864                       0
    55   1      26.120685650603736      14.678630628012499                       0
    56   1      29.081030024338823      13.170552138833131                       0
    57   1      32.041374398073913      11.662473649653768                       0
    58   1       35.00171877180901      10.154395160474401                       0
    59   1      14.105170251326017      24.028717260924566                       0
    60   1      17.065514625061109      22.520638771745197                       0
    61   1      20.025858998796199      21.012560282565836                       0
    62   1      22.986203372531286      19.504481793386468                       0
    63   1      25.946547746266376      17.996403304207099                       0
    64   1      28.906892120001466      16.488324815027738                       0
    65   1      31.867236493736559      14.980246325848373                       0
    66   1      34.827580867471653      13.472167836669007                       0
    67   1      13.931032346988658      27.346489937119173                       0
    68   1      16.891376720723752      25.838411447939809                       0
    69   1      19.851721094458842       24.33033295876044                       0
    70   1      22.812065468193929      22.822254469581072                       0
    71   1      25.772409841929026      21.314175980401714                       0
    72   1      28.732754215664112      19.806097491222342                       0
    73   1      31.693098589399202      18.298019002042977                       0
    74   1      34.653442963134296      16.789940512863616                       0
    75   1      37.613787336869379       15.28186202368425                       0
    76   1      22.637927563856579      26.140027145775683                       0
    77   1      25.598271937591665      24.631948656596315                       0
    78   1      28.558616311326759      23.123870167416953                       0
    79   1      31.518960685061845      21.615791678237585                       0
    80   1      34.479305058796932       20.10771318905822                       0
    81   1      37.439649432532029      18.599634699878855                       0
    82   1      28.384478406989391      26.441642843611554                       0
    83   1      31.344822780724485      24.933564354432193                       0
    84   1      34.305167154459575      23.425485865252821                       0
    85   1      37.265511528194665      21.917407376073456                       0
    86   1      40.225855901929762      20.409328886894095                       0
    87   1      34.131029250122225      26.743258541447432                       0
    88   1      37.091373623857308      25.235180052268063                       0
    89   1      40.051717997592398      23.727101563088699                       0
    90   1      39.877580093255034      27.044874239283299                       0
    91   1      42.837924466990124      25.536795750103934                       0
    92   1      4.7840083609164354      1.5489568072010786                     6.5
    93   1      4.9581462652537924      4.8667294833956838                     6.5
    94   1      7.7443527346515246       3.057035296380445                     6.5
    95   1      10.530559204049256       1.247341109365206                     6.5
    96   1      7.9184906389888816      6.3748079725750504                     6.5
    97   1      10.704697108386613      4.5651137855598121                     6.5
    98   1      13.490903577784348      2.7554195985445737                     6.5
    99   1      16.277110047182077     0.94572541152933498                     6.5
   100   1      8.0926285433262404      9.6925806487696544                     6.5
   101   1      10.878835012723973      7.8828864617544179                     6.5
   102   1      13.665041482121703      6.0731922747391787                     6.5
   103   1      16.451247951519434      4.2634980877239377                     6.5
   104   1      19.237454420917167       2.453803900708702                     6.5
   105   1        22.0236608903149     0.64410971369346326                     6.5
   106   1      11.052972917061329      11.200659137949021                     6.5
   107   1      13.839179386459062      9.3909649509337836                     6.5
   108   1      16.625385855856791      7.5812707639185444                     6.5
   109   1      19.411592325254528      5.7715765769033069                     6.5
   110   1      22.197798794652261      3.9618823898880686                     6.5
   111   1      24.984005264049987      2.1521882028728299                     6.5
   112   1       27.77021173344772     0.34249401585758971                     6.5
   113   1      11.227110821398689      14.518431814143629                     6.5
   114   1      14.013317290796419      12.708737627128389                     6.5
   115   1      16.799523760194152       10.89904344011315                     6.5
   116   1      19.585730229591881      9.0893492530979128                     6.5
   117   1      22.371936698989618      7.2796550660826744                     6.5
   118   1      25.158143168387351       5.469960879067437                     6.5
   119   1      27.944349637785081      3.6602666920521965                     6.5
   120   1       30.73055610718281      1.8505725050369581                     6.5
   121   1      14.187455195133778      16.026510303322993                     6.5
   122   1      16.973661664531509      14.216816116307756                     6.5
   123   1      19.759868133929238      12.407121929292517                     6.5
   124   1      22.546074603326971      10.597427742277278                     6.5
   125   1      25.332281072724708      8.7877335552620401                     6.5
   126   1      28.118487542122434         6.9780393682468                     6.5
   127   1      30.904694011520167      5.1683451812315617                     6.5
   128   1      33.690900480917897       3.358650994216323                     6.5
   129   1      14.361593099471136      19.344282979517597                     6.5
   130   1      17.147799568868869      17.534588792502362                     6.5
   131   1      19.934006038266602      15.724894605487124                     6.5
   132   1      22.720212507664328      13.915200418471883                     6.5
   133   1      25.506418977062062      12.105506231456644                     6.5
   134   1      28.292625446459795      10.295812044441407                     6.5
   135   1      31.078831915857528      8.4861178574261675                     6.5
   136   1      33.865038385255261      6.6764236704109337                     6.5
   137   1      17.321937473206223      20.852361468696966                     6.5
   138   1      20.108143942603959       19.04266728168173                     6.5
   139   1      22.894350412001693      17.232973094666491                     6.5
   140   1      25.680556881399422       15.42327890765125                     6.5
   141   1      28.466763350797155      13.613584720636013                     6.5
   142   1      31.252969820194885      11.803890533620773                     6.5
   143   1      34.039176289592618      9.9941963466055395                     6.5
   144   1      36.825382758990351      8.1845021595903003                     6.5
   145   1       17.49607537754358       24.17013414489157                     6.5
   146   1      20.282281846941313      22.360439957876331                     6.5
   147   1       23.06848831633905      20.550745770861095                     6.5
   148   1      25.854694785736775      18.741051583845852                     6.5
   149   1      28.640901255134512      16.931357396830617                     6.5
   150   1      31.427107724532245      15.121663209815379                     6.5
   151   1      34.213314193929975       13.31196902280014                     6.5
   152   1      36.999520663327708      11.502274835784906                     6.5
   153   1      17.670213281880944      27.487906821086177                     6.5
   154   1       20.45641975127867      25.678212634070942                     6.5
   155   1      23.242626220676403      23.868518447055699                     6.5
   156   1      26.028832690074136      22.058824260040463                     6.5
   157   1      28.815039159471873      20.249130073025224                     6.5
   158   1      31.601245628869606      18.439435886009985                     6.5
   159   1      34.387452098267339      16.629741698994746                     6.5
   160   1      37.173658567665065      14.820047511979508                     6.5
   161   1      39.959865037062798      13.010353324964273                     6.5
   162   1      23.416764125013771       27.18629112325031                     6.5
   163   1      26.202970594411497      25.376596936235067                     6.5
   164   1      28.989177063809226      23.566902749219832                     6.5
   165   1      31.775383533206963      21.757208562204593                     6.5
   166   1      34.561590002604689      19.947514375189353                     6.5
   167   1      37.347796472002429      18.137820188174114                     6.5
   168   1      40.134002941400155      16.328126001158875                     6.5
   169   1      29.163314968146583      26.884675425414436                     6.5
   170   1       31.94952143754432      25.074981238399197                     6.5
   171   1      34.735727906942053      23.265287051383957                     6.5
   172   1      37.521934376339786      21.455592864368718                     6.5
   173   1      40.308140845737519      19.645898677353482                     6.5
   174   1      43.094347315135245      17.836204490338247                     6.5
   175   1      34.909865811279403      26.583059727578561                     6.5
   176   1      37.696072280677136      24.773365540563322                     6.5
   177   1      40.482278750074869      22.963671353548083                     6.5
   178   1      43.268485219472602      21.153977166532844                     6.5
   179   1      40.656416654412233      26.281444029742691                     6.5
   180   1      43.442623123809959      24.471749842727451                     6.5
   181   1      46.228829593207692      22.662055655712212                     6.5
   182   1      46.402967497545049       25.97982833190682                     6.5
   183   2      2.7862064693977322      1.8096941870152399      1.6746279535999999
   184   2      2.7862064693977322      1.8096941870152399     -1.6746279535999999
   185   2      5.7465508431328223     0.30161569783587389      1.6746279535999999
   186   2      5.7465508431328223     0.30161569783587389     -1.6746279535999999
   187   2      5.5724129387954635      3.6193883740304789      1.6746279535999999
   188   2      5.5724129387954635      3.6193883740304789     -1.6746279535999999
   189   2      8.5327573125305527      2.1113098848511132      1.6746279535999999
   190   2      8.5327573125305527      2.1113098848511132     -1.6746279535999999
   191   2      11.493101686265645     0.60323139567174777      1.6746279535999999
   192   2      11.493101686265645     0.60323139567174777     -1.6746279535999999
   193   2      5.3982750344581065       6.937161050225086      1.6746279535999999
   194   2      5.3982750344581065       6.937161050225086     -1.6746279535999999
   195   2      8.3586194081931957      5.4290825610457194      1.6746279535999999
   196   2      8.3586194081931957      5.4290825610457194     -1.6746279535999999
   197   2      11.318963781928286      3.9210040718663532      1.6746279535999999
   198   2      11.318963781928286      3.9210040718663532     -1.6746279535999999
   199   2      14.279308155663376      2.4129255826869862      1.6746279535999999
   200   2      14.279308155663376      2.4129255826869862     -1.6746279535999999
   201   2      17.239652529398469     0.90484709350762293      1.6746279535999999
   202   2      17.239652529398469     0.90484709350762293     -1.6746279535999999
   203   2      8.1844815038558387      8.7468552372403252      1.6746279535999999
   204   2      8.1844815038558387      8.7468552372403252     -1.6746279535999999
   205   2      11.144825877590927      7.2387767480609577      1.6746279535999999
   206   2      11.144825877590927      7.2387767480609577     -1.6746279535999999
   207   2      14.105170251326017       5.730698258881592      1.6746279535999999
   208   2      14.105170251326017       5.730698258881592     -1.6746279535999999
   209   2      17.065514625061105      4.2226197697022263      1.6746279535999999
   210   2      17.065514625061105      4.2226197697022263     -1.6746279535999999
   211   2      20.025858998796199      2.7145412805228601      1.6746279535999999
   212   2      20.025858998796199      2.7145412805228601     -1.6746279535999999
   213   2      22.986203372531289      1.2064627913434955      1.6746279535999999
   214   2      22.986203372531289      1.2064627913434955     -1.6746279535999999
   215   2      8.0103435995184782      12.064627913434929      1.6746279535999999
   216   2      8.0103435995184782      12.064627913434929     -1.6746279535999999
   217   2       10.97068797325357      10.556549424255564      1.6746279535999999
   218   2       10.97068797325357      10.556549424255564     -1.6746279535999999
   219   2      13.931032346988658      9.0484709350761978      1.6746279535999999
   220   2      13.931032346988658      9.0484709350761978     -1.6746279535999999
   221   2      16.891376720723752      7.5403924458968312      1.6746279535999999
   222   2      16.891376720723752      7.5403924458968312     -1.6746279535999999
   223   2      19.851721094458838      6.0323139567174655      1.6746279535999999
   224   2      19.851721094458838      6.0323139567174655     -1.6746279535999999
   225   2      22.812065468193929      4.5242354675380998      1.6746279535999999
   226   2      22.812065468193929      4.5242354675380998     -1.6746279535999999
   227   2      25.772409841929019      3.0161569783587314      1.6746279535999999
   228   2      25.772409841929019      3.0161569783587314     -1.6746279535999999
   229   2      28.732754215664109      1.5080784891793664      1.6746279535999999
   230   2      28.732754215664109      1.5080784891793664     -1.6746279535999999
   231   2      10.796550068916213      13.874322100450172      1.6746279535999999
   232   2      10.796550068916213      13.874322100450172     -1.6746279535999999
   233   2      13.756894442651303      12.366243611270804      1.6746279535999999
   234   2      13.756894442651303      12.366243611270804     -1.6746279535999999
   235   2      16.717238816386391      10.858165122091439      1.6746279535999999
   236   2      16.717238816386391      10.858165122091439     -1.6746279535999999
   237   2      19.677583190121485      9.3500866329120722      1.6746279535999999
   238   2      19.677583190121485      9.3500866329120722     -1.6746279535999999
   239   2      22.637927563856572      7.8420081437327065      1.6746279535999999
   240   2      22.637927563856572      7.8420081437327065     -1.6746279535999999
   241   2      25.598271937591662      6.3339296545533408      1.6746279535999999
   242   2      25.598271937591662      6.3339296545533408     -1.6746279535999999
   243   2      28.558616311326752      4.8258511653739724      1.6746279535999999
   244   2      28.558616311326752      4.8258511653739724     -1.6746279535999999
   245   2      31.518960685061845      3.3177726761946076      1.6746279535999999
   246   2      31.518960685061845      3.3177726761946076     -1.6746279535999999
   247   2      10.622412164578854      17.192094776644776      1.6746279535999999
   248   2      10.622412164578854      17.192094776644776     -1.6746279535999999
   249   2      13.582756538313943      15.684016287465411      1.6746279535999999
   250   2      13.582756538313943      15.684016287465411     -1.6746279535999999
   251   2      16.543100912049034      14.175937798286043      1.6746279535999999
   252   2      16.543100912049034      14.175937798286043     -1.6746279535999999
   253   2      19.503445285784125      12.667859309106678      1.6746279535999999
   254   2      19.503445285784125      12.667859309106678     -1.6746279535999999
   255   2      22.463789659519215      11.159780819927311      1.6746279535999999
   256   2      22.463789659519215      11.159780819927311     -1.6746279535999999
   257   2      25.424134033254301       9.651702330747943      1.6746279535999999
   258   2      25.424134033254301       9.651702330747943     -1.6746279535999999
   259   2      28.384478406989395        8.14362384156858      1.6746279535999999
   260   2      28.384478406989395        8.14362384156858     -1.6746279535999999
   261   2      31.344822780724488      6.6355453523892134      1.6746279535999999
   262   2      31.344822780724488      6.6355453523892134     -1.6746279535999999
   263   2      34.305167154459568      5.1274668632098432      1.6746279535999999
   264   2      34.305167154459568      5.1274668632098432     -1.6746279535999999
   265   2      13.408618633976586      19.001788963660015      1.6746279535999999
   266   2      13.408618633976586      19.001788963660015     -1.6746279535999999
   267   2      16.368963007711677       17.49371047448065      1.6746279535999999
   268   2      16.368963007711677       17.49371047448065     -1.6746279535999999
   269   2      19.329307381446764      15.985631985301282      1.6746279535999999
   270   2      19.329307381446764      15.985631985301282     -1.6746279535999999
   271   2      22.289651755181854      14.477553496121915      1.6746279535999999
   272   2      22.289651755181854      14.477553496121915     -1.6746279535999999
   273   2      25.249996128916948      12.969475006942551      1.6746279535999999
   274   2      25.249996128916948      12.969475006942551     -1.6746279535999999
   275   2      28.210340502652034      11.461396517763184      1.6746279535999999
   276   2      28.210340502652034      11.461396517763184     -1.6746279535999999
   277   2      31.170684876387121      9.9533180285838156      1.6746279535999999
   278   2      31.170684876387121      9.9533180285838156     -1.6746279535999999
   279   2      34.131029250122211      8.4452395394044526      1.6746279535999999
   280   2      34.131029250122211      8.4452395394044526     -1.6746279535999999
   281   2      13.234480729639225      22.319561639854619      1.6746279535999999
   282   2      13.234480729639225      22.319561639854619     -1.6746279535999999
   283   2      16.194825103374317      20.811483150675254      1.6746279535999999
   284   2      16.194825103374317      20.811483150675254     -1.6746279535999999
   285   2      19.155169477109407      19.303404661495886      1.6746279535999999
   286   2      19.155169477109407      19.303404661495886     -1.6746279535999999
   287   2      22.115513850844497      17.795326172316521      1.6746279535999999
   288   2      22.115513850844497      17.795326172316521     -1.6746279535999999
   289   2      25.075858224579587      16.287247683137156      1.6746279535999999
   290   2      25.075858224579587      16.287247683137156     -1.6746279535999999
   291   2      28.036202598314674      14.779169193957786      1.6746279535999999
   292   2      28.036202598314674      14.779169193957786     -1.6746279535999999
   293   2      30.996546972049764      13.271090704778423      1.6746279535999999
   294   2      30.996546972049764      13.271090704778423     -1.6746279535999999
   295   2      33.956891345784854      11.763012215599055      1.6746279535999999
   296   2      33.956891345784854      11.763012215599055     -1.6746279535999999
   297   2      36.917235719519951      10.254933726419692      1.6746279535999999
   298   2      36.917235719519951      10.254933726419692     -1.6746279535999999
   299   2      16.020687199036956      24.129255826869858      1.6746279535999999
   300   2      16.020687199036956      24.129255826869858     -1.6746279535999999
   301   2       18.98103157277205      22.621177337690494      1.6746279535999999
   302   2       18.98103157277205      22.621177337690494     -1.6746279535999999
   303   2       21.94137594650714      21.113098848511129      1.6746279535999999
   304   2       21.94137594650714      21.113098848511129     -1.6746279535999999
   305   2      24.901720320242227      19.605020359331757      1.6746279535999999
   306   2      24.901720320242227      19.605020359331757     -1.6746279535999999
   307   2      27.862064693977317      18.096941870152396      1.6746279535999999
   308   2      27.862064693977317      18.096941870152396     -1.6746279535999999
   309   2      30.822409067712407      16.588863380973027      1.6746279535999999
   310   2      30.822409067712407      16.588863380973027     -1.6746279535999999
   311   2      33.782753441447504      15.080784891793662      1.6746279535999999
   312   2      33.782753441447504      15.080784891793662     -1.6746279535999999
   313   2      36.743097815182587      13.572706402614298      1.6746279535999999
   314   2      36.743097815182587      13.572706402614298     -1.6746279535999999
   315   2      15.846549294699603      27.447028503064466      1.6746279535999999
   316   2      15.846549294699603      27.447028503064466     -1.6746279535999999
   317   2      18.806893668434693      25.938950013885101      1.6746279535999999
   318   2      18.806893668434693      25.938950013885101     -1.6746279535999999
   319   2       21.76723804216978      24.430871524705729      1.6746279535999999
   320   2       21.76723804216978      24.430871524705729     -1.6746279535999999
   321   2       24.72758241590487      22.922793035526368      1.6746279535999999
   322   2       24.72758241590487      22.922793035526368     -1.6746279535999999
   323   2      27.687926789639963         21.414714546347      1.6746279535999999
   324   2      27.687926789639963         21.414714546347     -1.6746279535999999
   325   2      30.648271163375053      19.906636057167635      1.6746279535999999
   326   2      30.648271163375053      19.906636057167635     -1.6746279535999999
   327   2       33.60861553711014       18.39855756798827      1.6746279535999999
   328   2       33.60861553711014       18.39855756798827     -1.6746279535999999
   329   2       36.56895991084523      16.890479078808905      1.6746279535999999
   330   2       36.56895991084523      16.890479078808905     -1.6746279535999999
   331   2      39.529304284580327      15.382400589629537      1.6746279535999999
   332   2      39.529304284580327      15.382400589629537     -1.6746279535999999
   333   2      24.553444511567516      26.240565711720972      1.6746279535999999
   334   2      24.553444511567516      26.240565711720972     -1.6746279535999999
   335   2      27.513788885302606      24.732487222541607      1.6746279535999999
   336   2      27.513788885302606      24.732487222541607     -1.6746279535999999
   337   2      30.474133259037696      23.224408733362242      1.6746279535999999
   338   2      30.474133259037696      23.224408733362242     -1.6746279535999999
   339   2      33.434477632772783      21.716330244182878      1.6746279535999999
   340   2      33.434477632772783      21.716330244182878     -1.6746279535999999
   341   2       36.39482200650788      20.208251755003509      1.6746279535999999
   342   2       36.39482200650788      20.208251755003509     -1.6746279535999999
   343   2       39.35516638024297      18.700173265824144      1.6746279535999999
   344   2       39.35516638024297      18.700173265824144     -1.6746279535999999
   345   2      30.299995354700336      26.542181409556846      1.6746279535999999
   346   2      30.299995354700336      26.542181409556846     -1.6746279535999999
   347   2      33.260339728435426      25.034102920377478      1.6746279535999999
   348   2      33.260339728435426      25.034102920377478     -1.6746279535999999
   349   2      36.220684102170516      23.526024431198113      1.6746279535999999
   350   2      36.220684102170516      23.526024431198113     -1.6746279535999999
   351   2      39.181028475905606      22.017945942018748      1.6746279535999999
   352   2      39.181028475905606      22.017945942018748     -1.6746279535999999
   353   2      42.141372849640696      20.509867452839384      1.6746279535999999
   354   2      42.141372849640696      20.509867452839384     -1.6746279535999999
   355   2      36.046546197833159      26.843797107392721      1.6746279535999999
   356   2      36.046546197833159      26.843797107392721     -1.6746279535999999
   357   2      39.006890571568249      25.335718618213356      1.6746279535999999
   358   2      39.006890571568249      25.335718618213356     -1.6746279535999999
   359   2      41.967234945303339      23.827640129033988      1.6746279535999999
   360   2      41.967234945303339      23.827640129033988     -1.6746279535999999
   361   2      41.793097040965975      27.145412805228592      1.6746279535999999
   362   2      41.793097040965975      27.145412805228592     -1.6746279535999999
   363   2      44.753441414701065      25.637334316049227      1.6746279535999999
   364   2      44.753441414701065      25.637334316049227     -1.6746279535999999
   365   2      2.9603443737350896      1.5080784891793666      8.1746279535999999
   366   2      2.9603443737350896      1.5080784891793666      4.8253720464000001
   367   2      3.1344822780724471      4.8258511653739715      8.1746279535999999
   368   2      3.1344822780724471      4.8258511653739715      4.8253720464000001
   369   2      5.9206887474701793      3.0161569783587332      8.1746279535999999
   370   2      5.9206887474701793      3.0161569783587332      4.8253720464000001
   371   2      8.7068952168679115      1.2064627913434949      8.1746279535999999
   372   2      8.7068952168679115      1.2064627913434949      4.8253720464000001
   373   2      6.0948266518075371       6.333929654553339      8.1746279535999999
   374   2      6.0948266518075371       6.333929654553339      4.8253720464000001
   375   2      8.8810331212052684      4.5242354675381007      8.1746279535999999
   376   2      8.8810331212052684      4.5242354675381007      4.8253720464000001
   377   2      11.667239590603003      2.7145412805228624      8.1746279535999999
   378   2      11.667239590603003      2.7145412805228624      4.8253720464000001
   379   2      14.453446060000733     0.90484709350762305      8.1746279535999999
   380   2      14.453446060000733     0.90484709350762305      4.8253720464000001
   381   2      6.2689645561448941       9.651702330747943      8.1746279535999999
   382   2      6.2689645561448941       9.651702330747943      4.8253720464000001
   383   2       9.055171025542629      7.8420081437327065      8.1746279535999999
   384   2       9.055171025542629      7.8420081437327065      4.8253720464000001
   385   2      11.841377494940359      6.0323139567174664      8.1746279535999999
   386   2      11.841377494940359      6.0323139567174664      4.8253720464000001
   387   2      14.627583964338092      4.2226197697022272      8.1746279535999999
   388   2      14.627583964338092      4.2226197697022272      4.8253720464000001
   389   2      17.413790433735823      2.4129255826869898      8.1746279535999999
   390   2      17.413790433735823      2.4129255826869898      4.8253720464000001
   391   2      20.199996903133556     0.60323139567175132      8.1746279535999999
   392   2      20.199996903133556     0.60323139567175132      4.8253720464000001
   393   2      9.2293089298799842       11.15978081992731      8.1746279535999999
   394   2      9.2293089298799842       11.15978081992731      4.8253720464000001
   395   2      12.015515399277716      9.3500866329120722      8.1746279535999999
   396   2      12.015515399277716      9.3500866329120722      4.8253720464000001
   397   2      14.801721868675449       7.540392445896833      8.1746279535999999
   398   2      14.801721868675449       7.540392445896833      4.8253720464000001
   399   2       17.58792833807318      5.7306982588815947      8.1746279535999999
   400   2       17.58792833807318      5.7306982588815947      4.8253720464000001
   401   2      20.374134807470913      3.9210040718663577      8.1746279535999999
   402   2      20.374134807470913      3.9210040718663577      4.8253720464000001
   403   2      23.160341276868643       2.111309884851118      8.1746279535999999
   404   2      23.160341276868643       2.111309884851118      4.8253720464000001
   405   2      25.946547746266376     0.30161569783587783      8.1746279535999999
   406   2      25.946547746266376     0.30161569783587783      4.8253720464000001
   407   2      9.4034468342173447      14.477553496121915      8.1746279535999999
   408   2      9.4034468342173447      14.477553496121915      4.8253720464000001
   409   2      12.189653303615074      12.667859309106678      8.1746279535999999
   410   2      12.189653303615074      12.667859309106678      4.8253720464000001
   411   2      14.975859773012806      10.858165122091439      8.1746279535999999
   412   2      14.975859773012806      10.858165122091439      4.8253720464000001
   413   2      17.762066242410537      9.0484709350762014      8.1746279535999999
   414   2      17.762066242410537      9.0484709350762014      4.8253720464000001
   415   2      20.548272711808274      7.2387767480609639      8.1746279535999999
   416   2      20.548272711808274      7.2387767480609639      4.8253720464000001
   417   2      23.334479181206007      5.4290825610457247      8.1746279535999999
   418   2      23.334479181206007      5.4290825610457247      4.8253720464000001
   419   2      26.120685650603736      3.6193883740304846      8.1746279535999999
   420   2      26.120685650603736      3.6193883740304846      4.8253720464000001
   421   2      28.906892120001466      1.8096941870152461      8.1746279535999999
   422   2      28.906892120001466      1.8096941870152461      4.8253720464000001
   423   2      12.363791207952433      15.985631985301282      8.1746279535999999
   424   2      12.363791207952433      15.985631985301282      4.8253720464000001
   425   2      15.149997677350164      14.175937798286045      8.1746279535999999
   426   2      15.149997677350164      14.175937798286045      4.8253720464000001
   427   2      17.936204146747894      12.366243611270805      8.1746279535999999
   428   2      17.936204146747894      12.366243611270805      4.8253720464000001
   429   2      20.722410616145627      10.556549424255566      8.1746279535999999
   430   2      20.722410616145627      10.556549424255566      4.8253720464000001
   431   2       23.50861708554336      8.7468552372403288      8.1746279535999999
   432   2       23.50861708554336      8.7468552372403288      4.8253720464000001
   433   2       26.29482355494109      6.9371610502250887      8.1746279535999999
   434   2       26.29482355494109      6.9371610502250887      4.8253720464000001
   435   2      29.081030024338823      5.1274668632098495      8.1746279535999999
   436   2      29.081030024338823      5.1274668632098495      4.8253720464000001
   437   2      31.867236493736556      3.3177726761946111      8.1746279535999999
   438   2      31.867236493736556      3.3177726761946111      4.8253720464000001
   439   2      12.537929112289788      19.303404661495886      8.1746279535999999
   440   2      12.537929112289788      19.303404661495886      4.8253720464000001
   441   2      15.324135581687525       17.49371047448065      8.1746279535999999
   442   2      15.324135581687525       17.49371047448065      4.8253720464000001
   443   2      18.110342051085258      15.684016287465413      8.1746279535999999
   444   2      18.110342051085258      15.684016287465413      4.8253720464000001
   445   2      20.896548520482984      13.874322100450172      8.1746279535999999
   446   2      20.896548520482984      13.874322100450172      4.8253720464000001
   447   2      23.682754989880717      12.064627913434933      8.1746279535999999
   448   2      23.682754989880717      12.064627913434933      4.8253720464000001
   449   2       26.46896145927845      10.254933726419697      8.1746279535999999
   450   2       26.46896145927845      10.254933726419697      4.8253720464000001
   451   2      29.255167928676183      8.4452395394044544      8.1746279535999999
   452   2      29.255167928676183      8.4452395394044544      4.8253720464000001
   453   2      32.041374398073913      6.6355453523892196      8.1746279535999999
   454   2      32.041374398073913      6.6355453523892196      4.8253720464000001
   455   2       15.49827348602488      20.811483150675254      8.1746279535999999
   456   2       15.49827348602488      20.811483150675254      4.8253720464000001
   457   2      18.284479955422611      19.001788963660019      8.1746279535999999
   458   2      18.284479955422611      19.001788963660019      4.8253720464000001
   459   2      21.070686424820348       17.19209477664478      8.1746279535999999
   460   2      21.070686424820348       17.19209477664478      4.8253720464000001
   461   2      23.856892894218078      15.382400589629539      8.1746279535999999
   462   2      23.856892894218078      15.382400589629539      4.8253720464000001
   463   2      26.643099363615807      13.572706402614303      8.1746279535999999
   464   2      26.643099363615807      13.572706402614303      4.8253720464000001
   465   2       29.42930583301354      11.763012215599064      8.1746279535999999
   466   2       29.42930583301354      11.763012215599064      4.8253720464000001
   467   2       32.21551230241127       9.953318028583821      8.1746279535999999
   468   2       32.21551230241127       9.953318028583821      4.8253720464000001
   469   2      35.001718771809003      8.1436238415685871      8.1746279535999999
   470   2      35.001718771809003      8.1436238415685871      4.8253720464000001
   471   2      15.672411390362235      24.129255826869858      8.1746279535999999
   472   2      15.672411390362235      24.129255826869858      4.8253720464000001
   473   2      18.458617859759968      22.319561639854619      8.1746279535999999
   474   2      18.458617859759968      22.319561639854619      4.8253720464000001
   475   2      21.244824329157701      20.509867452839384      8.1746279535999999
   476   2      21.244824329157701      20.509867452839384      4.8253720464000001
   477   2      24.031030798555431      18.700173265824144      8.1746279535999999
   478   2      24.031030798555431      18.700173265824144      4.8253720464000001
   479   2      26.817237267953164      16.890479078808905      8.1746279535999999
   480   2      26.817237267953164      16.890479078808905      4.8253720464000001
   481   2      29.603443737350897      15.080784891793666      8.1746279535999999
   482   2      29.603443737350897      15.080784891793666      4.8253720464000001
   483   2      32.389650206748627      13.271090704778427      8.1746279535999999
   484   2      32.389650206748627      13.271090704778427      4.8253720464000001
   485   2       35.17585667614636      11.461396517763189      8.1746279535999999
   486   2       35.17585667614636      11.461396517763189      4.8253720464000001
   487   2      15.846549294699599      27.447028503064466      8.1746279535999999
   488   2      15.846549294699599      27.447028503064466      4.8253720464000001
   489   2      18.632755764097325      25.637334316049227      8.1746279535999999
   490   2      18.632755764097325      25.637334316049227      4.8253720464000001
   491   2      21.418962233495058      23.827640129033988      8.1746279535999999
   492   2      21.418962233495058      23.827640129033988      4.8253720464000001
   493   2      24.205168702892788      22.017945942018748      8.1746279535999999
   494   2      24.205168702892788      22.017945942018748      4.8253720464000001
   495   2      26.991375172290525      20.208251755003509      8.1746279535999999
   496   2      26.991375172290525      20.208251755003509      4.8253720464000001
   497   2      29.777581641688254      18.398557567988274      8.1746279535999999
   498   2      29.777581641688254      18.398557567988274      4.8253720464000001
   499   2      32.563788111085991      16.588863380973034      8.1746279535999999
   500   2      32.563788111085991      16.588863380973034      4.8253720464000001
   501   2      35.349994580483717      14.779169193957795      8.1746279535999999
   502   2      35.349994580483717      14.779169193957795      4.8253720464000001
   503   2      38.136201049881457      12.969475006942556      8.1746279535999999
   504   2      38.136201049881457      12.969475006942556      4.8253720464000001
   505   2      21.593100137832423      27.145412805228599      8.1746279535999999
   506   2      21.593100137832423      27.145412805228599      4.8253720464000001
   507   2      24.379306607230149      25.335718618213356      8.1746279535999999
   508   2      24.379306607230149      25.335718618213356      4.8253720464000001
   509   2      27.165513076627878      23.526024431198117      8.1746279535999999
   510   2      27.165513076627878      23.526024431198117      4.8253720464000001
   511   2      29.951719546025611      21.716330244182878      8.1746279535999999
   512   2      29.951719546025611      21.716330244182878      4.8253720464000001
   513   2      32.737926015423348      19.906636057167638      8.1746279535999999
   514   2      32.737926015423348      19.906636057167638      4.8253720464000001
   515   2      35.524132484821074      18.096941870152403      8.1746279535999999
   516   2      35.524132484821074      18.096941870152403      4.8253720464000001
   517   2      38.310338954218814      16.287247683137164      8.1746279535999999
   518   2      38.310338954218814      16.287247683137164      4.8253720464000001
   519   2      27.339650980965239      26.843797107392721      8.1746279535999999
   520   2      27.339650980965239      26.843797107392721      4.8253720464000001
   521   2      30.125857450362975      25.034102920377485      8.1746279535999999
   522   2      30.125857450362975      25.034102920377485      4.8253720464000001
   523   2      32.912063919760705      23.224408733362246      8.1746279535999999
   524   2      32.912063919760705      23.224408733362246      4.8253720464000001
   525   2      35.698270389158438      21.414714546347007      8.1746279535999999
   526   2      35.698270389158438      21.414714546347007      4.8253720464000001
   527   2      38.484476858556171      19.605020359331768      8.1746279535999999
   528   2      38.484476858556171      19.605020359331768      4.8253720464000001
   529   2      41.270683327953904      17.795326172316528      8.1746279535999999
   530   2      41.270683327953904      17.795326172316528      4.8253720464000001
   531   2      33.086201824098062      26.542181409556846      8.1746279535999999
   532   2      33.086201824098062      26.542181409556846      4.8253720464000001
   533   2      35.872408293495788      24.732487222541611      8.1746279535999999
   534   2      35.872408293495788      24.732487222541611      4.8253720464000001
   535   2      38.658614762893521      22.922793035526372      8.1746279535999999
   536   2      38.658614762893521      22.922793035526372      4.8253720464000001
   537   2      41.444821232291254      21.113098848511132      8.1746279535999999
   538   2      41.444821232291254      21.113098848511132      4.8253720464000001
   539   2      38.832752667230878      26.240565711720976      8.1746279535999999
   540   2      38.832752667230878      26.240565711720976      4.8253720464000001
   541   2      41.618959136628618      24.430871524705736      8.1746279535999999
   542   2      41.618959136628618      24.430871524705736      4.8253720464000001
   543   2      44.405165606026344      22.621177337690497      8.1746279535999999
   544   2      44.405165606026344      22.621177337690497      4.8253720464000001
   545   2      44.579303510363708      25.938950013885105      8.1746279535999999
   546   2      44.579303510363708      25.938950013885105      4.8253720464000001
