rigid_bilayers/data_WSe2_WSe2_AP_2 (written by ASE) 

114 	 atoms 
2  atom types
0.0      14.484073293224052  xlo xhi
0.0      12.543575422207763  ylo yhi
0.0                      30  zlo zhi
    -7.2420366466120232                       0                       0  xy xz yz


Atoms 

     1   1     0.76231964701179211      1.7605018136431949                       0
     2   1      3.8115982350589608     0.44012545341079934                       0
     3   1      3.4304384115530651      3.7410663539917897                       0
     4   1      6.4797169996002335      2.4206899937593933                       0
     5   1      9.5289955876474028      1.1003136335269983                       0
     6   1      3.0492785880471698      7.0420072545727805                       0
     7   1      6.0985571760943387      5.7216308943403842                       0
     8   1      9.1478357641415062      4.4012545341079887                       0
     9   1      12.197114352188676      3.0808781738755919                       0
    10   1      5.7173973525884412      9.0225717949213742                       0
    11   1      8.7666759406356096      7.7021954346889778                       0
    12   1      11.815954528682779      6.3818190744565824                       0
    13   1      14.865233116729947      5.0614427142241851                       0
    14   1      5.3362375290825454      12.323512695502364                       0
    15   1      8.3855161171297148      11.003136335269968                       0
    16   1      11.434794705176881      9.6827599750375715                       0
    17   1       14.48407329322405      8.3623836148051769                       0
    18   1      14.102913469718155      11.663324515386167                       0
    19   1      17.152192057765326      10.342948155153772                       0
    20   1      4.7444367504812854      1.3840787284892231                     6.5
    21   1      5.1255965739871803      4.6850196290702124                     6.5
    22   1       7.793715338528453      2.7044550887216192                     6.5
    23   1      10.461834103069727     0.72389054837302635                     6.5
    24   1      8.1748751620343469      6.0053959893026088                     6.5
    25   1      10.842993926575621      4.0248314489540151                     6.5
    26   1      13.511112691116894      2.0442669086054237                     6.5
    27   1      8.5560349855402453      9.3063368898835996                     6.5
    28   1      11.224153750081518      7.3257723495350069                     6.5
    29   1      13.892272514622791      5.3452078091864124                     6.5
    30   1      16.560391279164062      3.3646432688378187                     6.5
    31   1      8.9371948090461419      12.607277790464591                     6.5
    32   1      11.605313573587413      10.626713250115996                     6.5
    33   1      14.273432338128686      8.6461487097674024                     6.5
    34   1      16.941551102669958      6.6655841694188105                     6.5
    35   1      14.654592161634579      11.947089610348391                     6.5
    36   1      17.322710926175851      9.9665250699997969                     6.5
    37   1      19.990829690717124      7.9859605296512068                     6.5
    38   1      20.371989514223021      11.286901430232197                     6.5
    39   2      2.6681187645412727      1.9805645403485945            1.6835894055
    40   2      2.6681187645412727      1.9805645403485945           -1.6835894055
    41   2      5.7173973525884412     0.66018818011619884            1.6835894055
    42   2      5.7173973525884412     0.66018818011619884           -1.6835894055
    43   2      5.3362375290825454      3.9611290806971886            1.6835894055
    44   2      5.3362375290825454      3.9611290806971886           -1.6835894055
    45   2       8.385516117129713      2.6407527204647931            1.6835894055
    46   2       8.385516117129713      2.6407527204647931           -1.6835894055
    47   2      11.434794705176882      1.3203763602323977            1.6835894055
    48   2      11.434794705176882      1.3203763602323977           -1.6835894055
    49   2      4.9550777055766506      7.2620699812781799            1.6835894055
    50   2      4.9550777055766506      7.2620699812781799           -1.6835894055
    51   2      8.0043562936238182      5.9416936210457836            1.6835894055
    52   2      8.0043562936238182      5.9416936210457836           -1.6835894055
    53   2      11.053634881670988      4.6213172608133872            1.6835894055
    54   2      11.053634881670988      4.6213172608133872           -1.6835894055
    55   2      14.102913469718155      3.3009409005809913            1.6835894055
    56   2      14.102913469718155      3.3009409005809913           -1.6835894055
    57   2      7.6231964701179225      9.2426345216267727            1.6835894055
    58   2      7.6231964701179225      9.2426345216267727           -1.6835894055
    59   2      10.672475058165091      7.9222581613943772            1.6835894055
    60   2      10.672475058165091      7.9222581613943772           -1.6835894055
    61   2      13.721753646212258      6.6018818011619809            1.6835894055
    62   2      13.721753646212258      6.6018818011619809           -1.6835894055
    63   2      16.771032234259426      5.2815054409295863            1.6835894055
    64   2      16.771032234259426      5.2815054409295863           -1.6835894055
    65   2      7.2420366466120258      12.543575422207763            1.6835894055
    66   2      7.2420366466120258      12.543575422207763           -1.6835894055
    67   2      10.291315234659193      11.223199061975366            1.6835894055
    68   2      10.291315234659193      11.223199061975366           -1.6835894055
    69   2      13.340593822706362      9.9028227017429717            1.6835894055
    70   2      13.340593822706362      9.9028227017429717           -1.6835894055
    71   2      16.389872410753533      8.5824463415105772            1.6835894055
    72   2      16.389872410753533      8.5824463415105772           -1.6835894055
    73   2      16.008712587247636      11.883387242091567            1.6835894055
    74   2      16.008712587247636      11.883387242091567           -1.6835894055
    75   2      19.057991175294806      10.563010881859173            1.6835894055
    76   2      19.057991175294806      10.563010881859173           -1.6835894055
    77   2      3.0492785880471684      1.3203763602323966      8.1835894054999994
    78   2      3.0492785880471684      1.3203763602323966      4.8164105944999998
    79   2      3.4304384115530642      4.6213172608133863      8.1835894054999994
    80   2      3.4304384115530642      4.6213172608133863      4.8164105944999998
    81   2      6.0985571760943369      2.6407527204647931      8.1835894054999994
    82   2      6.0985571760943369      2.6407527204647931      4.8164105944999998
    83   2      8.7666759406356096      0.6601881801161994      8.1835894054999994
    84   2      8.7666759406356096      0.6601881801161994      4.8164105944999998
    85   2      6.4797169996002308      5.9416936210457827      8.1835894054999994
    86   2      6.4797169996002308      5.9416936210457827      4.8164105944999998
    87   2      9.1478357641415045      3.9611290806971899      8.1835894054999994
    88   2      9.1478357641415045      3.9611290806971899      4.8164105944999998
    89   2      11.815954528682779      1.9805645403485976      8.1835894054999994
    90   2      11.815954528682779      1.9805645403485976      4.8164105944999998
    91   2      6.8608768231061283      9.2426345216267727      8.1835894054999994
    92   2      6.8608768231061283      9.2426345216267727      4.8164105944999998
    93   2      9.5289955876474028      7.2620699812781808      8.1835894054999994
    94   2      9.5289955876474028      7.2620699812781808      4.8164105944999998
    95   2      12.197114352188674      5.2815054409295863      8.1835894054999994
    96   2      12.197114352188674      5.2815054409295863      4.8164105944999998
    97   2      14.865233116729947      3.3009409005809918      8.1835894054999994
    98   2      14.865233116729947      3.3009409005809918      4.8164105944999998
    99   2       7.242036646612025      12.543575422207764      8.1835894054999994
   100   2       7.242036646612025      12.543575422207764      4.8164105944999998
   101   2      9.9101554111532977      10.563010881859169      8.1835894054999994
   102   2      9.9101554111532977      10.563010881859169      4.8164105944999998
   103   2      12.578274175694569      8.5824463415105772      8.1835894054999994
   104   2      12.578274175694569      8.5824463415105772      4.8164105944999998
   105   2      15.246392940235843      6.6018818011619835      8.1835894054999994
   106   2      15.246392940235843      6.6018818011619835      4.8164105944999998
   107   2      12.959433999200462      11.883387242091565      8.1835894054999994
   108   2      12.959433999200462      11.883387242091565      4.8164105944999998
   109   2      15.627552763741736      9.9028227017429735      8.1835894054999994
   110   2      15.627552763741736      9.9028227017429735      4.8164105944999998
   111   2      18.295671528283009      7.9222581613943799      8.1835894054999994
   112   2      18.295671528283009      7.9222581613943799      4.8164105944999998
   113   2      18.676831351788906       11.22319906197537      8.1835894054999994
   114   2      18.676831351788906       11.22319906197537      4.8164105944999998
