rigid_bilayers/data_MoS2_WS2_P_7 (written by ASE) 

1014 	 atoms 
3  atom types
0.0      41.451849829000004  xlo xhi
0.0       35.89835498577164  ylo yhi
0.0                      30  zlo zhi
     20.725924914499998                       0                       0  xy xz yz


Atoms 

     1   1      0.8584702627307691      1.6285249796306662                       0
     2   1      3.6791582688461535       0.141610867793971                       0
     3   1      3.5565196598846147      3.3278553931583179                       0
     4   1      6.3772076659999994      1.8409412813216224                       0
     5   1      9.1978956721153828     0.35402716948492707                       0
     6   1      3.4338810509230764       6.514099918522664                       0
     7   1      6.2545690570384602      5.0271858066859689                       0
     8   1      9.0752570631538454      3.5402716948492734                       0
     9   1      11.895945069269228      2.0533575830125783                       0
    10   1      14.716633075384614     0.56644347117588401                       0
    11   1      6.1319304480769219       8.213430332050315                       0
    12   1      8.9526184541923062      6.7265162202136199                       0
    13   1      11.773306460307692      5.2396021083769257                       0
    14   1      14.593994466423077      3.7526879965402311                       0
    15   1      17.414682472538459      2.2657738847035351                       0
    16   1      20.235370478653842     0.77885977286683927                       0
    17   1      6.0092918391153827      11.399674857414661                       0
    18   1      8.8299798452307687      9.9127607455779678                       0
    19   1      11.650667851346155      8.4258466337412727                       0
    20   1      14.471355857461537      6.9389325219045768                       0
    21   1      17.292043863576922      5.4520184100678808                       0
    22   1      20.112731869692304      3.9651042982311879                       0
    23   1      22.933419875807687      2.4781901863944902                       0
    24   1      25.754107881923073     0.99127607455779454                       0
    25   1      8.7073412362692313      13.099005270942314                       0
    26   1      11.528029242384614      11.612091159105619                       0
    27   1      14.348717248499998      10.125177047268922                       0
    28   1      17.169405254615381      8.6382629354322287                       0
    29   1      19.990093260730767      7.1513488235955318                       0
    30   1      22.810781266846149      5.6644347117588367                       0
    31   1      25.631469272961535      4.1775205999221434                       0
    32   1      28.452157279076921      2.6906064880854474                       0
    33   1      31.272845285192304      1.2036923762487548                       0
    34   1      8.5847026273076903      16.285249796306658                       0
    35   1      11.405390633423073      14.798335684469963                       0
    36   1      14.226078639538459       13.31142157263327                       0
    37   1      17.046766645653843      11.824507460796573                       0
    38   1      19.867454651769226      10.337593348959878                       0
    39   1      22.688142657884615      8.8506792371231846                       0
    40   1      25.508830663999994      7.3637651252864877                       0
    41   1      28.329518670115377      5.8768510134497944                       0
    42   1      31.150206676230766      4.3899369016130985                       0
    43   1      33.970894682346149      2.9030227897764025                       0
    44   1      36.791582688461538      1.4161086779397054                       0
    45   1      11.282752024461535      17.984580209834313                       0
    46   1       14.10344003057692      16.497666097997616                       0
    47   1      16.924128036692302      15.010751986160921                       0
    48   1      19.744816042807692      13.523837874324226                       0
    49   1      22.565504048923074      12.036923762487531                       0
    50   1       25.38619205503846      10.550009650650837                       0
    51   1      28.206880061153843      9.0630955388141405                       0
    52   1      31.027568067269225      7.5761814269774472                       0
    53   1      33.848256073384611      6.0892673151407495                       0
    54   1      36.668944079499994      4.6023532033040571                       0
    55   1      39.489632085615384      3.1154390914673562                       0
    56   1           11.1601134155      21.170824735198661                       0
    57   1      13.980801421615384      19.683910623361964                       0
    58   1      16.801489427730768      18.196996511525267                       0
    59   1      19.622177433846151      16.710082399688574                       0
    60   1      22.442865439961537      15.223168287851879                       0
    61   1      25.263553446076923      13.736254176015184                       0
    62   1      28.084241452192309      12.249340064178488                       0
    63   1      30.904929458307691      10.762425952341795                       0
    64   1      33.725617464423081      9.2755118405051018                       0
    65   1      36.546305470538456      7.7885977286684005                       0
    66   1      39.366993476653846      6.3016836168317081                       0
    67   1      42.187681482769229      4.8147695049950112                       0
    68   1      13.858162812653845      22.870155148726312                       0
    69   1      16.678850818769231      21.383241036889615                       0
    70   1      19.499538824884613      19.896326925052922                       0
    71   1      22.320226830999996      18.409412813216225                       0
    72   1      25.140914837115382      16.922498701379531                       0
    73   1      27.961602843230764      15.435584589542833                       0
    74   1       30.78229084934615      13.948670477706139                       0
    75   1      33.602978855461537      12.461756365869443                       0
    76   1      36.423666861576919      10.974842254032749                       0
    77   1      39.244354867692302      9.4879281421960542                       0
    78   1      42.065042873807691      8.0010140303593591                       0
    79   1      13.735524203692302      26.056399674090656                       0
    80   1      16.556212209807686      24.569485562253963                       0
    81   1      19.376900215923076      23.082571450417266                       0
    82   1      22.197588222038455      21.595657338580569                       0
    83   1      25.018276228153841      20.108743226743876                       0
    84   1      27.838964234269227      18.621829114907182                       0
    85   1      30.659652240384609      17.134915003070486                       0
    86   1      33.480340246499999       15.64800089123379                       0
    87   1      36.301028252615382      14.161086779397097                       0
    88   1      39.121716258730757      12.674172667560397                       0
    89   1      41.942404264846147      11.187258555723702                       0
    90   1      44.763092270961536      9.7003444438870101                       0
    91   1      16.433573600846152      27.755730087618307                       0
    92   1      19.254261606961535      26.268815975781614                       0
    93   1      22.074949613076921      24.781901863944917                       0
    94   1      24.895637619192303      23.294987752108224                       0
    95   1      27.716325625307686      21.808073640271527                       0
    96   1      30.537013631423076      20.321159528434833                       0
    97   1      33.357701637538455       18.83424541659814                       0
    98   1      36.178389643653844      17.347331304761443                       0
    99   1      38.999077649769234      15.860417192924748                       0
   100   1      41.819765655884609      14.373503081088051                       0
   101   1      44.640453661999992      12.886588969251353                       0
   102   1      16.310934991884618      30.941974612982655                       0
   103   1      19.131622998000001      29.455060501145962                       0
   104   1      21.952311004115387      27.968146389309268                       0
   105   1      24.772999010230766      26.481232277472568                       0
   106   1      27.593687016346152      24.994318165635875                       0
   107   1      30.414375022461531      23.507404053799181                       0
   108   1      33.235063028576917      22.020489941962484                       0
   109   1      36.055751034692307      20.533575830125791                       0
   110   1      38.876439040807689      19.046661718289098                       0
   111   1      41.697127046923079      17.559747606452401                       0
   112   1      44.517815053038454      16.072833494615701                       0
   113   1      47.338503059153844      14.585919382779007                       0
   114   1       19.00898438903846      32.641305026510302                       0
   115   1      21.829672395153843      31.154390914673609                       0
   116   1      24.650360401269221      29.667476802836912                       0
   117   1      27.471048407384611      28.180562691000219                       0
   118   1       30.29173641349999      26.693648579163522                       0
   119   1       33.11242441961538      25.206734467326829                       0
   120   1      35.933112425730762      23.719820355490135                       0
   121   1      38.753800431846145      22.232906243653439                       0
   122   1      41.574488437961534      20.745992131816745                       0
   123   1      44.395176444076924      19.259078019980052                       0
   124   1      47.215864450192299      17.772163908143355                       0
   125   1      18.886345780076919      35.827549551874654                       0
   126   1      21.707033786192309      34.340635440037957                       0
   127   1      24.527721792307688      32.853721328201267                       0
   128   1      27.348409798423067      31.366807216364563                       0
   129   1      30.169097804538456       29.87989310452787                       0
   130   1      32.989785810653842      28.392978992691177                       0
   131   1      35.810473816769225       26.90606488085448                       0
   132   1      38.631161822884607      25.419150769017786                       0
   133   1      41.451849828999997      23.932236657181093                       0
   134   1      44.272537835115379        22.4453225453444                       0
   135   1      47.093225841230769      20.958408433507703                       0
   136   1      49.913913847346151      19.471494321671006                       0
   137   1       27.22577118946154      34.553051741728915                       0
   138   1      30.046459195576919      33.066137629892218                       0
   139   1      32.867147201692298      31.579223518055521                       0
   140   1      35.687835207807687      30.092309406218828                       0
   141   1      38.508523213923077      28.605395294382134                       0
   142   1      41.329211220038452      27.118481182545441                       0
   143   1      44.149899226153842      25.631567070708744                       0
   144   1      46.970587232269231      24.144652958872051                       0
   145   1      49.791275238384614      22.657738847035358                       0
   146   1      32.744508592730767      34.765468043419872                       0
   147   1       35.56519659884615      33.278553931583176                       0
   148   1      38.385884604961532      31.791639819746482                       0
   149   1      41.206572611076922      30.304725707909785                       0
   150   1      44.027260617192304      28.817811596073092                       0
   151   1      46.847948623307687      27.330897484236399                       0
   152   1      49.668636629423077      25.843983372399702                       0
   153   1      52.489324635538466      24.357069260563009                       0
   154   1      38.263245995999995      34.977884345110823                       0
   155   1      41.083934002115384      33.490970233274133                       0
   156   1      43.904622008230767      32.004056121437436                       0
   157   1       46.72531001434615      30.517142009600743                       0
   158   1      49.545998020461539       29.03022789776405                       0
   159   1      52.366686026576922      27.543313785927356                       0
   160   1      43.781983399269222      35.190300646801781                       0
   161   1      46.602671405384612      33.703386534965084                       0
   162   1      49.423359411499987      32.216472423128394                       0
   163   1      52.244047417615377      30.729558311291701                       0
   164   1      55.064735423730767      29.242644199455004                       0
   165   1      49.300720802538457      35.402716948492738                       0
   166   1       52.12140880865384      33.915802836656042                       0
   167   1      54.942096814769222      32.428888724819345                       0
   168   1      54.819458205807678      35.615133250183689                       0
   169   1      57.640146211923067      34.128219138346999                       0
   170   3      2.8206880061153887      1.4869141118366862                     6.5
   171   3      2.9433266150769373      4.6731586372010323                     6.5
   172   3      5.6413760122307774      2.9738282236733724                     6.5
   173   3      8.3394254093846172      1.2744978101457127                     6.5
   174   3      5.7640146211923255      6.1600727490377185                     6.5
   175   3      8.4620640183461653      4.4607423355100586                     6.5
   176   3      11.160113415500005      2.7614119219823983                     6.5
   177   3      13.858162812653845      1.0620815084547388                     6.5
   178   3      5.8866532301538745      9.3463172744020646                     6.5
   179   3      8.5847026273077134      7.6469868608744047                     6.5
   180   3      11.282752024461555      5.9476564473467448                     6.5
   181   3      13.980801421615395      4.2483260338190849                     6.5
   182   3      16.678850818769234      2.5489956202914255                     6.5
   183   3      19.376900215923079     0.84966520676376733                     6.5
   184   3       8.707341236269265      10.833231386238753                     6.5
   185   3      11.405390633423103      9.1339009727110927                     6.5
   186   3      14.103440030576945       7.434570559183431                     6.5
   187   3      16.801489427730786      5.7352401456557711                     6.5
   188   3      19.499538824884624      4.0359097321281112                     6.5
   189   3      22.197588222038465      2.3365793186004513                     6.5
   190   3      24.895637619192307     0.63724890507279208                     6.5
   191   3      8.8299798452308078      14.019475911603097                     6.5
   192   3      11.528029242384651      12.320145498075437                     6.5
   193   3      14.226078639538493      10.620815084547777                     6.5
   194   3      16.924128036692331      8.9214846710201172                     6.5
   195   3      19.622177433846172      7.2221542574924564                     6.5
   196   3       22.32022683100001      5.5228238439647965                     6.5
   197   3      25.018276228153852      3.8234934304371371                     6.5
   198   3       27.71632562530769      2.1241630169094776                     6.5
   199   3      30.414375022461531     0.42483260338181855                     6.5
   200   3      11.650667851346196      15.506390023439783                     6.5
   201   3      14.348717248500041      13.807059609912123                     6.5
   202   3      17.046766645653882      12.107729196384463                     6.5
   203   3       19.74481604280772      10.408398782856803                     6.5
   204   3      22.442865439961562      8.7090683693291435                     6.5
   205   3      25.140914837115403      7.0097379558014845                     6.5
   206   3      27.838964234269245      5.3104075422738264                     6.5
   207   3      30.537013631423086      3.6110771287461669                     6.5
   208   3      33.235063028576924      1.9117467152185077                     6.5
   209   3      35.933112425730762     0.21241630169084555                     6.5
   210   3      11.773306460307749      18.692634548804129                     6.5
   211   3      14.471355857461589      16.993304135276471                     6.5
   212   3      17.169405254615427      15.293973721748809                     6.5
   213   3      19.867454651769268       13.59464330822115                     6.5
   214   3       22.56550404892311       11.89531289469349                     6.5
   215   3      25.263553446076948       10.19598248116583                     6.5
   216   3      27.961602843230789      8.4966520676381698                     6.5
   217   3      30.659652240384634      6.7973216541105081                     6.5
   218   3      33.357701637538469      5.0979912405828509                     6.5
   219   3      36.055751034692314      3.3986608270551932                     6.5
   220   3      38.753800431846159      1.6993304135275347                     6.5
   221   3      14.593994466423137      20.179548660640815                     6.5
   222   3      17.292043863576975      18.480218247113154                     6.5
   223   3       19.99009326073082      16.780887833585496                     6.5
   224   3      22.688142657884661      15.081557420057838                     6.5
   225   3      25.386192055038499      13.382227006530178                     6.5
   226   3      28.084241452192341      11.682896593002518                     6.5
   227   3      30.782290849346179       9.983566179474856                     6.5
   228   3      33.480340246500027      8.2842357659471997                     6.5
   229   3      36.178389643653865      6.5849053524195407                     6.5
   230   3      38.876439040807703      4.8855749388918825                     6.5
   231   3      41.574488437961541      3.1862445253642169                     6.5
   232   3      14.716633075384687      23.365793186005163                     6.5
   233   3       17.41468247253853      21.666462772477505                     6.5
   234   3      20.112731869692368      19.967132358949844                     6.5
   235   3      22.810781266846206      18.267801945422185                     6.5
   236   3      25.508830664000048      16.568471531894524                     6.5
   237   3      28.206880061153889      14.869141118366862                     6.5
   238   3      30.904929458307727      13.169810704839202                     6.5
   239   3      33.602978855461572      11.470480291311542                     6.5
   240   3       36.30102825261541      9.7711498777838823                     6.5
   241   3      38.999077649769248      8.0718194642562224                     6.5
   242   3      41.697127046923086      6.3724890507285643                     6.5
   243   3      17.537321081500075      24.852707297841846                     6.5
   244   3      20.235370478653916      23.153376884314188                     6.5
   245   3      22.933419875807754       21.45404647078653                     6.5
   246   3      25.631469272961596      19.754716057258868                     6.5
   247   3      28.329518670115437       18.05538564373121                     6.5
   248   3      31.027568067269275      16.356055230203548                     6.5
   249   3      33.725617464423117      14.656724816675888                     6.5
   250   3      36.423666861576955      12.957394403148228                     6.5
   251   3        39.1217162587308      11.258063989620567                     6.5
   252   3      41.819765655884638      9.5587335760929086                     6.5
   253   3      44.517815053038476      7.8594031625652505                     6.5
   254   3      17.659959690461616      28.038951823206194                     6.5
   255   3      20.358009087615464      26.339621409678532                     6.5
   256   3      23.056058484769302      24.640290996150874                     6.5
   257   3       25.75410788192314      22.940960582623212                     6.5
   258   3      28.452157279076985      21.241630169095554                     6.5
   259   3      31.150206676230823      19.542299755567893                     6.5
   260   3      33.848256073384661      17.842969342040234                     6.5
   261   3      36.546305470538506      16.143638928512573                     6.5
   262   3      39.244354867692344      14.444308514984913                     6.5
   263   3      41.942404264846182      12.744978101457253                     6.5
   264   3       44.64045366200002      11.045647687929593                     6.5
   265   3      20.480647696577009       29.52586593504288                     6.5
   266   3      23.178697093730854      27.826535521515222                     6.5
   267   3      25.876746490884692      26.127205107987564                     6.5
   268   3      28.574795888038533      24.427874694459902                     6.5
   269   3      31.272845285192375      22.728544280932244                     6.5
   270   3       33.97089468234622      21.029213867404582                     6.5
   271   3      36.668944079500058      19.329883453876924                     6.5
   272   3      39.366993476653896      17.630553040349263                     6.5
   273   3      42.065042873807734      15.931222626821603                     6.5
   274   3      44.763092270961579      14.231892213293943                     6.5
   275   3      47.461141668115417      12.532561799766283                     6.5
   276   3      20.603286305538553      32.712110460407224                     6.5
   277   3      23.301335702692391      31.012780046879566                     6.5
   278   3       25.99938509984624      29.313449633351908                     6.5
   279   3      28.697434497000081      27.614119219824246                     6.5
   280   3      31.395483894153923      25.914788806296588                     6.5
   281   3      34.093533291307764      24.215458392768927                     6.5
   282   3      36.791582688461602      22.516127979241269                     6.5
   283   3       39.48963208561544      20.816797565713607                     6.5
   284   3      42.187681482769278      19.117467152185949                     6.5
   285   3      44.885730879923123      17.418136738658287                     6.5
   286   3      47.583780277076961      15.718806325130627                     6.5
   287   3      20.725924914500116      35.898354985771576                     6.5
   288   3       23.42397431165395      34.199024572243914                     6.5
   289   3      26.122023708807792       32.49969415871626                     6.5
   290   3      28.820073105961633      30.800363745188598                     6.5
   291   3      31.518122503115475      29.101033331660936                     6.5
   292   3      34.216171900269309      27.401702918133278                     6.5
   293   3      36.914221297423154      25.702372504605616                     6.5
   294   3      39.612270694576992      24.003042091077958                     6.5
   295   3      42.310320091730837      22.303711677550297                     6.5
   296   3      45.008369488884675      20.604381264022638                     6.5
   297   3       47.70641888603852      18.905050850494977                     6.5
   298   3      50.404468283192351      17.205720436967315                     6.5
   299   3       26.24466231776934      35.685938684080597                     6.5
   300   3      28.942711714923178      33.986608270552942                     6.5
   301   3      31.640761112077023      32.287277857025281                     6.5
   302   3      34.338810509230854      30.587947443497619                     6.5
   303   3      37.036859906384699      28.888617029969961                     6.5
   304   3      39.734909303538537      27.189286616442299                     6.5
   305   3      42.432958700692382      25.489956202914641                     6.5
   306   3       45.13100809784622      23.790625789386979                     6.5
   307   3      47.829057495000065      22.091295375859318                     6.5
   308   3      50.527106892153896      20.391964962331659                     6.5
   309   3      31.763399721038567      35.473522382389625                     6.5
   310   3      34.461449118192405      33.774191968861963                     6.5
   311   3      37.159498515346243      32.074861555334301                     6.5
   312   3      39.857547912500088      30.375531141806647                     6.5
   313   3      42.555597309653926      28.676200728278985                     6.5
   314   3      45.253646706807771      26.976870314751324                     6.5
   315   3      47.951696103961609      25.277539901223665                     6.5
   316   3      50.649745501115447      23.578209487696004                     6.5
   317   3      53.347794898269285      21.878879074168346                     6.5
   318   3      37.282137124307802      35.261106080698653                     6.5
   319   3       39.98018652146164      33.561775667170991                     6.5
   320   3      42.678235918615478      31.862445253643333                     6.5
   321   3      45.376285315769323      30.163114840115675                     6.5
   322   3      48.074334712923154      28.463784426588013                     6.5
   323   3      50.772384110076999      26.764454013060355                     6.5
   324   3      53.470433507230837      25.065123599532694                     6.5
   325   3      42.800874527577029      35.048689779007681                     6.5
   326   3      45.498923924730867      33.349359365480019                     6.5
   327   3      48.196973321884705      31.650028951952358                     6.5
   328   3      50.895022719038543        29.9506985384247                     6.5
   329   3      53.593072116192388      28.251368124897034                     6.5
   330   3      56.291121513346226      26.552037711369376                     6.5
   331   3      48.319611930846257      34.836273477316709                     6.5
   332   3      51.017661328000095      33.136943063789047                     6.5
   333   3       53.71571072515394      31.437612650261386                     6.5
   334   3      56.413760122307778      29.738282236733724                     6.5
   335   3      53.838349334115485      34.623857175625737                     6.5
   336   3       56.53639873126933      32.924526762098075                     6.5
   337   3      59.234448128423161      31.225196348570414                     6.5
   338   3      59.357086737384705      34.411440873934758                     6.5
   339   2       2.698049397153846      1.6993304135276515      1.5743049286000002
   340   2       2.698049397153846      1.6993304135276515     -1.5743049286000002
   341   2      5.5187374032692302     0.21241630169095654      1.5743049286000002
   342   2      5.5187374032692302     0.21241630169095654     -1.5743049286000002
   343   2      5.3960987943076919      3.3986608270553029      1.5743049286000002
   344   2      5.3960987943076919      3.3986608270553029     -1.5743049286000002
   345   2      8.2167868004230762      1.9117467152186076      1.5743049286000002
   346   2      8.2167868004230762      1.9117467152186076     -1.5743049286000002
   347   2       11.03747480653846      0.4248326033819122      1.5743049286000002
   348   2       11.03747480653846      0.4248326033819122     -1.5743049286000002
   349   2      5.2734601853461527       6.584905352419649      1.5743049286000002
   350   2      5.2734601853461527       6.584905352419649     -1.5743049286000002
   351   2       8.094148191461537      5.0979912405829539      1.5743049286000002
   352   2       8.094148191461537      5.0979912405829539     -1.5743049286000002
   353   2      10.914836197576921      3.6110771287462584      1.5743049286000002
   354   2      10.914836197576921      3.6110771287462584     -1.5743049286000002
   355   2      13.735524203692307      2.1241630169095642      1.5743049286000002
   356   2      13.735524203692307      2.1241630169095642     -1.5743049286000002
   357   2      16.556212209807693     0.63724890507287002      1.5743049286000002
   358   2      16.556212209807693     0.63724890507287002     -1.5743049286000002
   359   2      7.9715095824999977      8.2842357659473009      1.5743049286000002
   360   2      7.9715095824999977      8.2842357659473009     -1.5743049286000002
   361   2      10.792197588615384      6.7973216541106058      1.5743049286000002
   362   2      10.792197588615384      6.7973216541106058     -1.5743049286000002
   363   2       13.61288559473077      5.3104075422739117      1.5743049286000002
   364   2       13.61288559473077      5.3104075422739117     -1.5743049286000002
   365   2      16.433573600846152      3.8234934304372152      1.5743049286000002
   366   2      16.433573600846152      3.8234934304372152     -1.5743049286000002
   367   2      19.254261606961535      2.3365793186005201      1.5743049286000002
   368   2      19.254261606961535      2.3365793186005201     -1.5743049286000002
   369   2      22.074949613076921     0.84966520676382618      1.5743049286000002
   370   2      22.074949613076921     0.84966520676382618     -1.5743049286000002
   371   2      7.8488709735384612      11.470480291311647      1.5743049286000002
   372   2      7.8488709735384612      11.470480291311647     -1.5743049286000002
   373   2      10.669558979653846      9.9835661794749537      1.5743049286000002
   374   2      10.669558979653846      9.9835661794749537     -1.5743049286000002
   375   2      13.490246985769229      8.4966520676382569      1.5743049286000002
   376   2      13.490246985769229      8.4966520676382569     -1.5743049286000002
   377   2      16.310934991884611      7.0097379558015618      1.5743049286000002
   378   2      16.310934991884611      7.0097379558015618     -1.5743049286000002
   379   2      19.131622997999997      5.5228238439648676      1.5743049286000002
   380   2      19.131622997999997      5.5228238439648676     -1.5743049286000002
   381   2      21.952311004115383      4.0359097321281725      1.5743049286000002
   382   2      21.952311004115383      4.0359097321281725     -1.5743049286000002
   383   2      24.772999010230766      2.5489956202914752      1.5743049286000002
   384   2      24.772999010230766      2.5489956202914752     -1.5743049286000002
   385   2      27.593687016346152      1.0620815084547814      1.5743049286000002
   386   2      27.593687016346152      1.0620815084547814     -1.5743049286000002
   387   2      10.546920370692305      13.169810704839298      1.5743049286000002
   388   2      10.546920370692305      13.169810704839298     -1.5743049286000002
   389   2       13.36760837680769      11.682896593002603      1.5743049286000002
   390   2       13.36760837680769      11.682896593002603     -1.5743049286000002
   391   2      16.188296382923074       10.19598248116591      1.5743049286000002
   392   2      16.188296382923074       10.19598248116591     -1.5743049286000002
   393   2       19.00898438903846      8.7090683693292146      1.5743049286000002
   394   2       19.00898438903846      8.7090683693292146     -1.5743049286000002
   395   2      21.829672395153843      7.2221542574925168      1.5743049286000002
   396   2      21.829672395153843      7.2221542574925168     -1.5743049286000002
   397   2      24.650360401269229      5.7352401456558235      1.5743049286000002
   398   2      24.650360401269229      5.7352401456558235     -1.5743049286000002
   399   2      27.471048407384615      4.2483260338191284      1.5743049286000002
   400   2      27.471048407384615      4.2483260338191284     -1.5743049286000002
   401   2      30.291736413499997      2.7614119219824342      1.5743049286000002
   402   2      30.291736413499997      2.7614119219824342     -1.5743049286000002
   403   2      33.112424419615387        1.27449781014574      1.5743049286000002
   404   2      33.112424419615387        1.27449781014574     -1.5743049286000002
   405   2      10.424281761730768      16.356055230203644      1.5743049286000002
   406   2      10.424281761730768      16.356055230203644     -1.5743049286000002
   407   2       13.24496976784615      14.869141118366949      1.5743049286000002
   408   2       13.24496976784615      14.869141118366949     -1.5743049286000002
   409   2      16.065657773961536      13.382227006530254      1.5743049286000002
   410   2      16.065657773961536      13.382227006530254     -1.5743049286000002
   411   2      18.886345780076919      11.895312894693559      1.5743049286000002
   412   2      18.886345780076919      11.895312894693559     -1.5743049286000002
   413   2      21.707033786192305      10.408398782856866      1.5743049286000002
   414   2      21.707033786192305      10.408398782856866     -1.5743049286000002
   415   2      24.527721792307691      8.9214846710201705      1.5743049286000002
   416   2      24.527721792307691      8.9214846710201705     -1.5743049286000002
   417   2       27.34840979842307      7.4345705591834745      1.5743049286000002
   418   2       27.34840979842307      7.4345705591834745     -1.5743049286000002
   419   2       30.16909780453846      5.9476564473467795      1.5743049286000002
   420   2       30.16909780453846      5.9476564473467795     -1.5743049286000002
   421   2      32.989785810653842      4.4607423355100853      1.5743049286000002
   422   2      32.989785810653842      4.4607423355100853     -1.5743049286000002
   423   2      35.810473816769225      2.9738282236733893      1.5743049286000002
   424   2      35.810473816769225      2.9738282236733893     -1.5743049286000002
   425   2      38.631161822884614      1.4869141118366938      1.5743049286000002
   426   2      38.631161822884614      1.4869141118366938     -1.5743049286000002
   427   2      13.122331158884617      18.055385643731299      1.5743049286000002
   428   2      13.122331158884617      18.055385643731299     -1.5743049286000002
   429   2      15.943019164999995      16.568471531894602      1.5743049286000002
   430   2      15.943019164999995      16.568471531894602     -1.5743049286000002
   431   2      18.763707171115385      15.081557420057907      1.5743049286000002
   432   2      18.763707171115385      15.081557420057907     -1.5743049286000002
   433   2      21.584395177230768      13.594643308221212      1.5743049286000002
   434   2      21.584395177230768      13.594643308221212     -1.5743049286000002
   435   2       24.40508318334615      12.107729196384518      1.5743049286000002
   436   2       24.40508318334615      12.107729196384518     -1.5743049286000002
   437   2       27.22577118946154      10.620815084547823      1.5743049286000002
   438   2       27.22577118946154      10.620815084547823     -1.5743049286000002
   439   2      30.046459195576919      9.1339009727111282      1.5743049286000002
   440   2      30.046459195576919      9.1339009727111282     -1.5743049286000002
   441   2      32.867147201692305      7.6469868608744305      1.5743049286000002
   442   2      32.867147201692305      7.6469868608744305     -1.5743049286000002
   443   2      35.687835207807687      6.1600727490377363      1.5743049286000002
   444   2      35.687835207807687      6.1600727490377363     -1.5743049286000002
   445   2       38.50852321392307      4.6731586372010403      1.5743049286000002
   446   2       38.50852321392307      4.6731586372010403     -1.5743049286000002
   447   2      41.329211220038459      3.1862445253643448      1.5743049286000002
   448   2      41.329211220038459      3.1862445253643448     -1.5743049286000002
   449   2      12.999692549923077      21.241630169095643      1.5743049286000002
   450   2      12.999692549923077      21.241630169095643     -1.5743049286000002
   451   2      15.820380556038462       19.75471605725895      1.5743049286000002
   452   2      15.820380556038462       19.75471605725895     -1.5743049286000002
   453   2      18.641068562153844      18.267801945422253      1.5743049286000002
   454   2      18.641068562153844      18.267801945422253     -1.5743049286000002
   455   2       21.46175656826923       16.78088783358556      1.5743049286000002
   456   2       21.46175656826923       16.78088783358556     -1.5743049286000002
   457   2      24.282444574384616      15.293973721748864      1.5743049286000002
   458   2      24.282444574384616      15.293973721748864     -1.5743049286000002
   459   2      27.103132580499999      13.807059609912169      1.5743049286000002
   460   2      27.103132580499999      13.807059609912169     -1.5743049286000002
   461   2      29.923820586615385      12.320145498075476      1.5743049286000002
   462   2      29.923820586615385      12.320145498075476     -1.5743049286000002
   463   2      32.744508592730774      10.833231386238783      1.5743049286000002
   464   2      32.744508592730774      10.833231386238783     -1.5743049286000002
   465   2      35.565196598846157      9.3463172744020842      1.5743049286000002
   466   2      35.565196598846157      9.3463172744020842     -1.5743049286000002
   467   2      38.385884604961539      7.8594031625653873      1.5743049286000002
   468   2      38.385884604961539      7.8594031625653873     -1.5743049286000002
   469   2      41.206572611076915      6.3724890507286949      1.5743049286000002
   470   2      41.206572611076915      6.3724890507286949     -1.5743049286000002
   471   2      44.027260617192304      4.8855749388919953      1.5743049286000002
   472   2      44.027260617192304      4.8855749388919953     -1.5743049286000002
   473   2      15.697741947076922      22.940960582623294      1.5743049286000002
   474   2      15.697741947076922      22.940960582623294     -1.5743049286000002
   475   2      18.518429953192307      21.454046470786601      1.5743049286000002
   476   2      18.518429953192307      21.454046470786601     -1.5743049286000002
   477   2      21.339117959307693      19.967132358949907      1.5743049286000002
   478   2      21.339117959307693      19.967132358949907     -1.5743049286000002
   479   2      24.159805965423075      18.480218247113211      1.5743049286000002
   480   2      24.159805965423075      18.480218247113211     -1.5743049286000002
   481   2      26.980493971538458      16.993304135276514      1.5743049286000002
   482   2      26.980493971538458      16.993304135276514     -1.5743049286000002
   483   2       29.80118197765384       15.50639002343982      1.5743049286000002
   484   2       29.80118197765384       15.50639002343982     -1.5743049286000002
   485   2      32.621869983769223      14.019475911603124      1.5743049286000002
   486   2      32.621869983769223      14.019475911603124     -1.5743049286000002
   487   2      35.442557989884612       12.53256179976643      1.5743049286000002
   488   2      35.442557989884612       12.53256179976643     -1.5743049286000002
   489   2      38.263245995999995      11.045647687929735      1.5743049286000002
   490   2      38.263245995999995      11.045647687929735     -1.5743049286000002
   491   2      41.083934002115384      9.5587335760930383      1.5743049286000002
   492   2      41.083934002115384      9.5587335760930383     -1.5743049286000002
   493   2      43.904622008230767       8.071819464256345      1.5743049286000002
   494   2      43.904622008230767       8.071819464256345     -1.5743049286000002
   495   2       15.57510333811538      26.127205107987642      1.5743049286000002
   496   2       15.57510333811538      26.127205107987642     -1.5743049286000002
   497   2      18.395791344230766      24.640290996150945      1.5743049286000002
   498   2      18.395791344230766      24.640290996150945     -1.5743049286000002
   499   2      21.216479350346152      23.153376884314252      1.5743049286000002
   500   2      21.216479350346152      23.153376884314252     -1.5743049286000002
   501   2      24.037167356461534      21.666462772477555      1.5743049286000002
   502   2      24.037167356461534      21.666462772477555     -1.5743049286000002
   503   2       26.85785536257692      20.179548660640862      1.5743049286000002
   504   2       26.85785536257692      20.179548660640862     -1.5743049286000002
   505   2      29.678543368692303      18.692634548804165      1.5743049286000002
   506   2      29.678543368692303      18.692634548804165     -1.5743049286000002
   507   2      32.499231374807692      17.205720436967471      1.5743049286000002
   508   2      32.499231374807692      17.205720436967471     -1.5743049286000002
   509   2      35.319919380923068      15.718806325130778      1.5743049286000002
   510   2      35.319919380923068      15.718806325130778     -1.5743049286000002
   511   2      38.140607387038457      14.231892213294081      1.5743049286000002
   512   2      38.140607387038457      14.231892213294081     -1.5743049286000002
   513   2       40.96129539315384      12.744978101457383      1.5743049286000002
   514   2       40.96129539315384      12.744978101457383     -1.5743049286000002
   515   2       43.78198339926923      11.258063989620689      1.5743049286000002
   516   2       43.78198339926923      11.258063989620689     -1.5743049286000002
   517   2      46.602671405384605      9.7711498777839925      1.5743049286000002
   518   2      46.602671405384605      9.7711498777839925     -1.5743049286000002
   519   2      18.273152735269228      27.826535521515297      1.5743049286000002
   520   2      18.273152735269228      27.826535521515297     -1.5743049286000002
   521   2      21.093840741384611      26.339621409678596      1.5743049286000002
   522   2      21.093840741384611      26.339621409678596     -1.5743049286000002
   523   2      23.914528747499997      24.852707297841903      1.5743049286000002
   524   2      23.914528747499997      24.852707297841903     -1.5743049286000002
   525   2      26.735216753615379      23.365793186005206      1.5743049286000002
   526   2      26.735216753615379      23.365793186005206     -1.5743049286000002
   527   2      29.555904759730769      21.878879074168513      1.5743049286000002
   528   2      29.555904759730769      21.878879074168513     -1.5743049286000002
   529   2      32.376592765846148      20.391964962331819      1.5743049286000002
   530   2      32.376592765846148      20.391964962331819     -1.5743049286000002
   531   2      35.197280771961537      18.905050850495122      1.5743049286000002
   532   2      35.197280771961537      18.905050850495122     -1.5743049286000002
   533   2       38.01796877807692      17.418136738658429      1.5743049286000002
   534   2       38.01796877807692      17.418136738658429     -1.5743049286000002
   535   2      40.838656784192302      15.931222626821736      1.5743049286000002
   536   2      40.838656784192302      15.931222626821736     -1.5743049286000002
   537   2      43.659344790307685      14.444308514985034      1.5743049286000002
   538   2      43.659344790307685      14.444308514985034     -1.5743049286000002
   539   2      46.480032796423075       12.95739440314834      1.5743049286000002
   540   2      46.480032796423075       12.95739440314834     -1.5743049286000002
   541   2      18.150514126307694      31.012780046879641      1.5743049286000002
   542   2      18.150514126307694      31.012780046879641     -1.5743049286000002
   543   2       20.97120213242308      29.525865935042951      1.5743049286000002
   544   2       20.97120213242308      29.525865935042951     -1.5743049286000002
   545   2      23.791890138538463      28.038951823206251      1.5743049286000002
   546   2      23.791890138538463      28.038951823206251     -1.5743049286000002
   547   2      26.612578144653845      26.552037711369554      1.5743049286000002
   548   2      26.612578144653845      26.552037711369554     -1.5743049286000002
   549   2      29.433266150769224      25.065123599532861      1.5743049286000002
   550   2      29.433266150769224      25.065123599532861     -1.5743049286000002
   551   2       32.25395415688461      23.578209487696164      1.5743049286000002
   552   2       32.25395415688461      23.578209487696164     -1.5743049286000002
   553   2            35.074642163       22.09129537585947      1.5743049286000002
   554   2            35.074642163       22.09129537585947     -1.5743049286000002
   555   2      37.895330169115383      20.604381264022777      1.5743049286000002
   556   2      37.895330169115383      20.604381264022777     -1.5743049286000002
   557   2      40.716018175230765       19.11746715218608      1.5743049286000002
   558   2      40.716018175230765       19.11746715218608     -1.5743049286000002
   559   2      43.536706181346155      17.630553040349387      1.5743049286000002
   560   2      43.536706181346155      17.630553040349387     -1.5743049286000002
   561   2      46.357394187461537       16.14363892851269      1.5743049286000002
   562   2      46.357394187461537       16.14363892851269     -1.5743049286000002
   563   2       49.17808219357692      14.656724816675995      1.5743049286000002
   564   2       49.17808219357692      14.656724816675995     -1.5743049286000002
   565   2      20.848563523461536      32.712110460407288      1.5743049286000002
   566   2      20.848563523461536      32.712110460407288     -1.5743049286000002
   567   2      23.669251529576922      31.225196348570599      1.5743049286000002
   568   2      23.669251529576922      31.225196348570599     -1.5743049286000002
   569   2      26.489939535692301      29.738282236733898      1.5743049286000002
   570   2      26.489939535692301      29.738282236733898     -1.5743049286000002
   571   2      29.310627541807683      28.251368124897201      1.5743049286000002
   572   2      29.310627541807683      28.251368124897201     -1.5743049286000002
   573   2      32.131315547923073      26.764454013060508      1.5743049286000002
   574   2      32.131315547923073      26.764454013060508     -1.5743049286000002
   575   2      34.952003554038455      25.277539901223815      1.5743049286000002
   576   2      34.952003554038455      25.277539901223815     -1.5743049286000002
   577   2      37.772691560153838      23.790625789387118      1.5743049286000002
   578   2      37.772691560153838      23.790625789387118     -1.5743049286000002
   579   2      40.593379566269228      22.303711677550424      1.5743049286000002
   580   2      40.593379566269228      22.303711677550424     -1.5743049286000002
   581   2       43.41406757238461      20.816797565713731      1.5743049286000002
   582   2       43.41406757238461      20.816797565713731     -1.5743049286000002
   583   2      46.234755578499993      19.329883453877038      1.5743049286000002
   584   2      46.234755578499993      19.329883453877038     -1.5743049286000002
   585   2      49.055443584615382      17.842969342040341      1.5743049286000002
   586   2      49.055443584615382      17.842969342040341     -1.5743049286000002
   587   2      20.725924914499998       35.89835498577164      1.5743049286000002
   588   2      20.725924914499998       35.89835498577164     -1.5743049286000002
   589   2      23.546612920615381      34.411440873934943      1.5743049286000002
   590   2      23.546612920615381      34.411440873934943     -1.5743049286000002
   591   2      26.367300926730767      32.924526762098246      1.5743049286000002
   592   2      26.367300926730767      32.924526762098246     -1.5743049286000002
   593   2      29.187988932846146      31.437612650261549      1.5743049286000002
   594   2      29.187988932846146      31.437612650261549     -1.5743049286000002
   595   2      32.008676938961536      29.950698538424856      1.5743049286000002
   596   2      32.008676938961536      29.950698538424856     -1.5743049286000002
   597   2      34.829364945076918      28.463784426588159      1.5743049286000002
   598   2      34.829364945076918      28.463784426588159     -1.5743049286000002
   599   2      37.650052951192301      26.976870314751466      1.5743049286000002
   600   2      37.650052951192301      26.976870314751466     -1.5743049286000002
   601   2       40.47074095730769      25.489956202914772      1.5743049286000002
   602   2       40.47074095730769      25.489956202914772     -1.5743049286000002
   603   2      43.291428963423073      24.003042091078079      1.5743049286000002
   604   2      43.291428963423073      24.003042091078079     -1.5743049286000002
   605   2      46.112116969538455      22.516127979241382      1.5743049286000002
   606   2      46.112116969538455      22.516127979241382     -1.5743049286000002
   607   2      48.932804975653845      21.029213867404689      1.5743049286000002
   608   2      48.932804975653845      21.029213867404689     -1.5743049286000002
   609   2      51.753492981769227      19.542299755567996      1.5743049286000002
   610   2      51.753492981769227      19.542299755567996     -1.5743049286000002
   611   2      29.065350323884612      34.623857175625901      1.5743049286000002
   612   2      29.065350323884612      34.623857175625901     -1.5743049286000002
   613   2      31.886038329999991      33.136943063789204      1.5743049286000002
   614   2      31.886038329999991      33.136943063789204     -1.5743049286000002
   615   2      34.706726336115381      31.650028951952507      1.5743049286000002
   616   2      34.706726336115381      31.650028951952507     -1.5743049286000002
   617   2       37.52741434223077      30.163114840115814      1.5743049286000002
   618   2       37.52741434223077      30.163114840115814     -1.5743049286000002
   619   2      40.348102348346146       28.67620072827912      1.5743049286000002
   620   2      40.348102348346146       28.67620072827912     -1.5743049286000002
   621   2      43.168790354461535      27.189286616442423      1.5743049286000002
   622   2      43.168790354461535      27.189286616442423     -1.5743049286000002
   623   2      45.989478360576925       25.70237250460573      1.5743049286000002
   624   2      45.989478360576925       25.70237250460573     -1.5743049286000002
   625   2        48.8101663666923      24.215458392769037      1.5743049286000002
   626   2        48.8101663666923      24.215458392769037     -1.5743049286000002
   627   2       51.63085437280769       22.72854428093234      1.5743049286000002
   628   2       51.63085437280769       22.72854428093234     -1.5743049286000002
   629   2      34.584087727153843      34.836273477316858      1.5743049286000002
   630   2      34.584087727153843      34.836273477316858     -1.5743049286000002
   631   2      37.404775733269226      33.349359365480161      1.5743049286000002
   632   2      37.404775733269226      33.349359365480161     -1.5743049286000002
   633   2      40.225463739384615      31.862445253643465      1.5743049286000002
   634   2      40.225463739384615      31.862445253643465     -1.5743049286000002
   635   2      43.046151745499998      30.375531141806771      1.5743049286000002
   636   2      43.046151745499998      30.375531141806771     -1.5743049286000002
   637   2       45.86683975161538      28.888617029970078      1.5743049286000002
   638   2       45.86683975161538      28.888617029970078     -1.5743049286000002
   639   2       48.68752775773077      27.401702918133381      1.5743049286000002
   640   2       48.68752775773077      27.401702918133381     -1.5743049286000002
   641   2      51.508215763846152      25.914788806296688      1.5743049286000002
   642   2      51.508215763846152      25.914788806296688     -1.5743049286000002
   643   2      54.328903769961535      24.427874694459994      1.5743049286000002
   644   2      54.328903769961535      24.427874694459994     -1.5743049286000002
   645   2      40.102825130423078      35.048689779007816      1.5743049286000002
   646   2      40.102825130423078      35.048689779007816     -1.5743049286000002
   647   2       42.92351313653846      33.561775667171119      1.5743049286000002
   648   2       42.92351313653846      33.561775667171119     -1.5743049286000002
   649   2      45.744201142653843      32.074861555334422      1.5743049286000002
   650   2      45.744201142653843      32.074861555334422     -1.5743049286000002
   651   2      48.564889148769232      30.587947443497729      1.5743049286000002
   652   2      48.564889148769232      30.587947443497729     -1.5743049286000002
   653   2      51.385577154884615      29.101033331661036      1.5743049286000002
   654   2      51.385577154884615      29.101033331661036     -1.5743049286000002
   655   2      54.206265160999997      27.614119219824339      1.5743049286000002
   656   2      54.206265160999997      27.614119219824339     -1.5743049286000002
   657   2      45.621562533692305      35.261106080698767      1.5743049286000002
   658   2      45.621562533692305      35.261106080698767     -1.5743049286000002
   659   2      48.442250539807681      33.774191968862077      1.5743049286000002
   660   2      48.442250539807681      33.774191968862077     -1.5743049286000002
   661   2       51.26293854592307       32.28727785702538      1.5743049286000002
   662   2       51.26293854592307       32.28727785702538     -1.5743049286000002
   663   2       54.08362655203846      30.800363745188683      1.5743049286000002
   664   2       54.08362655203846      30.800363745188683     -1.5743049286000002
   665   2      56.904314558153835      29.313449633351986      1.5743049286000002
   666   2      56.904314558153835      29.313449633351986     -1.5743049286000002
   667   2      51.140299936961533      35.473522382389724      1.5743049286000002
   668   2      51.140299936961533      35.473522382389724     -1.5743049286000002
   669   2      53.960987943076915      33.986608270553027      1.5743049286000002
   670   2      53.960987943076915      33.986608270553027     -1.5743049286000002
   671   2      56.781675949192298      32.499694158716331      1.5743049286000002
   672   2      56.781675949192298      32.499694158716331     -1.5743049286000002
   673   2      56.659037340230761      35.685938684080682      1.5743049286000002
   674   2      56.659037340230761      35.685938684080682     -1.5743049286000002
   675   2       59.47972534634615      34.199024572243985      1.5743049286000002
   676   2       59.47972534634615      34.199024572243985     -1.5743049286000002
   677   2       4.596407983209378      1.5174987075436663      8.0743049286000002
   678   2       4.596407983209378      1.5174987075436663      4.9256950713999998
   679   2      4.7190465921709261      4.7037432329080122      8.0743049286000002
   680   2      4.7190465921709261      4.7037432329080122      4.9256950713999998
   681   2      7.4170959893247668      3.0044128193803528      8.0743049286000002
   682   2      7.4170959893247668      3.0044128193803528      4.9256950713999998
   683   2      10.115145386478607      1.3050824058526924      8.0743049286000002
   684   2      10.115145386478607      1.3050824058526924      4.9256950713999998
   685   2      7.5397345982863149      6.1906573447446984      8.0743049286000002
   686   2      7.5397345982863149      6.1906573447446984      4.9256950713999998
   687   2      10.237783995440155      4.4913269312170385      8.0743049286000002
   688   2      10.237783995440155      4.4913269312170385      4.9256950713999998
   689   2      12.935833392593995      2.7919965176893782      8.0743049286000002
   690   2      12.935833392593995      2.7919965176893782      4.9256950713999998
   691   2      15.633882789747835      1.0926661041617189      8.0743049286000002
   692   2      15.633882789747835      1.0926661041617189      4.9256950713999998
   693   2      7.6623732072478639      9.3769018701090445      8.0743049286000002
   694   2      7.6623732072478639      9.3769018701090445      4.9256950713999998
   695   2      10.360422604401705      7.6775714565813846      8.0743049286000002
   696   2      10.360422604401705      7.6775714565813846      4.9256950713999998
   697   2      13.058472001555545      5.9782410430537247      8.0743049286000002
   698   2      13.058472001555545      5.9782410430537247      4.9256950713999998
   699   2      15.756521398709385      4.2789106295260648      8.0743049286000002
   700   2      15.756521398709385      4.2789106295260648      4.9256950713999998
   701   2      18.454570795863223      2.5795802159984045      8.0743049286000002
   702   2      18.454570795863223      2.5795802159984045      4.9256950713999998
   703   2      21.152620193017068     0.88024980247074647      8.0743049286000002
   704   2      21.152620193017068     0.88024980247074647      4.9256950713999998
   705   2      10.483061213363253      10.863815981945733      8.0743049286000002
   706   2      10.483061213363253      10.863815981945733      4.9256950713999998
   707   2      13.181110610517093      9.1644855684180726      8.0743049286000002
   708   2      13.181110610517093      9.1644855684180726      4.9256950713999998
   709   2      15.879160007670935      7.4651551548904118      8.0743049286000002
   710   2      15.879160007670935      7.4651551548904118      4.9256950713999998
   711   2      18.577209404824774      5.7658247413627519      8.0743049286000002
   712   2      18.577209404824774      5.7658247413627519      4.9256950713999998
   713   2      21.275258801978616       4.066494327835092      8.0743049286000002
   714   2      21.275258801978616       4.066494327835092      4.9256950713999998
   715   2      23.973308199132454      2.3671639143074321      8.0743049286000002
   716   2      23.973308199132454      2.3671639143074321      4.9256950713999998
   717   2      26.671357596286295     0.66783350077977299      8.0743049286000002
   718   2      26.671357596286295     0.66783350077977299      4.9256950713999998
   719   2      10.605699822324796      14.050060507310075      8.0743049286000002
   720   2      10.605699822324796      14.050060507310075      4.9256950713999998
   721   2       13.30374921947864      12.350730093782417      8.0743049286000002
   722   2       13.30374921947864      12.350730093782417      4.9256950713999998
   723   2      16.001798616632477      10.651399680254757      8.0743049286000002
   724   2      16.001798616632477      10.651399680254757      4.9256950713999998
   725   2      18.699848013786319      8.9520692667270971      8.0743049286000002
   726   2      18.699848013786319      8.9520692667270971      4.9256950713999998
   727   2      21.397897410940161      7.2527388531994381      8.0743049286000002
   728   2      21.397897410940161      7.2527388531994381      4.9256950713999998
   729   2      24.095946808093998      5.5534084396717764      8.0743049286000002
   730   2      24.095946808093998      5.5534084396717764      4.9256950713999998
   731   2       26.79399620524784      3.8540780261441161      8.0743049286000002
   732   2       26.79399620524784      3.8540780261441161      4.9256950713999998
   733   2      29.492045602401681      2.1547476126164566      8.0743049286000002
   734   2      29.492045602401681      2.1547476126164566      4.9256950713999998
   735   2      32.190094999555519     0.45541719908879913      8.0743049286000002
   736   2      32.190094999555519     0.45541719908879913      4.9256950713999998
   737   2      13.426387828440188      15.536974619146761      8.0743049286000002
   738   2      13.426387828440188      15.536974619146761      4.9256950713999998
   739   2      16.124437225594029      13.837644205619103      8.0743049286000002
   740   2      16.124437225594029      13.837644205619103      4.9256950713999998
   741   2      18.822486622747871      12.138313792091443      8.0743049286000002
   742   2      18.822486622747871      12.138313792091443      4.9256950713999998
   743   2      21.520536019901709      10.438983378563783      8.0743049286000002
   744   2      21.520536019901709      10.438983378563783      4.9256950713999998
   745   2       24.21858541705555      8.7396529650361234      8.0743049286000002
   746   2       24.21858541705555      8.7396529650361234      4.9256950713999998
   747   2      26.916634814209392      7.0403225515084644      8.0743049286000002
   748   2      26.916634814209392      7.0403225515084644      4.9256950713999998
   749   2      29.614684211363233      5.3409921379808054      8.0743049286000002
   750   2      29.614684211363233      5.3409921379808054      4.9256950713999998
   751   2      32.312733608517071       3.641661724453146      8.0743049286000002
   752   2      32.312733608517071       3.641661724453146      4.9256950713999998
   753   2      35.010783005670909      1.9423313109254901      8.0743049286000002
   754   2      35.010783005670909      1.9423313109254901      4.9256950713999998
   755   2      37.708832402824747     0.24300089739782438      8.0743049286000002
   756   2      37.708832402824747     0.24300089739782438      4.9256950713999998
   757   2      13.549026437401738      18.723219144511109      8.0743049286000002
   758   2      13.549026437401738      18.723219144511109      4.9256950713999998
   759   2      16.247075834555577      17.023888730983451      8.0743049286000002
   760   2      16.247075834555577      17.023888730983451      4.9256950713999998
   761   2      18.945125231709419      15.324558317455791      8.0743049286000002
   762   2      18.945125231709419      15.324558317455791      4.9256950713999998
   763   2       21.64317462886326      13.625227903928131      8.0743049286000002
   764   2       21.64317462886326      13.625227903928131      4.9256950713999998
   765   2      24.341224026017102      11.925897490400471      8.0743049286000002
   766   2      24.341224026017102      11.925897490400471      4.9256950713999998
   767   2      27.039273423170936      10.226567076872811      8.0743049286000002
   768   2      27.039273423170936      10.226567076872811      4.9256950713999998
   769   2      29.737322820324778      8.5272366633451515      8.0743049286000002
   770   2      29.737322820324778      8.5272366633451515      4.9256950713999998
   771   2      32.435372217478623      6.8279062498174872      8.0743049286000002
   772   2      32.435372217478623      6.8279062498174872      4.9256950713999998
   773   2      35.133421614632461      5.1285758362898282      8.0743049286000002
   774   2      35.133421614632461      5.1285758362898282      4.9256950713999998
   775   2      37.831471011786292      3.4292454227621723      8.0743049286000002
   776   2      37.831471011786292      3.4292454227621723      4.9256950713999998
   777   2      40.529520408940144      1.7299150092345137      8.0743049286000002
   778   2      40.529520408940144      1.7299150092345137      4.9256950713999998
   779   2      16.369714443517125      20.210133256347795      8.0743049286000002
   780   2      16.369714443517125      20.210133256347795      4.9256950713999998
   781   2      19.067763840670963      18.510802842820137      8.0743049286000002
   782   2      19.067763840670963      18.510802842820137      4.9256950713999998
   783   2      21.765813237824808      16.811472429292479      8.0743049286000002
   784   2      21.765813237824808      16.811472429292479      4.9256950713999998
   785   2       24.46386263497865      15.112142015764817      8.0743049286000002
   786   2       24.46386263497865      15.112142015764817      4.9256950713999998
   787   2      27.161912032132488      13.412811602237158      8.0743049286000002
   788   2      27.161912032132488      13.412811602237158      4.9256950713999998
   789   2      29.859961429286329      11.713481188709498      8.0743049286000002
   790   2      29.859961429286329      11.713481188709498      4.9256950713999998
   791   2      32.558010826440174      10.014150775181838      8.0743049286000002
   792   2      32.558010826440174      10.014150775181838      4.9256950713999998
   793   2      35.256060223594012       8.314820361654176      8.0743049286000002
   794   2      35.256060223594012       8.314820361654176      4.9256950713999998
   795   2       37.95410962074785      6.6154899481265179      8.0743049286000002
   796   2       37.95410962074785      6.6154899481265179      4.9256950713999998
   797   2      40.652159017901688      4.9161595345988616      8.0743049286000002
   798   2      40.652159017901688      4.9161595345988616      4.9256950713999998
   799   2      43.350208415055526      3.2168291210711994      8.0743049286000002
   800   2      43.350208415055526      3.2168291210711994      4.9256950713999998
   801   2      16.492353052478677      23.396377781712143      8.0743049286000002
   802   2      16.492353052478677      23.396377781712143      4.9256950713999998
   803   2      19.190402449632519      21.697047368184482      8.0743049286000002
   804   2      19.190402449632519      21.697047368184482      4.9256950713999998
   805   2       21.88845184678636      19.997716954656823      8.0743049286000002
   806   2       21.88845184678636      19.997716954656823      4.9256950713999998
   807   2      24.586501243940198      18.298386541129162      8.0743049286000002
   808   2      24.586501243940198      18.298386541129162      4.9256950713999998
   809   2      27.284550641094039      16.599056127601504      8.0743049286000002
   810   2      27.284550641094039      16.599056127601504      4.9256950713999998
   811   2      29.982600038247877      14.899725714073844      8.0743049286000002
   812   2      29.982600038247877      14.899725714073844      4.9256950713999998
   813   2      32.680649435401712      13.200395300546184      8.0743049286000002
   814   2      32.680649435401712      13.200395300546184      4.9256950713999998
   815   2      35.378698832555557      11.501064887018524      8.0743049286000002
   816   2      35.378698832555557      11.501064887018524      4.9256950713999998
   817   2      38.076748229709395      9.8017344734908622      8.0743049286000002
   818   2      38.076748229709395      9.8017344734908622      4.9256950713999998
   819   2      40.774797626863233      8.1024040599632041      8.0743049286000002
   820   2      40.774797626863233      8.1024040599632041      4.9256950713999998
   821   2      43.472847024017071      6.4030736464355469      8.0743049286000002
   822   2      43.472847024017071      6.4030736464355469      4.9256950713999998
   823   2      19.313041058594063      24.883291893548829      8.0743049286000002
   824   2      19.313041058594063      24.883291893548829      4.9256950713999998
   825   2      22.011090455747905      23.183961480021168      8.0743049286000002
   826   2      22.011090455747905      23.183961480021168      4.9256950713999998
   827   2      24.709139852901739      21.484631066493506      8.0743049286000002
   828   2      24.709139852901739      21.484631066493506      4.9256950713999998
   829   2       27.40718925005558      19.785300652965844      8.0743049286000002
   830   2       27.40718925005558      19.785300652965844      4.9256950713999998
   831   2      30.105238647209422      18.085970239438186      8.0743049286000002
   832   2      30.105238647209422      18.085970239438186      4.9256950713999998
   833   2      32.803288044363264      16.386639825910525      8.0743049286000002
   834   2      32.803288044363264      16.386639825910525      4.9256950713999998
   835   2      35.501337441517109      14.687309412382866      8.0743049286000002
   836   2      35.501337441517109      14.687309412382866      4.9256950713999998
   837   2      38.199386838670939      12.987978998855205      8.0743049286000002
   838   2      38.199386838670939      12.987978998855205      4.9256950713999998
   839   2      40.897436235824784      11.288648585327545      8.0743049286000002
   840   2      40.897436235824784      11.288648585327545      4.9256950713999998
   841   2      43.595485632978622       9.589318171799885      8.0743049286000002
   842   2      43.595485632978622       9.589318171799885      4.9256950713999998
   843   2       46.29353503013246      7.8899877582722295      8.0743049286000002
   844   2       46.29353503013246      7.8899877582722295      4.9256950713999998
   845   2      19.435679667555608      28.069536418913174      8.0743049286000002
   846   2      19.435679667555608      28.069536418913174      4.9256950713999998
   847   2      22.133729064709449      26.370206005385509      8.0743049286000002
   848   2      22.133729064709449      26.370206005385509      4.9256950713999998
   849   2      24.831778461863287       24.67087559185785      8.0743049286000002
   850   2      24.831778461863287       24.67087559185785      4.9256950713999998
   851   2      27.529827859017129      22.971545178330192      8.0743049286000002
   852   2      27.529827859017129      22.971545178330192      4.9256950713999998
   853   2       30.22787725617097      21.272214764802531      8.0743049286000002
   854   2       30.22787725617097      21.272214764802531      4.9256950713999998
   855   2      32.925926653324808      19.572884351274872      8.0743049286000002
   856   2      32.925926653324808      19.572884351274872      4.9256950713999998
   857   2      35.623976050478646      17.873553937747211      8.0743049286000002
   858   2      35.623976050478646      17.873553937747211      4.9256950713999998
   859   2      38.322025447632484      16.174223524219549      8.0743049286000002
   860   2      38.322025447632484      16.174223524219549      4.9256950713999998
   861   2      41.020074844786329      14.474893110691891      8.0743049286000002
   862   2      41.020074844786329      14.474893110691891      4.9256950713999998
   863   2      43.718124241940167      12.775562697164231      8.0743049286000002
   864   2      43.718124241940167      12.775562697164231      4.9256950713999998
   865   2      46.416173639094012      11.076232283636571      8.0743049286000002
   866   2      46.416173639094012      11.076232283636571      4.9256950713999998
   867   2      22.256367673670994      29.556450530749856      8.0743049286000002
   868   2      22.256367673670994      29.556450530749856      4.9256950713999998
   869   2      24.954417070824839      27.857120117222198      8.0743049286000002
   870   2      24.954417070824839      27.857120117222198      4.9256950713999998
   871   2       27.65246646797868       26.15778970369454      8.0743049286000002
   872   2       27.65246646797868       26.15778970369454      4.9256950713999998
   873   2      30.350515865132522      24.458459290166882      8.0743049286000002
   874   2      30.350515865132522      24.458459290166882      4.9256950713999998
   875   2       33.04856526228636       22.75912887663922      8.0743049286000002
   876   2       33.04856526228636       22.75912887663922      4.9256950713999998
   877   2      35.746614659440198      21.059798463111559      8.0743049286000002
   878   2      35.746614659440198      21.059798463111559      4.9256950713999998
   879   2      38.444664056594043      19.360468049583901      8.0743049286000002
   880   2      38.444664056594043      19.360468049583901      4.9256950713999998
   881   2      41.142713453747881      17.661137636056239      8.0743049286000002
   882   2      41.142713453747881      17.661137636056239      4.9256950713999998
   883   2      43.840762850901726      15.961807222528581      8.0743049286000002
   884   2      43.840762850901726      15.961807222528581      4.9256950713999998
   885   2      46.538812248055564      14.262476809000919      8.0743049286000002
   886   2      46.538812248055564      14.262476809000919      4.9256950713999998
   887   2      49.236861645209402      12.563146395473261      8.0743049286000002
   888   2      49.236861645209402      12.563146395473261      4.9256950713999998
   889   2      22.379006282632542      32.742695056114201      8.0743049286000002
   890   2      22.379006282632542      32.742695056114201      4.9256950713999998
   891   2       25.07705567978638      31.043364642586543      8.0743049286000002
   892   2       25.07705567978638      31.043364642586543      4.9256950713999998
   893   2      27.775105076940228      29.344034229058884      8.0743049286000002
   894   2      27.775105076940228      29.344034229058884      4.9256950713999998
   895   2       30.47315447409407      27.644703815531226      8.0743049286000002
   896   2       30.47315447409407      27.644703815531226      4.9256950713999998
   897   2      33.171203871247904      25.945373402003565      8.0743049286000002
   898   2      33.171203871247904      25.945373402003565      4.9256950713999998
   899   2      35.869253268401742      24.246042988475907      8.0743049286000002
   900   2      35.869253268401742      24.246042988475907      4.9256950713999998
   901   2      38.567302665555587      22.546712574948245      8.0743049286000002
   902   2      38.567302665555587      22.546712574948245      4.9256950713999998
   903   2      41.265352062709425      20.847382161420587      8.0743049286000002
   904   2      41.265352062709425      20.847382161420587      4.9256950713999998
   905   2       43.96340145986327      19.148051747892925      8.0743049286000002
   906   2       43.96340145986327      19.148051747892925      4.9256950713999998
   907   2      46.661450857017108      17.448721334365267      8.0743049286000002
   908   2      46.661450857017108      17.448721334365267      4.9256950713999998
   909   2      49.359500254170946      15.749390920837605      8.0743049286000002
   910   2      49.359500254170946      15.749390920837605      4.9256950713999998
   911   2      22.501644891594101      35.928939581478552      8.0743049286000002
   912   2      22.501644891594101      35.928939581478552      4.9256950713999998
   913   2      25.199694288747942       34.22960916795089      8.0743049286000002
   914   2      25.199694288747942       34.22960916795089      4.9256950713999998
   915   2       27.89774368590178      32.530278754423236      8.0743049286000002
   916   2       27.89774368590178      32.530278754423236      4.9256950713999998
   917   2      30.595793083055618      30.830948340895574      8.0743049286000002
   918   2      30.595793083055618      30.830948340895574      4.9256950713999998
   919   2      33.293842480209456      29.131617927367916      8.0743049286000002
   920   2      33.293842480209456      29.131617927367916      4.9256950713999998
   921   2      35.991891877363301      27.432287513840254      8.0743049286000002
   922   2      35.991891877363301      27.432287513840254      4.9256950713999998
   923   2      38.689941274517139      25.732957100312593      8.0743049286000002
   924   2      38.689941274517139      25.732957100312593      4.9256950713999998
   925   2      41.387990671670984      24.033626686784935      8.0743049286000002
   926   2      41.387990671670984      24.033626686784935      4.9256950713999998
   927   2      44.086040068824822      22.334296273257277      8.0743049286000002
   928   2      44.086040068824822      22.334296273257277      4.9256950713999998
   929   2       46.78408946597866      20.634965859729615      8.0743049286000002
   930   2       46.78408946597866      20.634965859729615      4.9256950713999998
   931   2      49.482138863132498      18.935635446201957      8.0743049286000002
   932   2      49.482138863132498      18.935635446201957      4.9256950713999998
   933   2      52.180188260286343      17.236305032674295      8.0743049286000002
   934   2      52.180188260286343      17.236305032674295      4.9256950713999998
   935   2      28.020382294863328       35.71652327978758      8.0743049286000002
   936   2      28.020382294863328       35.71652327978758      4.9256950713999998
   937   2      30.718431692017163      34.017192866259919      8.0743049286000002
   938   2      30.718431692017163      34.017192866259919      4.9256950713999998
   939   2      33.416481089171008      32.317862452732257      8.0743049286000002
   940   2      33.416481089171008      32.317862452732257      4.9256950713999998
   941   2      36.114530486324846      30.618532039204599      8.0743049286000002
   942   2      36.114530486324846      30.618532039204599      4.9256950713999998
   943   2      38.812579883478683      28.919201625676941      8.0743049286000002
   944   2      38.812579883478683      28.919201625676941      4.9256950713999998
   945   2      41.510629280632529      27.219871212149279      8.0743049286000002
   946   2      41.510629280632529      27.219871212149279      4.9256950713999998
   947   2      44.208678677786367      25.520540798621621      8.0743049286000002
   948   2      44.208678677786367      25.520540798621621      4.9256950713999998
   949   2      46.906728074940204      23.821210385093959      8.0743049286000002
   950   2      46.906728074940204      23.821210385093959      4.9256950713999998
   951   2      49.604777472094042      22.121879971566301      8.0743049286000002
   952   2      49.604777472094042      22.121879971566301      4.9256950713999998
   953   2      52.302826869247887      20.422549558038639      8.0743049286000002
   954   2      52.302826869247887      20.422549558038639      4.9256950713999998
   955   2      33.539119698132552      35.504106978096601      8.0743049286000002
   956   2      33.539119698132552      35.504106978096601      4.9256950713999998
   957   2       36.23716909528639       33.80477656456894      8.0743049286000002
   958   2       36.23716909528639       33.80477656456894      4.9256950713999998
   959   2      38.935218492440235      32.105446151041285      8.0743049286000002
   960   2      38.935218492440235      32.105446151041285      4.9256950713999998
   961   2      41.633267889594073      30.406115737513623      8.0743049286000002
   962   2      41.633267889594073      30.406115737513623      4.9256950713999998
   963   2      44.331317286747911      28.706785323985962      8.0743049286000002
   964   2      44.331317286747911      28.706785323985962      4.9256950713999998
   965   2      47.029366683901749      27.007454910458303      8.0743049286000002
   966   2      47.029366683901749      27.007454910458303      4.9256950713999998
   967   2      49.727416081055594      25.308124496930642      8.0743049286000002
   968   2      49.727416081055594      25.308124496930642      4.9256950713999998
   969   2      52.425465478209432      23.608794083402984      8.0743049286000002
   970   2      52.425465478209432      23.608794083402984      4.9256950713999998
   971   2      55.123514875363277      21.909463669875322      8.0743049286000002
   972   2      55.123514875363277      21.909463669875322      4.9256950713999998
   973   2      39.057857101401787      35.291690676405629      8.0743049286000002
   974   2      39.057857101401787      35.291690676405629      4.9256950713999998
   975   2      41.755906498555625      33.592360262877968      8.0743049286000002
   976   2      41.755906498555625      33.592360262877968      4.9256950713999998
   977   2      44.453955895709463      31.893029849350313      8.0743049286000002
   978   2      44.453955895709463      31.893029849350313      4.9256950713999998
   979   2      47.152005292863308      30.193699435822651      8.0743049286000002
   980   2      47.152005292863308      30.193699435822651      4.9256950713999998
   981   2      49.850054690017146       28.49436902229499      8.0743049286000002
   982   2      49.850054690017146       28.49436902229499      4.9256950713999998
   983   2      52.548104087170991      26.795038608767332      8.0743049286000002
   984   2      52.548104087170991      26.795038608767332      4.9256950713999998
   985   2      55.246153484324829      25.095708195239673      8.0743049286000002
   986   2      55.246153484324829      25.095708195239673      4.9256950713999998
   987   2      44.576594504671007      35.079274374714657      8.0743049286000002
   988   2      44.576594504671007      35.079274374714657      4.9256950713999998
   989   2      47.274643901824852      33.379943961186996      8.0743049286000002
   990   2      47.274643901824852      33.379943961186996      4.9256950713999998
   991   2       49.97269329897869      31.680613547659338      8.0743049286000002
   992   2       49.97269329897869      31.680613547659338      4.9256950713999998
   993   2      52.670742696132535      29.981283134131676      8.0743049286000002
   994   2      52.670742696132535      29.981283134131676      4.9256950713999998
   995   2      55.368792093286373      28.281952720604018      8.0743049286000002
   996   2      55.368792093286373      28.281952720604018      4.9256950713999998
   997   2      58.066841490440211      26.582622307076356      8.0743049286000002
   998   2      58.066841490440211      26.582622307076356      4.9256950713999998
   999   2      50.095331907940242      34.866858073023685      8.0743049286000002
  1000   2      50.095331907940242      34.866858073023685      4.9256950713999998
  1001   2      52.793381305094087      33.167527659496024      8.0743049286000002
  1002   2      52.793381305094087      33.167527659496024      4.9256950713999998
  1003   2      55.491430702247925      31.468197245968366      8.0743049286000002
  1004   2      55.491430702247925      31.468197245968366      4.9256950713999998
  1005   2       58.18948009940177      29.768866832440715      8.0743049286000002
  1006   2       58.18948009940177      29.768866832440715      4.9256950713999998
  1007   2      55.614069311209477      34.654441771332714      8.0743049286000002
  1008   2      55.614069311209477      34.654441771332714      4.9256950713999998
  1009   2      58.312118708363315      32.955111357805052      8.0743049286000002
  1010   2      58.312118708363315      32.955111357805052      4.9256950713999998
  1011   2       61.01016810551716      31.255780944277394      8.0743049286000002
  1012   2       61.01016810551716      31.255780944277394      4.9256950713999998
  1013   2      61.132806714478704      34.442025469641735      8.0743049286000002
  1014   2      61.132806714478704      34.442025469641735      4.9256950713999998
