rigid_bilayers/data_MoS2_MoS2_P_4 (written by ASE) 

366 	 atoms 
2  atom types
0.0       24.88584176426308  xlo xhi
0.0       21.55177116241158  ylo yhi
0.0                      30  zlo zhi
     12.442920882131531                       0                       0  xy xz yz


Atoms 

     1   1      0.8159292381725598      1.6487693785451483                       0
     2   1       3.671681571776519      0.2355384826493068                       0
     3   1      3.4676992622333787      3.4153079984149501                       0
     4   1       6.323451595837339      2.0020771025191086                       0
     5   1      9.1792039294412984     0.58884620662326748                       0
     6   1      3.2637169526902383      6.5950775141805922                       0
     7   1      6.1194692862941977      5.1818466182847516                       0
     8   1      8.9752216198981571      3.7686157223889105                       0
     9   1      11.830973953502118      2.3553848264930699                       0
    10   1      14.686726287106078     0.94215393059722807                       0
    11   1      5.9154869767510592      8.3616161340503954                       0
    12   1      8.7712393103550177      6.9483852381545539                       0
    13   1      11.626991643958977      5.5351543422587124                       0
    14   1      14.482743977562938      4.1219234463628718                       0
    15   1      17.338496311166896      2.7086925504670312                       0
    16   1      20.194248644770855      1.2954616545711879                       0
    17   1      5.7115046672079179      11.541385649816037                       0
    18   1      8.5672570008118782      10.128154753920198                       0
    19   1      11.423009334415838      8.7149238580243562                       0
    20   1      14.278761668019795      7.3016929621285156                       0
    21   1      17.134514001623756      5.8884620662326723                       0
    22   1      19.990266335227712      4.4752311703368317                       0
    23   1      22.846018668831679       3.062000274440992                       0
    24   1       8.363274691268737       13.30792426968584                       0
    25   1      11.219027024872696          11.89469337379                       0
    26   1      14.074779358476656      10.481462477894157                       0
    27   1      16.930531692080613      9.0682315819983152                       0
    28   1      19.786284025684573      7.6550006861024729                       0
    29   1      22.642036359288532      6.2417697902066323                       0
    30   1      25.497788692892495      4.8285388943107925                       0
    31   1      8.1592923817255976      16.487693785451484                       0
    32   1      11.015044715329561      15.074462889555642                       0
    33   1      13.870797048933518      13.661231993659802                       0
    34   1      16.726549382537478      12.248001097763961                       0
    35   1      19.582301716141437      10.834770201868118                       0
    36   1      22.438054049745393      9.4215393059722778                       0
    37   1      25.293806383349356      8.0083084100764381                       0
    38   1      10.811062405786416      18.254232405321282                       0
    39   1      13.666814739390379      16.841001509425446                       0
    40   1      16.522567072994335      15.427770613529603                       0
    41   1      19.378319406598294      14.014539717633761                       0
    42   1      22.234071740202257      12.601308821737918                       0
    43   1      25.089824073806213      11.188077925842078                       0
    44   1      27.945576407410176      9.7748470299462387                       0
    45   1      10.607080096243275      21.434001921086924                       0
    46   1      13.462832429847234      20.020771025191085                       0
    47   1      16.318584763451195      18.607540129295245                       0
    48   1      19.174337097055155      17.194309233399402                       0
    49   1      22.030089430659114      15.781078337503562                       0
    50   1      24.885841764263073       14.36784744160772                       0
    51   1      27.741594097867029      12.954616545711881                       0
    52   1      18.970354787512019      20.374078749165047                       0
    53   1      21.826107121115975      18.960847853269208                       0
    54   1      24.681859454719934      17.547616957373364                       0
    55   1      27.537611788323893      16.134386061477525                       0
    56   1      30.393364121927853      14.721155165581683                       0
    57   1      24.477877145176791       20.72738647313901                       0
    58   1      27.333629478780754      19.314155577243167                       0
    59   1      30.189381812384713      17.900924681347323                       0
    60   1       29.98539950284157      21.080694197112965                       0
    61   1      32.841151836445526      19.667463301217126                       0
    62   1      2.8557523336039594      1.4132308958958413                     6.5
    63   1      3.0597346431470993      4.5930004116614844                     6.5
    64   1      5.7115046672079188      2.8264617917916826                     6.5
    65   1      8.3632746912687388        1.05992317192188                     6.5
    66   1      5.9154869767510592      6.0062313075573259                     6.5
    67   1        8.56725700081188      4.2396926876875245                     6.5
    68   1        11.2190270248727      2.4731540678177235                     6.5
    69   1      13.870797048933518     0.70661544794792053                     6.5
    70   1      6.1194692862941986      9.1860008233229689                     6.5
    71   1      8.7712393103550177      7.4194622034531665                     6.5
    72   1      11.423009334415838      5.6529235835833651                     6.5
    73   1      14.074779358476659      3.8863849637135632                     6.5
    74   1      16.726549382537478        2.11984634384376                     6.5
    75   1      19.378319406598298     0.35330772397395971                     6.5
    76   1      8.9752216198981571       10.59923171921881                     6.5
    77   1      11.626991643958975      8.8326930993490063                     6.5
    78   1      14.278761668019797      7.0661544794792057                     6.5
    79   1      16.930531692080617      5.2996158596094043                     6.5
    80   1      19.582301716141437      3.5330772397396033                     6.5
    81   1      22.234071740202257       1.766538619869801                     6.5
    82   1      9.1792039294412984      13.779001234984454                     6.5
    83   1      11.830973953502118      12.012462615114652                     6.5
    84   1      14.482743977562938       10.24592399524485                     6.5
    85   1       17.13451400162376       8.479385375375049                     6.5
    86   1      19.786284025684576      6.7128467555052476                     6.5
    87   1        22.4380540497454       4.946308135635447                     6.5
    88   1       25.08982407380622      3.1797695157656443                     6.5
    89   1      12.034956263045258      15.192232130880292                     6.5
    90   1      14.686726287106076      13.425693511010492                     6.5
    91   1      17.338496311166899      11.659154891140691                     6.5
    92   1      19.990266335227716      9.8926162712708887                     6.5
    93   1      22.642036359288536      8.1260776514010882                     6.5
    94   1      25.293806383349359      6.3595390315312867                     6.5
    95   1      12.238938572588397      18.372001646645938                     6.5
    96   1      14.890708596649217      16.605463026776135                     6.5
    97   1      17.542478620710035      14.838924406906333                     6.5
    98   1      20.194248644770859      13.072385787036533                     6.5
    99   1      22.846018668831675       11.30584716716673                     6.5
   100   1      25.497788692892499      9.5393085472969279                     6.5
   101   1      28.149558716953319      7.7727699274271265                     6.5
   102   1      12.442920882131537       21.55177116241158                     6.5
   103   1      15.094690906192357      19.785232542541777                     6.5
   104   1      17.746460930253175      18.018693922671975                     6.5
   105   1      20.398230954313995      16.252155302802173                     6.5
   106   1      23.050000978374815      14.485616682932374                     6.5
   107   1      25.701771002435635       12.71907806306257                     6.5
   108   1      28.353541026496458      10.952539443192769                     6.5
   109   1      17.950443239796314      21.198463438437621                     6.5
   110   1      20.602213263857134      19.431924818567815                     6.5
   111   1      23.253983287917951      17.665386198698013                     6.5
   112   1      25.905753311978774      15.898847578828212                     6.5
   113   1      28.557523336039594      14.132308958958411                     6.5
   114   1      31.209293360100418      12.365770339088609                     6.5
   115   1      23.457965597461094      20.845155714463655                     6.5
   116   1      26.109735621521914      19.078617094593856                     6.5
   117   1      28.761505645582734      17.312078474724053                     6.5
   118   1      31.413275669643554      15.545539854854253                     6.5
   119   1      28.965487955125877      20.491847990489699                     6.5
   120   1        31.6172579791867      18.725309370619897                     6.5
   121   1       34.26902800324752      16.958770750750098                     6.5
   122   1      34.473010312790656       20.13854026651574                     6.5
   123   2      2.6517700240608191      1.7665386198698014            1.5700850065
   124   2      2.6517700240608191      1.7665386198698014           -1.5700850065
   125   2      5.5075223576647785     0.35330772397396054            1.5700850065
   126   2      5.5075223576647785     0.35330772397396054           -1.5700850065
   127   2       5.303540048121639      3.5330772397396033            1.5700850065
   128   2       5.303540048121639      3.5330772397396033           -1.5700850065
   129   2      8.1592923817255976      2.1198463438437618            1.5700850065
   130   2      8.1592923817255976      2.1198463438437618           -1.5700850065
   131   2      11.015044715329557     0.70661544794792108            1.5700850065
   132   2      11.015044715329557     0.70661544794792108           -1.5700850065
   133   2      5.0995577385784978      6.7128467555052458            1.5700850065
   134   2      5.0995577385784978      6.7128467555052458           -1.5700850065
   135   2      7.9553100721824572      5.2996158596094052            1.5700850065
   136   2      7.9553100721824572      5.2996158596094052           -1.5700850065
   137   2      10.811062405786416      3.8863849637135632            1.5700850065
   138   2      10.811062405786416      3.8863849637135632           -1.5700850065
   139   2      13.666814739390379      2.4731540678177226            1.5700850065
   140   2      13.666814739390379      2.4731540678177226           -1.5700850065
   141   2      16.522567072994335      1.0599231719218816            1.5700850065
   142   2      16.522567072994335      1.0599231719218816           -1.5700850065
   143   2      7.7513277626393178       8.479385375375049            1.5700850065
   144   2      7.7513277626393178       8.479385375375049           -1.5700850065
   145   2      10.607080096243278      7.0661544794792066            1.5700850065
   146   2      10.607080096243278      7.0661544794792066           -1.5700850065
   147   2      13.462832429847236       5.652923583583366            1.5700850065
   148   2      13.462832429847236       5.652923583583366           -1.5700850065
   149   2      16.318584763451195      4.2396926876875254            1.5700850065
   150   2      16.318584763451195      4.2396926876875254           -1.5700850065
   151   2      19.174337097055155       2.826461791791683            1.5700850065
   152   2      19.174337097055155       2.826461791791683           -1.5700850065
   153   2      22.030089430659114      1.4132308958958422            1.5700850065
   154   2      22.030089430659114      1.4132308958958422           -1.5700850065
   155   2      7.5473454530961783      11.659154891140691            1.5700850065
   156   2      7.5473454530961783      11.659154891140691           -1.5700850065
   157   2      10.403097786700139      10.245923995244851            1.5700850065
   158   2      10.403097786700139      10.245923995244851           -1.5700850065
   159   2      13.258850120304096      8.8326930993490098            1.5700850065
   160   2      13.258850120304096      8.8326930993490098           -1.5700850065
   161   2      16.114602453908056      7.4194622034531674            1.5700850065
   162   2      16.114602453908056      7.4194622034531674           -1.5700850065
   163   2      18.970354787512015      6.0062313075573259            1.5700850065
   164   2      18.970354787512015      6.0062313075573259           -1.5700850065
   165   2      21.826107121115975      4.5930004116614835            1.5700850065
   166   2      21.826107121115975      4.5930004116614835           -1.5700850065
   167   2      24.681859454719937      3.1797695157656447            1.5700850065
   168   2      24.681859454719937      3.1797695157656447           -1.5700850065
   169   2      10.199115477156996      13.425693511010493            1.5700850065
   170   2      10.199115477156996      13.425693511010493           -1.5700850065
   171   2      13.054867810760957      12.012462615114652            1.5700850065
   172   2      13.054867810760957      12.012462615114652           -1.5700850065
   173   2      15.910620144364914       10.59923171921881            1.5700850065
   174   2      15.910620144364914       10.59923171921881           -1.5700850065
   175   2      18.766372477968876      9.1860008233229671            1.5700850065
   176   2      18.766372477968876      9.1860008233229671           -1.5700850065
   177   2      21.622124811572832      7.7727699274271265            1.5700850065
   178   2      21.622124811572832      7.7727699274271265           -1.5700850065
   179   2      24.477877145176791      6.3595390315312859            1.5700850065
   180   2      24.477877145176791      6.3595390315312859           -1.5700850065
   181   2      27.333629478780757      4.9463081356354452            1.5700850065
   182   2      27.333629478780757      4.9463081356354452           -1.5700850065
   183   2      9.9951331676138562      16.605463026776135            1.5700850065
   184   2      9.9951331676138562      16.605463026776135           -1.5700850065
   185   2      12.850885501217817      15.192232130880296            1.5700850065
   186   2      12.850885501217817      15.192232130880296           -1.5700850065
   187   2      15.706637834821779      13.779001234984456            1.5700850065
   188   2      15.706637834821779      13.779001234984456           -1.5700850065
   189   2      18.562390168425736      12.365770339088613            1.5700850065
   190   2      18.562390168425736      12.365770339088613           -1.5700850065
   191   2      21.418142502029696      10.952539443192771            1.5700850065
   192   2      21.418142502029696      10.952539443192771           -1.5700850065
   193   2      24.273894835633655      9.5393085472969297            1.5700850065
   194   2      24.273894835633655      9.5393085472969297           -1.5700850065
   195   2      27.129647169237618        8.12607765140109            1.5700850065
   196   2      27.129647169237618        8.12607765140109           -1.5700850065
   197   2      12.646903191674674      18.372001646645934            1.5700850065
   198   2      12.646903191674674      18.372001646645934           -1.5700850065
   199   2      15.502655525278636      16.958770750750098            1.5700850065
   200   2      15.502655525278636      16.958770750750098           -1.5700850065
   201   2      18.358407858882593      15.545539854854256            1.5700850065
   202   2      18.358407858882593      15.545539854854256           -1.5700850065
   203   2      21.214160192486556      14.132308958958413            1.5700850065
   204   2      21.214160192486556      14.132308958958413           -1.5700850065
   205   2      24.069912526090516      12.719078063062572            1.5700850065
   206   2      24.069912526090516      12.719078063062572           -1.5700850065
   207   2      26.925664859694471      11.305847167166732            1.5700850065
   208   2      26.925664859694471      11.305847167166732           -1.5700850065
   209   2      29.781417193298434      9.8926162712708905            1.5700850065
   210   2      29.781417193298434      9.8926162712708905           -1.5700850065
   211   2      12.442920882131533       21.55177116241158            1.5700850065
   212   2      12.442920882131533       21.55177116241158           -1.5700850065
   213   2      15.298673215735491      20.138540266515736            1.5700850065
   214   2      15.298673215735491      20.138540266515736           -1.5700850065
   215   2      18.154425549339457      18.725309370619897            1.5700850065
   216   2      18.154425549339457      18.725309370619897           -1.5700850065
   217   2      21.010177882943413      17.312078474724057            1.5700850065
   218   2      21.010177882943413      17.312078474724057           -1.5700850065
   219   2      23.865930216547373      15.898847578828216            1.5700850065
   220   2      23.865930216547373      15.898847578828216           -1.5700850065
   221   2      26.721682550151332      14.485616682932374            1.5700850065
   222   2      26.721682550151332      14.485616682932374           -1.5700850065
   223   2      29.577434883755291      13.072385787036536            1.5700850065
   224   2      29.577434883755291      13.072385787036536           -1.5700850065
   225   2      20.806195573400277      20.491847990489703            1.5700850065
   226   2      20.806195573400277      20.491847990489703           -1.5700850065
   227   2      23.661947907004233      19.078617094593859            1.5700850065
   228   2      23.661947907004233      19.078617094593859           -1.5700850065
   229   2      26.517700240608193       17.66538619869802            1.5700850065
   230   2      26.517700240608193       17.66538619869802           -1.5700850065
   231   2      29.373452574212155      16.252155302802176            1.5700850065
   232   2      29.373452574212155      16.252155302802176           -1.5700850065
   233   2      32.229204907816111      14.838924406906335            1.5700850065
   234   2      32.229204907816111      14.838924406906335           -1.5700850065
   235   2      26.313717931065053      20.845155714463662            1.5700850065
   236   2      26.313717931065053      20.845155714463662           -1.5700850065
   237   2      29.169470264669012      19.431924818567818            1.5700850065
   238   2      29.169470264669012      19.431924818567818           -1.5700850065
   239   2      32.025222598272968      18.018693922671975            1.5700850065
   240   2      32.025222598272968      18.018693922671975           -1.5700850065
   241   2      31.821240288729829      21.198463438437621            1.5700850065
   242   2      31.821240288729829      21.198463438437621           -1.5700850065
   243   2      34.676992622333785      19.785232542541777            1.5700850065
   244   2      34.676992622333785      19.785232542541777           -1.5700850065
   245   2      4.5829140201454637      1.4586010134553387      8.0700850064999994
   246   2      4.5829140201454637      1.4586010134553387      4.9299149934999997
   247   2       4.786896329688604      4.6383705292209818      8.0700850064999994
   248   2       4.786896329688604      4.6383705292209818      4.9299149934999997
   249   2      7.4386663537494249      2.8718319093511808      8.0700850064999994
   250   2      7.4386663537494249      2.8718319093511808      4.9299149934999997
   251   2      10.090436377810244      1.1052932894813778      8.0700850064999994
   252   2      10.090436377810244      1.1052932894813778      4.9299149934999997
   253   2      7.6426486632925634      6.0516014251168242      8.0700850064999994
   254   2      7.6426486632925634      6.0516014251168242      4.9299149934999997
   255   2      10.294418687353383      4.2850628052470219      8.0700850064999994
   256   2      10.294418687353383      4.2850628052470219      4.9299149934999997
   257   2      12.946188711414205      2.5185241853772209      8.0700850064999994
   258   2      12.946188711414205      2.5185241853772209      4.9299149934999997
   259   2      15.597958735475023     0.75198556550741946      8.0700850064999994
   260   2      15.597958735475023     0.75198556550741946      4.9299149934999997
   261   2      7.8466309728357055      9.2313709408824671      8.0700850064999994
   262   2      7.8466309728357055      9.2313709408824671      4.9299149934999997
   263   2      10.498400996896525      7.4648323210126639      8.0700850064999994
   264   2      10.498400996896525      7.4648323210126639      4.9299149934999997
   265   2      13.150171020957343      5.6982937011428625      8.0700850064999994
   266   2      13.150171020957343      5.6982937011428625      4.9299149934999997
   267   2      15.801941045018165      3.9317550812730615      8.0700850064999994
   268   2      15.801941045018165      3.9317550812730615      4.9299149934999997
   269   2      18.453711069078981      2.1652164614032583      8.0700850064999994
   270   2      18.453711069078981      2.1652164614032583      4.9299149934999997
   271   2      21.105481093139797     0.39867784153345692      8.0700850064999994
   272   2      21.105481093139797     0.39867784153345692      4.9299149934999997
   273   2      10.702383306439664      10.644601836778309      8.0700850064999994
   274   2      10.702383306439664      10.644601836778309      4.9299149934999997
   275   2       13.35415333050048      8.8780632169085028      8.0700850064999994
   276   2       13.35415333050048      8.8780632169085028      4.9299149934999997
   277   2        16.0059233545613      7.1115245970387022      8.0700850064999994
   278   2        16.0059233545613      7.1115245970387022      4.9299149934999997
   279   2       18.65769337862212      5.3449859771689008      8.0700850064999994
   280   2       18.65769337862212      5.3449859771689008      4.9299149934999997
   281   2       21.30946340268294      3.5784473572990998      8.0700850064999994
   282   2       21.30946340268294      3.5784473572990998      4.9299149934999997
   283   2       23.96123342674376      1.8119087374292981      8.0700850064999994
   284   2       23.96123342674376      1.8119087374292981      4.9299149934999997
   285   2      10.906365615982805      13.824371352543952      8.0700850064999994
   286   2      10.906365615982805      13.824371352543952      4.9299149934999997
   287   2      13.558135640043623      12.057832732674147      8.0700850064999994
   288   2      13.558135640043623      12.057832732674147      4.9299149934999997
   289   2      16.209905664104443      10.291294112804346      8.0700850064999994
   290   2      16.209905664104443      10.291294112804346      4.9299149934999997
   291   2      18.861675688165263      8.5247554929345455      8.0700850064999994
   292   2      18.861675688165263      8.5247554929345455      4.9299149934999997
   293   2      21.513445712226083      6.7582168730647441      8.0700850064999994
   294   2      21.513445712226083      6.7582168730647441      4.9299149934999997
   295   2      24.165215736286903      4.9916782531949444      8.0700850064999994
   296   2      24.165215736286903      4.9916782531949444      4.9299149934999997
   297   2      26.816985760347723      3.2251396333251416      8.0700850064999994
   298   2      26.816985760347723      3.2251396333251416      4.9299149934999997
   299   2      13.762117949586761      15.237602248439789      8.0700850064999994
   300   2      13.762117949586761      15.237602248439789      4.9299149934999997
   301   2      16.413887973647579      13.471063628569988      8.0700850064999994
   302   2      16.413887973647579      13.471063628569988      4.9299149934999997
   303   2      19.065657997708403      11.704525008700188      8.0700850064999994
   304   2      19.065657997708403      11.704525008700188      4.9299149934999997
   305   2      21.717428021769219       9.937986388830387      8.0700850064999994
   306   2      21.717428021769219       9.937986388830387      4.9299149934999997
   307   2      24.369198045830043      8.1714477689605847      8.0700850064999994
   308   2      24.369198045830043      8.1714477689605847      4.9299149934999997
   309   2      27.020968069890863      6.4049091490907841      8.0700850064999994
   310   2      27.020968069890863      6.4049091490907841      4.9299149934999997
   311   2      13.966100259129904      18.417371764205434      8.0700850064999994
   312   2      13.966100259129904      18.417371764205434      4.9299149934999997
   313   2      16.617870283190719      16.650833144335632      8.0700850064999994
   314   2      16.617870283190719      16.650833144335632      4.9299149934999997
   315   2      19.269640307251542       14.88429452446583      8.0700850064999994
   316   2      19.269640307251542       14.88429452446583      4.9299149934999997
   317   2      21.921410331312359      13.117755904596029      8.0700850064999994
   318   2      21.921410331312359      13.117755904596029      4.9299149934999997
   319   2      24.573180355373179      11.351217284726228      8.0700850064999994
   320   2      24.573180355373179      11.351217284726228      4.9299149934999997
   321   2      27.224950379434002      9.5846786648564262      8.0700850064999994
   322   2      27.224950379434002      9.5846786648564262      4.9299149934999997
   323   2      29.876720403494819      7.8181400449866238      8.0700850064999994
   324   2      29.876720403494819      7.8181400449866238      4.9299149934999997
   325   2       14.17008256867304      21.597141279971076      8.0700850064999994
   326   2       14.17008256867304      21.597141279971076      4.9299149934999997
   327   2      16.821852592733862      19.830602660101274      8.0700850064999994
   328   2      16.821852592733862      19.830602660101274      4.9299149934999997
   329   2      19.473622616794678      18.064064040231472      8.0700850064999994
   330   2      19.473622616794678      18.064064040231472      4.9299149934999997
   331   2      22.125392640855502      16.297525420361669      8.0700850064999994
   332   2      22.125392640855502      16.297525420361669      4.9299149934999997
   333   2      24.777162664916318      14.530986800491871      8.0700850064999994
   334   2      24.777162664916318      14.530986800491871      4.9299149934999997
   335   2      27.428932688977138      12.764448180622066      8.0700850064999994
   336   2      27.428932688977138      12.764448180622066      4.9299149934999997
   337   2      30.080702713037962      10.997909560752266      8.0700850064999994
   338   2      30.080702713037962      10.997909560752266      4.9299149934999997
   339   2      19.677604926337821      21.243833555997117      8.0700850064999994
   340   2      19.677604926337821      21.243833555997117      4.9299149934999997
   341   2      22.329374950398638      19.477294936127311      8.0700850064999994
   342   2      22.329374950398638      19.477294936127311      4.9299149934999997
   343   2      24.981144974459458      17.710756316257509      8.0700850064999994
   344   2      24.981144974459458      17.710756316257509      4.9299149934999997
   345   2      27.632914998520278      15.944217696387708      8.0700850064999994
   346   2      27.632914998520278      15.944217696387708      4.9299149934999997
   347   2      30.284685022581101      14.177679076517911      8.0700850064999994
   348   2      30.284685022581101      14.177679076517911      4.9299149934999997
   349   2      32.936455046641925      12.411140456648109      8.0700850064999994
   350   2      32.936455046641925      12.411140456648109      4.9299149934999997
   351   2      25.185127284002601      20.890525832023155      8.0700850064999994
   352   2      25.185127284002601      20.890525832023155      4.9299149934999997
   353   2      27.836897308063421      19.123987212153356      8.0700850064999994
   354   2      27.836897308063421      19.123987212153356      4.9299149934999997
   355   2      30.488667332124241      17.357448592283554      8.0700850064999994
   356   2      30.488667332124241      17.357448592283554      4.9299149934999997
   357   2       33.14043735618506      15.590909972413753      8.0700850064999994
   358   2       33.14043735618506      15.590909972413753      4.9299149934999997
   359   2      30.692649641667384      20.537218108049199      8.0700850064999994
   360   2      30.692649641667384      20.537218108049199      4.9299149934999997
   361   2      33.344419665728203      18.770679488179397      8.0700850064999994
   362   2      33.344419665728203      18.770679488179397      4.9299149934999997
   363   2      35.996189689789027      17.004140868309598      8.0700850064999994
   364   2      35.996189689789027      17.004140868309598      4.9299149934999997
   365   2      36.200171999332163       20.18391038407524      8.0700850064999994
   366   2      36.200171999332163       20.18391038407524      4.9299149934999997
