OMP_THREADS: 32
MPI: 1
NTASKS-PER-NODE: 4
CPUS_PER_TASK: 32
LAMMPS (28 Mar 2023 - Development)
  using 32 OpenMP thread(s) per MPI task
  using 32 OpenMP thread(s) per MPI task
Reading data file ...
  triclinic box = (0 0 0) to (69.053705 59.802263 28.26298) with tilt (34.526853 0 0)
WARNING: Triclinic box skew is large. LAMMPS will run inefficiently. (src/domain.cpp:220)
  2 by 2 by 1 MPI processor grid
  reading atoms ...
  2814 atoms
  read_data CPU = 0.024 seconds
CUDA unavailable, setting device type to torch::kCPU.
CUDA unavailable, setting device type to torch::kCPU.
CUDA unavailable, setting device type to torch::kCPU.
CUDA unavailable, setting device type to torch::kCPU.
Loading MACE model from "/home/p/phrrpq/bilayer_relaxations/MoWSSe_bi_radius_8_reduced_all_1_swa_800_run-123_swa.model-lammps.pt" ... finished.
  - The torch_float_dtype is: Double
  - The r_max is: 8.
  - The model has: 2 layers.
  - The model atomic numbers are: 16 34 42 74.
  - The pair_coeff atomic numbers are: 42 16 74.
Loading MACE model from "/home/p/phrrpq/bilayer_relaxations/MoWSSe_bi_radius_8_reduced_all_1_swa_800_run-123_swa.model-lammps.pt" ... finished.
  - The torch_float_dtype is: Double
Loading MACE model from "/home/p/phrrpq/bilayer_relaxations/MoWSSe_bi_radius_8_reduced_all_1_swa_800_run-123_swa.model-lammps.pt" ... finished.
  - The r_max is: 8.
  - The model has: 2 layers.
  - The model atomic numbers are: 16 34 42 74.
  - The pair_coeff atomic numbers are: 42 16 74.
Generated 0 of 3 mixed pair_coeff terms from geometric mixing rule
  - The torch_float_dtype is: Double
  - The r_max is: 8.
  - The model has: 2 layers.
  - The model atomic numbers are: 16 34 42 74.
  - The pair_coeff atomic numbers are: 42 16 74.
Loading MACE model from "/home/p/phrrpq/bilayer_relaxations/MoWSSe_bi_radius_8_reduced_all_1_swa_800_run-123_swa.model-lammps.pt" ... finished.
  - The torch_float_dtype is: Double
  - The r_max is: 8.
  - The model has: 2 layers.
  - The model atomic numbers are: 16 34 42 74.
  - The pair_coeff atomic numbers are: 42 16 74.
Neighbor list info ...
  update: every = 1 steps, delay = 0 steps, check = yes
  max neighbors/atom: 2000, page size: 100000
  master list distance cutoff = 18
  ghost atom cutoff = 18
  binsize = 9, bins = 12 7 4
  1 neighbor lists, perpetual/occasional/extra = 1 0 0
  (1) pair mace, perpetual
      attributes: full, newton on, ghost
      pair build: full/bin/ghost
      stencil: full/ghost/bin/3d
      bin: standard
Setting up Verlet run ...
  Unit style    : metal
  Current step  : 0
  Time step     : 0.0001
Per MPI rank memory allocation (min/avg/max) = 45.74 | 45.74 | 45.74 Mbytes
   Step          Time           CPU           TotEng          Fmax          Fnorm     
         0                        0                       0      -2529815.547803245      0.1603833018003991       6.324073828584327
Loop time of 2.78475e-06 on 128 procs for 0 steps with 2814 atoms

62.8% CPU use with 4 MPI tasks x 32 OpenMP threads

MPI task timing breakdown:
Section |  min time  |  avg time  |  max time  |%varavg| %total
---------------------------------------------------------------
Pair    | 0          | 0          | 0          |   0.0 |  0.00
Neigh   | 0          | 0          | 0          |   0.0 |  0.00
Comm    | 0          | 0          | 0          |   0.0 |  0.00
Output  | 0          | 0          | 0          |   0.0 |  0.00
Modify  | 0          | 0          | 0          |   0.0 |  0.00
Other   |            | 2.785e-06  |            |       |100.00

Nlocal:          703.5 ave         723 max         688 min
Histogram: 2 0 0 0 0 0 1 0 0 1
Nghost:        7985.25 ave        8009 max        7961 min
Histogram: 1 1 0 0 0 0 0 0 1 1
Neighs:              0 ave           0 max           0 min
Histogram: 4 0 0 0 0 0 0 0 0 0
FullNghs:       454604 ave      467821 max      444830 min
Histogram: 2 0 0 0 0 0 1 0 0 1

Total # of neighbors = 1818414
Ave neighs/atom = 646.20256
Neighbor list builds = 0
Dangerous builds = 0
BEGIN LAMMPS STANDALONE MINIMIZATION; ii = 12; OMP = 12; MPI = 4
minimize 0.0 1e-3 1000 100000
Generated 0 of 3 mixed pair_coeff terms from geometric mixing rule
Generated 0 of 3 mixed pair_coeff terms from geometric mixing rule
Setting up cg style minimization ...
  Unit style    : metal
  Current step  : 0
Per MPI rank memory allocation (min/avg/max) = 46.87 | 46.87 | 46.87 Mbytes
Per MPI rank memory allocation (min/avg/max) = 46.87 | 46.87 | 46.87 Mbytes
   Step          Time           CPU           TotEng          Fmax          Fnorm     
   Step          Time           CPU           TotEng          Fmax          Fnorm     
         0                        0                       0      -2529815.547803245      0.1603833018004424       6.324073828584359
         0                        0                       0      -2529815.547803245      0.1603833018004424       6.324073828584359
WARNING: Pair style restartinfo set but has no restart support (src/pair.cpp:754)
WARNING: Pair style restartinfo set but has no restart support (src/pair.cpp:754)
         1                   0.0001           485.287727973      -2529816.602169014     0.03537982908686052      0.9101254358686219
         1                   0.0001           485.287727973      -2529816.602169014     0.03537982908686052      0.9101254358686219
WARNING: Pair style restartinfo set but has no restart support (src/pair.cpp:754)
WARNING: Pair style restartinfo set but has no restart support (src/pair.cpp:754)
         2                   0.0002           964.542321849      -2529816.613792186     0.01034138934880527      0.3298778484268508
         2                   0.0002           964.542321849      -2529816.613792186     0.01034138934880527      0.3298778484268508
WARNING: Pair style restartinfo set but has no restart support (src/pair.cpp:754)
WARNING: Pair style restartinfo set but has no restart support (src/pair.cpp:754)
         3                   0.0003          1447.986784597        -2529816.6166345    0.005660045242313286      0.1670256299857144
         3                   0.0003          1447.986784597        -2529816.6166345    0.005660045242313286      0.1670256299857144
WARNING: Pair style restartinfo set but has no restart support (src/pair.cpp:754)
WARNING: Pair style restartinfo set but has no restart support (src/pair.cpp:754)
         4                   0.0004          1938.926164637      -2529816.618044672      0.0100700265375781      0.2405279178945758
         4                   0.0004          1938.926164637      -2529816.618044672      0.0100700265375781      0.2405279178945758
WARNING: Pair style restartinfo set but has no restart support (src/pair.cpp:754)
WARNING: Pair style restartinfo set but has no restart support (src/pair.cpp:754)
         5                   0.0005          2425.688083614       -2529816.62227966     0.01148151922203914      0.3839153227801374
         5                   0.0005          2425.688083614       -2529816.62227966     0.01148151922203914      0.3839153227801374
WARNING: Pair style restartinfo set but has no restart support (src/pair.cpp:754)
WARNING: Pair style restartinfo set but has no restart support (src/pair.cpp:754)
         6    0.0006000000000000001          2916.361690504      -2529816.629183049     0.01614281605686225      0.3954799509151655
         6    0.0006000000000000001          2916.361690504      -2529816.629183049     0.01614281605686225      0.3954799509151655
WARNING: Pair style restartinfo set but has no restart support (src/pair.cpp:754)
WARNING: Pair style restartinfo set but has no restart support (src/pair.cpp:754)
         7                   0.0007           3405.06422408      -2529816.642464055     0.01007102115993624      0.3151743631311105
         7                   0.0007           3405.06422408      -2529816.642464055     0.01007102115993624      0.3151743631311105
WARNING: Pair style restartinfo set but has no restart support (src/pair.cpp:754)
WARNING: Pair style restartinfo set but has no restart support (src/pair.cpp:754)
         8                   0.0008          3893.980692809      -2529816.644204693    0.004612628828776517        0.12794186100455
         8                   0.0008          3893.980692809      -2529816.644204693    0.004612628828776517        0.12794186100455
WARNING: Pair style restartinfo set but has no restart support (src/pair.cpp:754)
WARNING: Pair style restartinfo set but has no restart support (src/pair.cpp:754)
         9    0.0009000000000000001          4381.154005393      -2529816.644744333    0.004286989353870096      0.1037765595192754
         9    0.0009000000000000001          4381.154005393      -2529816.644744333    0.004286989353870096      0.1037765595192754
WARNING: Pair style restartinfo set but has no restart support (src/pair.cpp:754)
WARNING: Pair style restartinfo set but has no restart support (src/pair.cpp:754)
        10                    0.001          4866.963156694       -2529816.64558764    0.005766960505397196      0.1701043813213444
        10                    0.001          4866.963156694       -2529816.64558764    0.005766960505397196      0.1701043813213444
WARNING: Pair style restartinfo set but has no restart support (src/pair.cpp:754)
WARNING: Pair style restartinfo set but has no restart support (src/pair.cpp:754)
        11                   0.0011          5355.266612035      -2529816.646864326    0.005599072034999542      0.1667670046590271
        11                   0.0011          5355.266612035      -2529816.646864326    0.005599072034999542      0.1667670046590271
WARNING: Pair style restartinfo set but has no restart support (src/pair.cpp:754)
WARNING: Pair style restartinfo set but has no restart support (src/pair.cpp:754)
        12                   0.0012          5848.109014646      -2529816.647576462    0.004843488159110093     0.09972895924550999
        12                   0.0012          5848.109014646      -2529816.647576462    0.004843488159110093     0.09972895924550999
WARNING: Pair style restartinfo set but has no restart support (src/pair.cpp:754)
WARNING: Pair style restartinfo set but has no restart support (src/pair.cpp:754)
        13                   0.0013       6332.281660840999      -2529816.648191219    0.002735129498824623     0.06394830807194123
        13                   0.0013       6332.281660840999      -2529816.648191219    0.002735129498824623     0.06394830807194123
WARNING: Pair style restartinfo set but has no restart support (src/pair.cpp:754)
WARNING: Pair style restartinfo set but has no restart support (src/pair.cpp:754)
        14                   0.0014          6820.285683181      -2529816.648402484    0.006226737524984677     0.09977200811997095
        14                   0.0014          6820.285683181      -2529816.648402484    0.006226737524984677     0.09977200811997095
WARNING: Pair style restartinfo set but has no restart support (src/pair.cpp:754)
WARNING: Pair style restartinfo set but has no restart support (src/pair.cpp:754)
        15                   0.0015          7309.881768591      -2529816.648998201    0.004951355672313187      0.1051549112225032
        15                   0.0015          7309.881768591      -2529816.648998201    0.004951355672313187      0.1051549112225032
WARNING: Pair style restartinfo set but has no restart support (src/pair.cpp:754)
WARNING: Pair style restartinfo set but has no restart support (src/pair.cpp:754)
        16                   0.0016       7794.664836401001      -2529816.649304564    0.002615172047966867     0.06179247291971655
        16                   0.0016       7794.664836401001      -2529816.649304564    0.002615172047966867     0.06179247291971655
WARNING: Pair style restartinfo set but has no restart support (src/pair.cpp:754)
WARNING: Pair style restartinfo set but has no restart support (src/pair.cpp:754)
        17                   0.0017          8283.494514484      -2529816.649438978    0.003828241267148834     0.05860243901821912
        17                   0.0017          8283.494514484      -2529816.649438978    0.003828241267148834     0.05860243901821912
WARNING: Pair style restartinfo set but has no restart support (src/pair.cpp:754)
WARNING: Pair style restartinfo set but has no restart support (src/pair.cpp:754)
        18                   0.0018       8767.790613357001      -2529816.649625087    0.004307636322154385     0.08005808975895121
        18                   0.0018       8767.790613357001      -2529816.649625087    0.004307636322154385     0.08005808975895121
WARNING: Pair style restartinfo set but has no restart support (src/pair.cpp:754)
WARNING: Pair style restartinfo set but has no restart support (src/pair.cpp:754)
        19                   0.0019       9257.589637225001       -2529816.64993283    0.003031433646880966     0.06029651413793796
        19                   0.0019       9257.589637225001       -2529816.64993283    0.003031433646880966     0.06029651413793796
WARNING: Pair style restartinfo set but has no restart support (src/pair.cpp:754)
WARNING: Pair style restartinfo set but has no restart support (src/pair.cpp:754)
        20                    0.002       9746.021644621002      -2529816.650087574    0.005995100332926842     0.07489015097936896
        20                    0.002       9746.021644621002      -2529816.650087574    0.005995100332926842     0.07489015097936896
WARNING: Pair style restartinfo set but has no restart support (src/pair.cpp:754)
WARNING: Pair style restartinfo set but has no restart support (src/pair.cpp:754)
        21                   0.0021         10231.303782523      -2529816.650334996     0.00311403864052043     0.05518978662572604
        21                   0.0021         10231.303782523      -2529816.650334996     0.00311403864052043     0.05518978662572604
WARNING: Pair style restartinfo set but has no restart support (src/pair.cpp:754)
WARNING: Pair style restartinfo set but has no restart support (src/pair.cpp:754)
        22                   0.0022          10714.43807918      -2529816.650544787    0.008458444147495451     0.09049731581011809
        22                   0.0022          10714.43807918      -2529816.650544787    0.008458444147495451     0.09049731581011809
WARNING: Pair style restartinfo set but has no restart support (src/pair.cpp:754)
WARNING: Pair style restartinfo set but has no restart support (src/pair.cpp:754)
        23                   0.0023         11210.498584503      -2529816.650851736    0.002866916831976558     0.06098613738183367
        23                   0.0023         11210.498584503      -2529816.650851736    0.002866916831976558     0.06098613738183367
WARNING: Pair style restartinfo set but has no restart support (src/pair.cpp:754)
WARNING: Pair style restartinfo set but has no restart support (src/pair.cpp:754)
        24                   0.0024         11699.998083585       -2529816.65096103    0.002034120187625792     0.04615237463691757
        24                   0.0024         11699.998083585       -2529816.65096103    0.002034120187625792     0.04615237463691757
WARNING: Pair style restartinfo set but has no restart support (src/pair.cpp:754)
WARNING: Pair style restartinfo set but has no restart support (src/pair.cpp:754)
        25                   0.0025         12187.384260265      -2529816.651053415    0.003792696401886388     0.04505959826897571
        25                   0.0025         12187.384260265      -2529816.651053415    0.003792696401886388     0.04505959826897571
WARNING: Pair style restartinfo set but has no restart support (src/pair.cpp:754)
WARNING: Pair style restartinfo set but has no restart support (src/pair.cpp:754)
        26                   0.0026          12677.57386778      -2529816.651127142    0.002720333128673335      0.0397758740742982
        26                   0.0026          12677.57386778      -2529816.651127142    0.002720333128673335      0.0397758740742982
WARNING: Pair style restartinfo set but has no restart support (src/pair.cpp:754)
WARNING: Pair style restartinfo set but has no restart support (src/pair.cpp:754)
        27                   0.0027         13160.945467029      -2529816.651190574     0.00134653009951205     0.03306650452852473
        27                   0.0027         13160.945467029      -2529816.651190574     0.00134653009951205     0.03306650452852473
WARNING: Pair style restartinfo set but has no restart support (src/pair.cpp:754)
WARNING: Pair style restartinfo set but has no restart support (src/pair.cpp:754)
        28                   0.0028         13649.380992424      -2529816.651246807    0.002396858695534939     0.04421650719124551
        28                   0.0028         13649.380992424      -2529816.651246807    0.002396858695534939     0.04421650719124551
WARNING: Pair style restartinfo set but has no restart support (src/pair.cpp:754)
WARNING: Pair style restartinfo set but has no restart support (src/pair.cpp:754)
        29                   0.0029         14136.667943273      -2529816.651325229    0.001647706646302162     0.03894895397365247
        29                   0.0029         14136.667943273      -2529816.651325229    0.001647706646302162     0.03894895397365247
WARNING: Pair style restartinfo set but has no restart support (src/pair.cpp:754)
WARNING: Pair style restartinfo set but has no restart support (src/pair.cpp:754)
        30                    0.003         14622.485902891      -2529816.651417834    0.003030599524519267     0.05152150628883991
        30                    0.003         14622.485902891      -2529816.651417834    0.003030599524519267     0.05152150628883991
WARNING: Pair style restartinfo set but has no restart support (src/pair.cpp:754)
WARNING: Pair style restartinfo set but has no restart support (src/pair.cpp:754)
        31                   0.0031         15110.669888824      -2529816.651501581    0.002366452278850652       0.032136636447539
        31                   0.0031         15110.669888824      -2529816.651501581    0.002366452278850652       0.032136636447539
WARNING: Pair style restartinfo set but has no restart support (src/pair.cpp:754)
WARNING: Pair style restartinfo set but has no restart support (src/pair.cpp:754)
        32                   0.0032         15596.657690838      -2529816.651535804    0.001636087723809514     0.02620090901453062
        32                   0.0032         15596.657690838      -2529816.651535804    0.001636087723809514     0.02620090901453062
WARNING: Pair style restartinfo set but has no restart support (src/pair.cpp:754)
WARNING: Pair style restartinfo set but has no restart support (src/pair.cpp:754)
        33                   0.0033         16082.615938644      -2529816.651560294    0.001419960976217142     0.02102238853518863
        33                   0.0033         16082.615938644      -2529816.651560294    0.001419960976217142     0.02102238853518863
WARNING: Pair style restartinfo set but has no restart support (src/pair.cpp:754)
WARNING: Pair style restartinfo set but has no restart support (src/pair.cpp:754)
        34                   0.0034         16574.186028237      -2529816.651578244    0.001298511194420454     0.02092358339663377
        34                   0.0034         16574.186028237      -2529816.651578244    0.001298511194420454     0.02092358339663377
WARNING: Pair style restartinfo set but has no restart support (src/pair.cpp:754)
WARNING: Pair style restartinfo set but has no restart support (src/pair.cpp:754)
        35                   0.0035         17059.295878498      -2529816.651591592   0.0007315646126544349     0.01481068959916027
        35                   0.0035         17059.295878498      -2529816.651591592   0.0007315646126544349     0.01481068959916027
WARNING: Pair style restartinfo set but has no restart support (src/pair.cpp:754)
WARNING: Pair style restartinfo set but has no restart support (src/pair.cpp:754)
        36                   0.0036         17543.027798359      -2529816.651604437    0.001790586042448265     0.01806376882551557
        36                   0.0036         17543.027798359      -2529816.651604437    0.001790586042448265     0.01806376882551557
WARNING: Pair style restartinfo set but has no restart support (src/pair.cpp:754)
WARNING: Pair style restartinfo set but has no restart support (src/pair.cpp:754)
        37                   0.0037         18034.039958802      -2529816.651614182   0.0006390650711563179     0.01353866118980102
        37                   0.0037         18034.039958802      -2529816.651614182   0.0006390650711563179     0.01353866118980102
WARNING: Pair style restartinfo set but has no restart support (src/pair.cpp:754)
WARNING: Pair style restartinfo set but has no restart support (src/pair.cpp:754)
        38                   0.0038         18521.536806658      -2529816.651624125    0.001146065592073824     0.01426782439419906
        38                   0.0038         18521.536806658      -2529816.651624125    0.001146065592073824     0.01426782439419906
WARNING: Pair style restartinfo set but has no restart support (src/pair.cpp:754)
WARNING: Pair style restartinfo set but has no restart support (src/pair.cpp:754)
        39                   0.0039         19004.541679865      -2529816.651630158   0.0006035179136506391    0.009942091153017167
        39                   0.0039         19004.541679865      -2529816.651630158   0.0006035179136506391    0.009942091153017167
WARNING: Pair style restartinfo set but has no restart support (src/pair.cpp:754)
WARNING: Pair style restartinfo set but has no restart support (src/pair.cpp:754)
        40                    0.004         19491.321056889      -2529816.651635034   0.0006165460028938303      0.0114266962047061
        40                    0.004         19491.321056889      -2529816.651635034   0.0006165460028938303      0.0114266962047061
WARNING: Pair style restartinfo set but has no restart support (src/pair.cpp:754)
WARNING: Pair style restartinfo set but has no restart support (src/pair.cpp:754)
        41                   0.0041         19980.917265835      -2529816.651639916   0.0007442219560317466     0.01105274798780201
        41                   0.0041         19980.917265835      -2529816.651639916   0.0007442219560317466     0.01105274798780201
WARNING: Pair style restartinfo set but has no restart support (src/pair.cpp:754)
WARNING: Pair style restartinfo set but has no restart support (src/pair.cpp:754)
        42     0.004200000000000001         20465.784367695      -2529816.651646162    0.000637623936990785     0.01093411553739171
        42     0.004200000000000001         20465.784367695      -2529816.651646162    0.000637623936990785     0.01093411553739171
WARNING: Pair style restartinfo set but has no restart support (src/pair.cpp:754)
WARNING: Pair style restartinfo set but has no restart support (src/pair.cpp:754)
        43                   0.0043         20956.458574655      -2529816.651649229   0.0003885186120870158    0.007738770438278358
        43                   0.0043         20956.458574655      -2529816.651649229   0.0003885186120870158    0.007738770438278358
WARNING: Pair style restartinfo set but has no restart support (src/pair.cpp:754)
WARNING: Pair style restartinfo set but has no restart support (src/pair.cpp:754)
        44                   0.0044          21446.00180665       -2529816.65165278   0.0006332120425751902    0.009492378774370067
        44                   0.0044          21446.00180665       -2529816.65165278   0.0006332120425751902    0.009492378774370067
WARNING: Pair style restartinfo set but has no restart support (src/pair.cpp:754)
WARNING: Pair style restartinfo set but has no restart support (src/pair.cpp:754)
        45     0.004500000000000001         21933.691391614      -2529816.651655967   0.0006202209017066981     0.00832802440644417
        45     0.004500000000000001         21933.691391614      -2529816.651655967   0.0006202209017066981     0.00832802440644417
WARNING: Pair style restartinfo set but has no restart support (src/pair.cpp:754)
WARNING: Pair style restartinfo set but has no restart support (src/pair.cpp:754)
        46                   0.0046         22423.334036262      -2529816.651659322   0.0003469112798570852    0.007548695609440491
        46                   0.0046         22423.334036262      -2529816.651659322   0.0003469112798570852    0.007548695609440491
WARNING: Pair style restartinfo set but has no restart support (src/pair.cpp:754)
WARNING: Pair style restartinfo set but has no restart support (src/pair.cpp:754)
        47                   0.0047         22909.714724251      -2529816.651661087   0.0004106271843252185    0.005946382783455279
        47                   0.0047         22909.714724251      -2529816.651661087   0.0004106271843252185    0.005946382783455279
WARNING: Pair style restartinfo set but has no restart support (src/pair.cpp:754)
WARNING: Pair style restartinfo set but has no restart support (src/pair.cpp:754)
        48                   0.0048         23395.226293508        -2529816.6516628   0.0003748454915698414    0.006472842312511856
        48                   0.0048         23395.226293508        -2529816.6516628   0.0003748454915698414    0.006472842312511856
WARNING: Pair style restartinfo set but has no restart support (src/pair.cpp:754)
WARNING: Pair style restartinfo set but has no restart support (src/pair.cpp:754)
        49                   0.0049         23881.420633488      -2529816.651664283   0.0004117786769701984    0.005895851490258051
        49                   0.0049         23881.420633488      -2529816.651664283   0.0004117786769701984    0.005895851490258051
WARNING: Pair style restartinfo set but has no restart support (src/pair.cpp:754)
WARNING: Pair style restartinfo set but has no restart support (src/pair.cpp:754)
        50                    0.005         24371.870153361      -2529816.651665793   0.0002408921589085185    0.005187225756413399
        50                    0.005         24371.870153361      -2529816.651665793   0.0002408921589085185    0.005187225756413399
WARNING: Pair style restartinfo set but has no restart support (src/pair.cpp:754)
WARNING: Pair style restartinfo set but has no restart support (src/pair.cpp:754)
        51                   0.0051         24859.178083836      -2529816.651666639   0.0002646685919717488    0.004627622161308579
        51                   0.0051         24859.178083836      -2529816.651666639   0.0002646685919717488    0.004627622161308579
WARNING: Pair style restartinfo set but has no restart support (src/pair.cpp:754)
WARNING: Pair style restartinfo set but has no restart support (src/pair.cpp:754)
        52     0.005200000000000001         25347.253294208      -2529816.651667811   0.0002555662576306195    0.004756297397616072
        52     0.005200000000000001         25347.253294208      -2529816.651667811   0.0002555662576306195    0.004756297397616072
WARNING: Pair style restartinfo set but has no restart support (src/pair.cpp:754)
WARNING: Pair style restartinfo set but has no restart support (src/pair.cpp:754)
        53                   0.0053         25834.312541727      -2529816.651668535   0.0002633920631623939    0.004251824418920866
        53                   0.0053         25834.312541727      -2529816.651668535   0.0002633920631623939    0.004251824418920866
WARNING: Pair style restartinfo set but has no restart support (src/pair.cpp:754)
WARNING: Pair style restartinfo set but has no restart support (src/pair.cpp:754)
        54                   0.0054         26323.227053469       -2529816.65166954   0.0002464103341415164    0.004597422795141086
        54                   0.0054         26323.227053469       -2529816.65166954   0.0002464103341415164    0.004597422795141086
WARNING: Pair style restartinfo set but has no restart support (src/pair.cpp:754)
WARNING: Pair style restartinfo set but has no restart support (src/pair.cpp:754)
        55     0.005500000000000001         26809.802842785       -2529816.65167038   0.0002709192322654774    0.004973518058344607
        55     0.005500000000000001         26809.802842785       -2529816.65167038   0.0002709192322654774    0.004973518058344607
WARNING: Pair style restartinfo set but has no restart support (src/pair.cpp:754)
WARNING: Pair style restartinfo set but has no restart support (src/pair.cpp:754)
        56                   0.0056         27299.305874956      -2529816.651671902   0.0003309388010415587    0.005588445644523199
        56                   0.0056         27299.305874956      -2529816.651671902   0.0003309388010415587    0.005588445644523199
WARNING: Pair style restartinfo set but has no restart support (src/pair.cpp:754)
WARNING: Pair style restartinfo set but has no restart support (src/pair.cpp:754)
        57                   0.0057         27787.431944547      -2529816.651673357   0.0003462838387420057    0.006812392615036542
        57                   0.0057         27787.431944547      -2529816.651673357   0.0003462838387420057    0.006812392615036542
WARNING: Pair style restartinfo set but has no restart support (src/pair.cpp:754)
WARNING: Pair style restartinfo set but has no restart support (src/pair.cpp:754)
        58                   0.0058         28277.038480871      -2529816.651675615   0.0004947631757703485    0.006267938067721532
        58                   0.0058         28277.038480871      -2529816.651675615   0.0004947631757703485    0.006267938067721532
WARNING: Pair style restartinfo set but has no restart support (src/pair.cpp:754)
WARNING: Pair style restartinfo set but has no restart support (src/pair.cpp:754)
        59                   0.0059         28764.197243257       -2529816.65167717   0.0003747004578293571    0.006916985808499633
        59                   0.0059         28764.197243257       -2529816.65167717   0.0003747004578293571    0.006916985808499633
WARNING: Pair style restartinfo set but has no restart support (src/pair.cpp:754)
WARNING: Pair style restartinfo set but has no restart support (src/pair.cpp:754)
        60                    0.006          29248.79797511      -2529816.651679393   0.0004955974659130092    0.006164071300466115
        60                    0.006          29248.79797511      -2529816.651679393   0.0004955974659130092    0.006164071300466115
WARNING: Pair style restartinfo set but has no restart support (src/pair.cpp:754)
WARNING: Pair style restartinfo set but has no restart support (src/pair.cpp:754)
        61                   0.0061         29732.994856606      -2529816.651680821   0.0005833666685907347    0.006470256612043561
        61                   0.0061         29732.994856606      -2529816.651680821   0.0005833666685907347    0.006470256612043561
WARNING: Pair style restartinfo set but has no restart support (src/pair.cpp:754)
WARNING: Pair style restartinfo set but has no restart support (src/pair.cpp:754)
        62     0.006200000000000001         30217.260804163        -2529816.6516827   0.0003519148557603366     0.00601969984618709
        62     0.006200000000000001         30217.260804163        -2529816.6516827   0.0003519148557603366     0.00601969984618709
WARNING: Pair style restartinfo set but has no restart support (src/pair.cpp:754)
WARNING: Pair style restartinfo set but has no restart support (src/pair.cpp:754)
        63                   0.0063         30700.922588813       -2529816.65168428   0.0005112301944727448    0.006722870008381015
        63                   0.0063         30700.922588813       -2529816.65168428   0.0005112301944727448    0.006722870008381015
WARNING: Pair style restartinfo set but has no restart support (src/pair.cpp:754)
WARNING: Pair style restartinfo set but has no restart support (src/pair.cpp:754)
        64                   0.0064         31187.794805205      -2529816.651686362   0.0003446487311242229    0.005898800685068093
        64                   0.0064         31187.794805205      -2529816.651686362   0.0003446487311242229    0.005898800685068093
WARNING: Pair style restartinfo set but has no restart support (src/pair.cpp:754)
WARNING: Pair style restartinfo set but has no restart support (src/pair.cpp:754)
        65     0.006500000000000001         31678.456667497      -2529816.651687822   0.0004999069724443887    0.006374782485643202
        65     0.006500000000000001         31678.456667497      -2529816.651687822   0.0004999069724443887    0.006374782485643202
WARNING: Pair style restartinfo set but has no restart support (src/pair.cpp:754)
WARNING: Pair style restartinfo set but has no restart support (src/pair.cpp:754)
        66                   0.0066          32164.86113245      -2529816.651689588   0.0003514379044518019     0.00589294650534344
        66                   0.0066          32164.86113245      -2529816.651689588   0.0003514379044518019     0.00589294650534344
WARNING: Pair style restartinfo set but has no restart support (src/pair.cpp:754)
WARNING: Pair style restartinfo set but has no restart support (src/pair.cpp:754)
        67                   0.0067         32654.807577125       -2529816.65169112   0.0004396008744945237    0.006604115685305036
        67                   0.0067         32654.807577125       -2529816.65169112   0.0004396008744945237    0.006604115685305036
WARNING: Pair style restartinfo set but has no restart support (src/pair.cpp:754)
WARNING: Pair style restartinfo set but has no restart support (src/pair.cpp:754)
        68                   0.0068          33140.20395003      -2529816.651693008   0.0005462125844388692    0.006145746585423123
        68                   0.0068          33140.20395003      -2529816.651693008   0.0005462125844388692    0.006145746585423123
WARNING: Pair style restartinfo set but has no restart support (src/pair.cpp:754)
WARNING: Pair style restartinfo set but has no restart support (src/pair.cpp:754)
        69     0.006900000000000001         33629.207158403      -2529816.651694538    0.000449643500256287    0.006461231022029989
        69     0.006900000000000001         33629.207158403      -2529816.651694538    0.000449643500256287    0.006461231022029989
WARNING: Pair style restartinfo set but has no restart support (src/pair.cpp:754)
WARNING: Pair style restartinfo set but has no restart support (src/pair.cpp:754)
        70                    0.007         34115.855260237      -2529816.651696374   0.0007232566687795551    0.006098004878320992
        70                    0.007         34115.855260237      -2529816.651696374   0.0007232566687795551    0.006098004878320992
WARNING: Pair style restartinfo set but has no restart support (src/pair.cpp:754)
WARNING: Pair style restartinfo set but has no restart support (src/pair.cpp:754)
        71                   0.0071         34605.811238697      -2529816.651697997    0.000391829412583704    0.006588769698547693
        71                   0.0071         34605.811238697      -2529816.651697997    0.000391829412583704    0.006588769698547693
WARNING: Pair style restartinfo set but has no restart support (src/pair.cpp:754)
WARNING: Pair style restartinfo set but has no restart support (src/pair.cpp:754)
        72     0.007200000000000001         35094.337395419      -2529816.651699843   0.0004886564049401032    0.006058774700454773
        72     0.007200000000000001         35094.337395419      -2529816.651699843   0.0004886564049401032    0.006058774700454773
WARNING: Pair style restartinfo set but has no restart support (src/pair.cpp:754)
WARNING: Pair style restartinfo set but has no restart support (src/pair.cpp:754)
        73                   0.0073          35578.14440694      -2529816.651701831    0.000497328101610106    0.007826585278254547
        73                   0.0073          35578.14440694      -2529816.651701831    0.000497328101610106    0.007826585278254547
WARNING: Pair style restartinfo set but has no restart support (src/pair.cpp:754)
WARNING: Pair style restartinfo set but has no restart support (src/pair.cpp:754)
        74                   0.0074         36066.370312987      -2529816.651704314   0.0003318893966222922    0.006686578863908574
        74                   0.0074         36066.370312987      -2529816.651704314   0.0003318893966222922    0.006686578863908574
WARNING: Pair style restartinfo set but has no restart support (src/pair.cpp:754)
WARNING: Pair style restartinfo set but has no restart support (src/pair.cpp:754)
        75     0.007500000000000001         36551.546197481      -2529816.651705972   0.0003683620015529483    0.006476754412890567
        75     0.007500000000000001         36551.546197481      -2529816.651705972   0.0003683620015529483    0.006476754412890567
WARNING: Pair style restartinfo set but has no restart support (src/pair.cpp:754)
WARNING: Pair style restartinfo set but has no restart support (src/pair.cpp:754)
        76                   0.0076         37037.527137807      -2529816.651707551   0.0002177238748807395    0.005008675199798449
        76                   0.0076         37037.527137807      -2529816.651707551   0.0002177238748807395    0.005008675199798449
WARNING: Pair style restartinfo set but has no restart support (src/pair.cpp:754)
WARNING: Pair style restartinfo set but has no restart support (src/pair.cpp:754)
        77                   0.0077         37525.802937188      -2529816.651708639   0.0003043202439315393    0.005520671796029472
        77                   0.0077         37525.802937188      -2529816.651708639   0.0003043202439315393    0.005520671796029472
WARNING: Pair style restartinfo set but has no restart support (src/pair.cpp:754)
WARNING: Pair style restartinfo set but has no restart support (src/pair.cpp:754)
        78     0.007800000000000001         38013.934167662      -2529816.651709822   0.0002809177711085406    0.004373168843723408
        78     0.007800000000000001         38013.934167662      -2529816.651709822   0.0002809177711085406    0.004373168843723408
WARNING: Pair style restartinfo set but has no restart support (src/pair.cpp:754)
WARNING: Pair style restartinfo set but has no restart support (src/pair.cpp:754)
        79     0.007900000000000001         38500.013035659      -2529816.651710541    0.000235366141823311    0.004564284506151739
        79     0.007900000000000001         38500.013035659      -2529816.651710541    0.000235366141823311    0.004564284506151739
WARNING: Pair style restartinfo set but has no restart support (src/pair.cpp:754)
WARNING: Pair style restartinfo set but has no restart support (src/pair.cpp:754)
        80                    0.008         38988.636093543      -2529816.651711475   0.0002273140145394791    0.004481875444908102
        80                    0.008         38988.636093543      -2529816.651711475   0.0002273140145394791    0.004481875444908102
WARNING: Pair style restartinfo set but has no restart support (src/pair.cpp:754)
WARNING: Pair style restartinfo set but has no restart support (src/pair.cpp:754)
        81                   0.0081         39476.622322281      -2529816.651712449   0.0002544955623556797    0.005497761826875626
        81                   0.0081         39476.622322281      -2529816.651712449   0.0002544955623556797    0.005497761826875626
WARNING: Pair style restartinfo set but has no restart support (src/pair.cpp:754)
WARNING: Pair style restartinfo set but has no restart support (src/pair.cpp:754)
        82     0.008200000000000001         39963.918944797      -2529816.651713931   0.0002592237478990815    0.005011241595824696
        82     0.008200000000000001         39963.918944797      -2529816.651713931   0.0002592237478990815    0.005011241595824696
WARNING: Pair style restartinfo set but has no restart support (src/pair.cpp:754)
WARNING: Pair style restartinfo set but has no restart support (src/pair.cpp:754)
        83                   0.0083         40451.252932276       -2529816.65171486    0.000282246884207816    0.005064112611396653
        83                   0.0083         40451.252932276       -2529816.65171486    0.000282246884207816    0.005064112611396653
WARNING: Pair style restartinfo set but has no restart support (src/pair.cpp:754)
WARNING: Pair style restartinfo set but has no restart support (src/pair.cpp:754)
        84     0.008400000000000001         40938.498370383      -2529816.651715894   0.0002489322950294777    0.004356552232947917
        84     0.008400000000000001         40938.498370383      -2529816.651715894   0.0002489322950294777    0.004356552232947917
WARNING: Pair style restartinfo set but has no restart support (src/pair.cpp:754)
WARNING: Pair style restartinfo set but has no restart support (src/pair.cpp:754)
        85     0.008500000000000001         41426.221575808      -2529816.651716787   0.0004312912512224613    0.005131716872916152
        85     0.008500000000000001         41426.221575808      -2529816.651716787   0.0004312912512224613    0.005131716872916152
WARNING: Pair style restartinfo set but has no restart support (src/pair.cpp:754)
WARNING: Pair style restartinfo set but has no restart support (src/pair.cpp:754)
        86                   0.0086         41914.929413908       -2529816.65171794   0.0003666500733755379     0.00484716644711646
        86                   0.0086         41914.929413908       -2529816.65171794   0.0003666500733755379     0.00484716644711646
WARNING: Pair style restartinfo set but has no restart support (src/pair.cpp:754)
WARNING: Pair style restartinfo set but has no restart support (src/pair.cpp:754)
        87     0.008700000000000001         42400.716629798      -2529816.651718931   0.0004833671676366565    0.005304046125533065
        87     0.008700000000000001         42400.716629798      -2529816.651718931   0.0004833671676366565    0.005304046125533065
WARNING: Pair style restartinfo set but has no restart support (src/pair.cpp:754)
WARNING: Pair style restartinfo set but has no restart support (src/pair.cpp:754)
        88     0.008800000000000001         42888.156540512       -2529816.65171998   0.0002584744614381688    0.004292433740537659
        88     0.008800000000000001         42888.156540512       -2529816.65171998   0.0002584744614381688    0.004292433740537659
WARNING: Pair style restartinfo set but has no restart support (src/pair.cpp:754)
WARNING: Pair style restartinfo set but has no restart support (src/pair.cpp:754)
        89                   0.0089         43368.114761106       -2529816.65172098   0.0003322125709221393    0.005438240707592044
        89                   0.0089         43368.114761106       -2529816.65172098   0.0003322125709221393    0.005438240707592044
WARNING: Pair style restartinfo set but has no restart support (src/pair.cpp:754)
WARNING: Pair style restartinfo set but has no restart support (src/pair.cpp:754)
        90     0.009000000000000001         43853.113767232      -2529816.651722137   0.0001958295146486874     0.00435848362153528
        90     0.009000000000000001         43853.113767232      -2529816.651722137   0.0001958295146486874     0.00435848362153528
WARNING: Pair style restartinfo set but has no restart support (src/pair.cpp:754)
WARNING: Pair style restartinfo set but has no restart support (src/pair.cpp:754)
        91                   0.0091         44344.936704962      -2529816.651722962    0.000248515227348951    0.004442996121302166
        91                   0.0091         44344.936704962      -2529816.651722962    0.000248515227348951    0.004442996121302166
WARNING: Pair style restartinfo set but has no restart support (src/pair.cpp:754)
WARNING: Pair style restartinfo set but has no restart support (src/pair.cpp:754)
        92                   0.0092         44830.785635189      -2529816.651723672   0.0002708039243259956    0.003583061252188954
        92                   0.0092         44830.785635189      -2529816.651723672   0.0002708039243259956    0.003583061252188954
WARNING: Pair style restartinfo set but has no restart support (src/pair.cpp:754)
WARNING: Pair style restartinfo set but has no restart support (src/pair.cpp:754)
        93     0.009300000000000001         45319.091023051       -2529816.65172425    0.000234647399823767    0.003987739281649014
        93     0.009300000000000001         45319.091023051       -2529816.65172425    0.000234647399823767    0.003987739281649014
WARNING: Pair style restartinfo set but has no restart support (src/pair.cpp:754)
WARNING: Pair style restartinfo set but has no restart support (src/pair.cpp:754)
        94                   0.0094         45801.848919187        -2529816.6517248   0.0001986505961319493    0.003593542578700894
        94                   0.0094         45801.848919187        -2529816.6517248   0.0001986505961319493    0.003593542578700894
WARNING: Pair style restartinfo set but has no restart support (src/pair.cpp:754)
WARNING: Pair style restartinfo set but has no restart support (src/pair.cpp:754)
        95                   0.0095         46291.836346108      -2529816.651725634   0.0002324807499863274    0.004829254627598759
        95                   0.0095         46291.836346108      -2529816.651725634   0.0002324807499863274    0.004829254627598759
WARNING: Pair style restartinfo set but has no restart support (src/pair.cpp:754)
WARNING: Pair style restartinfo set but has no restart support (src/pair.cpp:754)
        96     0.009600000000000001         46778.699758052      -2529816.651726624   0.0002089478987244084    0.004291973538401197
        96     0.009600000000000001         46778.699758052      -2529816.651726624   0.0002089478987244084    0.004291973538401197
WARNING: Pair style restartinfo set but has no restart support (src/pair.cpp:754)
WARNING: Pair style restartinfo set but has no restart support (src/pair.cpp:754)
        97                   0.0097          47266.26273118      -2529816.651727621   0.0003230050692151036    0.005238340608844323
        97                   0.0097          47266.26273118      -2529816.651727621   0.0003230050692151036    0.005238340608844323
WARNING: Pair style restartinfo set but has no restart support (src/pair.cpp:754)
WARNING: Pair style restartinfo set but has no restart support (src/pair.cpp:754)
        98                   0.0098         47757.031822631      -2529816.651728548   0.0002530896319711401     0.00433115031228287
        98                   0.0098         47757.031822631      -2529816.651728548   0.0002530896319711401     0.00433115031228287
WARNING: Pair style restartinfo set but has no restart support (src/pair.cpp:754)
WARNING: Pair style restartinfo set but has no restart support (src/pair.cpp:754)
        99     0.009900000000000001         48243.850852184      -2529816.651729622   0.0002880737187884487    0.004876091583068947
        99     0.009900000000000001         48243.850852184      -2529816.651729622   0.0002880737187884487    0.004876091583068947
WARNING: Too many warnings: 101 vs 100. All future warnings will be suppressed (src/thermo.cpp:466)
WARNING: Too many warnings: 101 vs 100. All future warnings will be suppressed (src/thermo.cpp:466)
       100                     0.01         48730.234759285      -2529816.651730386   0.0002243848715972851    0.003515361354013452
       100                     0.01         48730.234759285      -2529816.651730386   0.0002243848715972851    0.003515361354013452
       101                   0.0101         49217.351762236      -2529816.651730906   0.0002793750705558087     0.00353003654878959
       101                   0.0101         49217.351762236      -2529816.651730906   0.0002793750705558087     0.00353003654878959
       102                   0.0102          49702.25550388      -2529816.651731306   0.0001884603242201603    0.003072995655308612
       102                   0.0102          49702.25550388      -2529816.651731306   0.0001884603242201603    0.003072995655308612
       103                   0.0103         50187.586900467      -2529816.651731785    0.000214193941760657    0.003347244131312959
       103                   0.0103         50187.586900467      -2529816.651731785    0.000214193941760657    0.003347244131312959
       104                   0.0104         50674.652532753      -2529816.651732193   0.0001339099531684346    0.002638852499314466
       104                   0.0104         50674.652532753      -2529816.651732193   0.0001339099531684346    0.002638852499314466
       105                   0.0105         51162.130987521      -2529816.651732499   0.0001355089838795814     0.00236313982067462
       105                   0.0105         51162.130987521      -2529816.651732499   0.0001355089838795814     0.00236313982067462
       106                   0.0106         51647.624833387      -2529816.651732691   0.0001038139331031809    0.002032192044701672
       106                   0.0106         51647.624833387      -2529816.651732691   0.0001038139331031809    0.002032192044701672
       107                   0.0107         52135.713964382      -2529816.651732928   0.0001217241106727801    0.002382878586259604
       107                   0.0107         52135.713964382      -2529816.651732928   0.0001217241106727801    0.002382878586259604
       108                   0.0108         52618.929618843      -2529816.651733114   0.0001025591258827716     0.00197357222562804
       108                   0.0108         52618.929618843      -2529816.651733114   0.0001025591258827716     0.00197357222562804
       109                   0.0109          53104.44669435      -2529816.651733306   0.0001407404471969659    0.002230486244967932
       109                   0.0109          53104.44669435      -2529816.651733306   0.0001407404471969659    0.002230486244967932
       110                    0.011         53588.115873102      -2529816.651733491   0.0001522460714330626    0.002100935981582345
       110                    0.011         53588.115873102      -2529816.651733491   0.0001522460714330626    0.002100935981582345
       111                   0.0111         54078.088836326       -2529816.65173371   0.0001049599688294186    0.002218241065122546
       111                   0.0111         54078.088836326       -2529816.65173371   0.0001049599688294186    0.002218241065122546
       112                   0.0112         54564.764658644      -2529816.651733881   0.0001080624398077943    0.002087934295585468
       112                   0.0112         54564.764658644      -2529816.651733881   0.0001080624398077943    0.002087934295585468
       113                   0.0113         55050.993121052      -2529816.651734204   0.0001845330342196833    0.002995027976842642
       113                   0.0113         55050.993121052      -2529816.651734204   0.0001845330342196833    0.002995027976842642
       114                   0.0114         55536.957453347      -2529816.651734525   0.0001172369583293687    0.002633735608207396
       114                   0.0114         55536.957453347      -2529816.651734525   0.0001172369583293687    0.002633735608207396
       115                   0.0115         56024.400833952      -2529816.651734882    0.000153490567351796    0.002582414683662183
       115                   0.0115         56024.400833952      -2529816.651734882    0.000153490567351796    0.002582414683662183
       116                   0.0116         56510.520935973      -2529816.651735074    0.000133330233874081     0.00211098944580968
       116                   0.0116         56510.520935973      -2529816.651735074    0.000133330233874081     0.00211098944580968
       117                   0.0117         56998.535784859      -2529816.651735292   0.0001217513554594895    0.002103478379327067
       117                   0.0117         56998.535784859      -2529816.651735292   0.0001217513554594895    0.002103478379327067
       118                   0.0118         57482.455712162      -2529816.651735448   0.0001152392900908763    0.001990972117170988
       118                   0.0118         57482.455712162      -2529816.651735448   0.0001152392900908763    0.001990972117170988
       119                   0.0119         57970.830695519      -2529816.651735658   0.0001161073697193457    0.002048673923722189
       119                   0.0119         57970.830695519      -2529816.651735658   0.0001161073697193457    0.002048673923722189
       120                    0.012         58457.542814784      -2529816.651735792   0.0001122880743042402    0.001851702087601316
       120                    0.012         58457.542814784      -2529816.651735792   0.0001122880743042402    0.001851702087601316
       121                   0.0121         58947.052412194      -2529816.651735986   0.0001416442573035439    0.002099715256897155
       121                   0.0121         58947.052412194      -2529816.651735986   0.0001416442573035439    0.002099715256897155
       122                   0.0122         59435.135432835      -2529816.651736147   0.0001677774705425156    0.001916432896701403
       122                   0.0122         59435.135432835      -2529816.651736147   0.0001677774705425156    0.001916432896701403
       123                   0.0123         59924.149809128      -2529816.651736306   0.0001370711857454354    0.001835995653850932
       123                   0.0123         59924.149809128      -2529816.651736306   0.0001370711857454354    0.001835995653850932
       124                   0.0124          60410.51827619       -2529816.65173642   9.690376595388072e-05    0.001603769953183381
       124                   0.0124          60410.51827619       -2529816.65173642   9.690376595388072e-05    0.001603769953183381
       125                   0.0125         60900.043575154      -2529816.651736549   0.0001113781807775406     0.00160914454512373
       125                   0.0125         60900.043575154      -2529816.651736549   0.0001113781807775406     0.00160914454512373
       126                   0.0126         61384.310799662      -2529816.651736643   8.545292145150567e-05    0.001542751256607029
       126                   0.0126         61384.310799662      -2529816.651736643   8.545292145150567e-05    0.001542751256607029
       127                   0.0127         61872.846506229      -2529816.651736766   0.0001028653612650914    0.001570311452588465
       127                   0.0127         61872.846506229      -2529816.651736766   0.0001028653612650914    0.001570311452588465
       128                   0.0128         62362.617979836      -2529816.651736854   0.0001005682252348734    0.001583766595343288
       128                   0.0128         62362.617979836      -2529816.651736854   0.0001005682252348734    0.001583766595343288
       129                   0.0129         62853.871935505      -2529816.651736986   9.667476008575431e-05     0.00168233316098744
       129                   0.0129         62853.871935505      -2529816.651736986   9.667476008575431e-05     0.00168233316098744
       130                    0.013         63343.453789679      -2529816.651737092   7.701857962643874e-05     0.00151654224356994
       130                    0.013         63343.453789679      -2529816.651737092   7.701857962643874e-05     0.00151654224356994
       131                   0.0131         63830.972736195      -2529816.651737202   8.481612426841755e-05    0.001468549138712605
       131                   0.0131         63830.972736195      -2529816.651737202   8.481612426841755e-05    0.001468549138712605
       132                   0.0132         64319.921607729      -2529816.651737295   8.626259685062164e-05    0.001655881094028493
       132                   0.0132         64319.921607729      -2529816.651737295   8.626259685062164e-05    0.001655881094028493
       133                   0.0133         64808.410153363      -2529816.651737455   0.0001055799445863871    0.001960254629845966
       133                   0.0133         64808.410153363      -2529816.651737455   0.0001055799445863871    0.001960254629845966
       134                   0.0134       65296.68385769599      -2529816.651737599   0.0001272853582906223    0.002076950360930922
       134                   0.0134       65296.68385769599      -2529816.651737599   0.0001272853582906223    0.002076950360930922
       135                   0.0135         65782.724580365      -2529816.651737833   0.0001336908280457003    0.002097882322417427
       135                   0.0135         65782.724580365      -2529816.651737833   0.0001336908280457003    0.002097882322417427
       136                   0.0136       66267.43863603601      -2529816.651738011    0.000160933149129034    0.002249741240872076
       136                   0.0136       66267.43863603601      -2529816.651738011    0.000160933149129034    0.002249741240872076
       137                   0.0137         66756.645766299      -2529816.651738253   0.0001209311095012177    0.002359997831733524
       137                   0.0137         66756.645766299      -2529816.651738253   0.0001209311095012177    0.002359997831733524
       138                   0.0138         67247.036452272      -2529816.651738487   0.0001553809791166867    0.002586554452512667
       138                   0.0138         67247.036452272      -2529816.651738487   0.0001553809791166867    0.002586554452512667
       139                   0.0139         67733.866803696      -2529816.651738865   0.0001792068399512788    0.002679251260235206
       139                   0.0139         67733.866803696      -2529816.651738865   0.0001792068399512788    0.002679251260235206
       140                    0.014          68219.60243676      -2529816.651739132   0.0001946778685406489    0.002658669139407955
       140                    0.014          68219.60243676      -2529816.651739132   0.0001946778685406489    0.002658669139407955
       141                   0.0141         68704.658723229      -2529816.651739497   0.0001819029714230472    0.002607779509413473
       141                   0.0141         68704.658723229      -2529816.651739497   0.0001819029714230472    0.002607779509413473
       142                   0.0142         69193.577598837      -2529816.651739783   0.0001941998080416555    0.003055981105171667
       142                   0.0142         69193.577598837      -2529816.651739783   0.0001941998080416555    0.003055981105171667
       143                   0.0143       69680.33285849301      -2529816.651740336   0.0002147256720230021    0.003657798164745544
       143                   0.0143       69680.33285849301      -2529816.651740336   0.0002147256720230021    0.003657798164745544
       144                   0.0144       70169.53166223101      -2529816.651740928   0.0002673235403869902     0.00426594467695213
       144                   0.0144       70169.53166223101      -2529816.651740928   0.0002673235403869902     0.00426594467695213
       145                   0.0145         70659.129010517      -2529816.651741805   0.0002118705259096347     0.00381414311317345
       145                   0.0145         70659.129010517      -2529816.651741805   0.0002118705259096347     0.00381414311317345
       146                   0.0146       71146.69621250201      -2529816.651742337   0.0003021969816571976    0.003843810604327694
       146                   0.0146       71146.69621250201      -2529816.651742337   0.0003021969816571976    0.003843810604327694
       147                   0.0147       71635.02685074101      -2529816.651742903   0.0001661660020634281    0.002967873992424213
       147                   0.0147       71635.02685074101      -2529816.651742903   0.0001661660020634281    0.002967873992424213
       148                   0.0148         72124.885045352       -2529816.65174328   0.0001865857070802315    0.003224482104442419
       148                   0.0148         72124.885045352       -2529816.65174328   0.0001865857070802315    0.003224482104442419
       149                   0.0149         72611.270706533      -2529816.651743761   0.0001916585775227943    0.003275784066610874
       149                   0.0149         72611.270706533      -2529816.651743761   0.0001916585775227943    0.003275784066610874
       150                    0.015       73093.38892305001      -2529816.651744238    0.000208380970071344    0.003693982097067464
       150                    0.015       73093.38892305001      -2529816.651744238    0.000208380970071344    0.003693982097067464
       151                   0.0151       73580.45537536201      -2529816.651744825   0.0001533824923236199    0.003042887980750693
       151                   0.0151       73580.45537536201      -2529816.651744825   0.0001533824923236199    0.003042887980750693
       152                   0.0152         74065.682854782      -2529816.651745231   0.0002547171846202165    0.003303947515131387
       152                   0.0152         74065.682854782      -2529816.651745231   0.0002547171846202165    0.003303947515131387
       153                   0.0153       74554.63999389301      -2529816.651745609   0.0001462093936109507     0.00280778025902379
       153                   0.0153       74554.63999389301      -2529816.651745609   0.0001462093936109507     0.00280778025902379
       154                   0.0154       75045.82524783001      -2529816.651745959   0.0002038818374816281    0.003246978464835208
       154                   0.0154       75045.82524783001      -2529816.651745959   0.0002038818374816281    0.003246978464835208
       155                   0.0155         75531.438072773      -2529816.651746463    0.000136389296417589    0.002876034767187607
       155                   0.0155         75531.438072773      -2529816.651746463    0.000136389296417589    0.002876034767187607
       156                   0.0156         76021.491597742      -2529816.651746819   0.0001845995100750949    0.003137882372704698
       156                   0.0156         76021.491597742      -2529816.651746819   0.0001845995100750949    0.003137882372704698
       157                   0.0157       76510.68302803901      -2529816.651747214   0.0001295306705239724    0.002785605673221791
       157                   0.0157       76510.68302803901      -2529816.651747214   0.0001295306705239724    0.002785605673221791
       158                   0.0158         76999.947299979      -2529816.651747569   0.0001978385188029568    0.003130901451918729
       158                   0.0158         76999.947299979      -2529816.651747569   0.0001978385188029568    0.003130901451918729
       159                   0.0159       77489.56274178701       -2529816.65174796   0.0001452142489975312    0.002670876283402774
       159                   0.0159       77489.56274178701       -2529816.65174796   0.0001452142489975312    0.002670876283402774
       160                    0.016       77982.74065997401      -2529816.651748261   0.0002056601034178766    0.003041477644625875
       160                    0.016       77982.74065997401      -2529816.651748261   0.0002056601034178766    0.003041477644625875
       161                   0.0161       78474.49044297001      -2529816.651748652   0.0001588144088103535    0.002637043718379381
       161                   0.0161       78474.49044297001      -2529816.651748652   0.0001588144088103535    0.002637043718379381
       162                   0.0162       78962.01204850701      -2529816.651748941   0.0001529004335734978    0.002793382739779764
       162                   0.0162       78962.01204850701      -2529816.651748941   0.0001529004335734978    0.002793382739779764
       163                   0.0163         79453.514007595      -2529816.651749261   0.0001517368221884951     0.00264953538984349
       163                   0.0163         79453.514007595      -2529816.651749261   0.0001517368221884951     0.00264953538984349
       164                   0.0164         79938.030407546      -2529816.651749622   0.0002366024052411068     0.00327393652788237
       164                   0.0164         79938.030407546      -2529816.651749622   0.0002366024052411068     0.00327393652788237
       165                   0.0165       80423.56901462801      -2529816.651750132   0.0002150631168259462      0.0030959590895173
       165                   0.0165       80423.56901462801      -2529816.651750132   0.0002150631168259462      0.0030959590895173
       166                   0.0166         80909.225906758      -2529816.651750681   0.0003347025245706153    0.004227813815315682
       166                   0.0166         80909.225906758      -2529816.651750681   0.0003347025245706153    0.004227813815315682
       167                   0.0167       81401.21541621201      -2529816.651751417   0.0003253373141812064    0.004030968235747829
       167                   0.0167       81401.21541621201      -2529816.651751417   0.0003253373141812064    0.004030968235747829
       168                   0.0168         81889.851663344      -2529816.651752221   0.0003087851030210533    0.004698173342777311
       168                   0.0168         81889.851663344      -2529816.651752221   0.0003087851030210533    0.004698173342777311
       169                   0.0169       82382.73424344001      -2529816.651753122   0.0002872009571748962      0.0041022418053042
       169                   0.0169       82382.73424344001      -2529816.651753122   0.0002872009571748962      0.0041022418053042
       170                    0.017       82871.15612738401       -2529816.65175409   0.0003179244249947935    0.005459518128217353
       170                    0.017       82871.15612738401       -2529816.65175409   0.0003179244249947935    0.005459518128217353
       171                   0.0171       83359.83561284201      -2529816.651755255   0.0004220562788416204    0.005047941888945248
       171                   0.0171       83359.83561284201      -2529816.651755255   0.0004220562788416204    0.005047941888945248
       172                   0.0172       83850.42263490101      -2529816.651756513   0.0003670491820911134    0.005901158939949345
       172                   0.0172       83850.42263490101      -2529816.651756513   0.0003670491820911134    0.005901158939949345
       173                   0.0173         84345.427606008      -2529816.651757777    0.000267440322008719    0.005047886859659063
       173                   0.0173         84345.427606008      -2529816.651757777    0.000267440322008719    0.005047886859659063
       174                   0.0174       84835.13574796701      -2529816.651759149   0.0003390376904518807    0.006035540349809894
       174                   0.0174       84835.13574796701      -2529816.651759149   0.0003390376904518807    0.006035540349809894
       175                   0.0175         85320.095551709      -2529816.651760539   0.0003155456426806594     0.00524901700155665
       175                   0.0175         85320.095551709      -2529816.651760539   0.0003155456426806594     0.00524901700155665
       176                   0.0176       85811.50474516401      -2529816.651762105   0.0003592205628832913     0.00695259930247374
       176                   0.0176       85811.50474516401      -2529816.651762105   0.0003592205628832913     0.00695259930247374
       177                   0.0177         86298.085640266      -2529816.651764261   0.0003504266350851789    0.006991269502763959
       177                   0.0177         86298.085640266      -2529816.651764261   0.0003504266350851789    0.006991269502763959
       178                   0.0178         86785.502145312      -2529816.651766866   0.0003882757623226756    0.007608744760158435
       178                   0.0178         86785.502145312      -2529816.651766866   0.0003882757623226756    0.007608744760158435
       179                   0.0179         87276.510309228      -2529816.651768939   0.0004326974739408567      0.0065061573277052
       179                   0.0179         87276.510309228      -2529816.651768939   0.0004326974739408567      0.0065061573277052
       180                    0.018         87763.543747081      -2529816.651771002   0.0004894478178357684    0.007121046163877405
       180                    0.018         87763.543747081      -2529816.651771002   0.0004894478178357684    0.007121046163877405
       181                   0.0181         88254.220561971      -2529816.651772606   0.0004435992284632813    0.005923352295391281
       181                   0.0181         88254.220561971      -2529816.651772606   0.0004435992284632813    0.005923352295391281
       182                   0.0182       88746.22058553601      -2529816.651774431   0.0003859502632367848    0.007003597495536283
       182                   0.0182       88746.22058553601      -2529816.651774431   0.0003859502632367848    0.007003597495536283
       183                   0.0183       89236.82878031401       -2529816.65177632   0.0003956255627256487    0.006112623198989185
       183                   0.0183       89236.82878031401       -2529816.65177632   0.0003956255627256487    0.006112623198989185
       184                   0.0184       89727.41290497001      -2529816.651778182   0.0003307305116900078    0.006119751282316207
       184                   0.0184       89727.41290497001      -2529816.651778182   0.0003307305116900078    0.006119751282316207
       185                   0.0185         90215.995622364      -2529816.651779415   0.0002747188873562979    0.005244009600049612
       185                   0.0185         90215.995622364      -2529816.651779415   0.0002747188873562979    0.005244009600049612
       186                   0.0186       90707.46254720901      -2529816.651781095   0.0004049748452024241    0.006545240177568573
       186                   0.0186       90707.46254720901      -2529816.651781095   0.0004049748452024241    0.006545240177568573
       187                   0.0187       91194.47465653601      -2529816.651782424   0.0003142780942162907    0.005249605070465911
       187                   0.0187       91194.47465653601      -2529816.651782424   0.0003142780942162907    0.005249605070465911
       188                   0.0188       91686.36985343401      -2529816.651783806   0.0004196655928130646    0.005869579847517742
       188                   0.0188       91686.36985343401      -2529816.651783806   0.0004196655928130646    0.005869579847517742
       189                   0.0189       92176.40326536601      -2529816.651784948   0.0001923509538380075    0.004485934439568098
       189                   0.0189       92176.40326536601      -2529816.651784948   0.0001923509538380075    0.004485934439568098
       190                    0.019       92663.27433591201      -2529816.651785921   0.0002839740042300611     0.00508371445850006
       190                    0.019       92663.27433591201      -2529816.651785921   0.0002839740042300611     0.00508371445850006
       191                   0.0191       93152.44077762701      -2529816.651786873    0.000231247215098436    0.004404535685832377
       191                   0.0191       93152.44077762701      -2529816.651786873    0.000231247215098436    0.004404535685832377
       192                   0.0192         93644.249093088      -2529816.651787877   0.0002762156605672992    0.004890462493463978
       192                   0.0192         93644.249093088      -2529816.651787877   0.0002762156605672992    0.004890462493463978
       193                   0.0193       94134.62881022401      -2529816.651788753   0.0002766373397524214     0.00446519743416094
       193                   0.0193       94134.62881022401      -2529816.651788753   0.0002766373397524214     0.00446519743416094
       194                   0.0194         94623.577914216      -2529816.651789729   0.0003433174413845712    0.005060567355078974
       194                   0.0194         94623.577914216      -2529816.651789729   0.0003433174413845712    0.005060567355078974
       195                   0.0195       95114.26368895701      -2529816.651790659   0.0002691247620549535    0.004913442166841847
       195                   0.0195       95114.26368895701      -2529816.651790659   0.0002691247620549535    0.004913442166841847
       196                   0.0196       95607.19733555301      -2529816.651791957   0.0003038265581514236    0.005140696831487004
       196                   0.0196       95607.19733555301      -2529816.651791957   0.0003038265581514236    0.005140696831487004
       197                   0.0197         96096.294189137      -2529816.651792758   0.0001969775841867555     0.00390732711453261
       197                   0.0197         96096.294189137      -2529816.651792758   0.0001969775841867555     0.00390732711453261
       198                   0.0198         96586.878508668      -2529816.651793587   0.0002245500781657191    0.004051883257696842
       198                   0.0198         96586.878508668      -2529816.651793587   0.0002245500781657191    0.004051883257696842
       199                   0.0199       97078.87418286201      -2529816.651794155   0.0001887739023359452    0.003579682293067339
       199                   0.0199       97078.87418286201      -2529816.651794155   0.0001887739023359452    0.003579682293067339
       200                     0.02       97568.11666002801      -2529816.651794795   0.0002305962350300275    0.003429960211238631
       200                     0.02       97568.11666002801      -2529816.651794795   0.0002305962350300275    0.003429960211238631
       201                   0.0201         98058.295205755      -2529816.651795145   0.0002122906139832362     0.00278381271022694
       201                   0.0201         98058.295205755      -2529816.651795145   0.0002122906139832362     0.00278381271022694
       202                   0.0202         98545.780412448      -2529816.651795522   0.0001762717093738778    0.002605659832101835
       202                   0.0202         98545.780412448      -2529816.651795522   0.0001762717093738778    0.002605659832101835
       203                   0.0203         99039.023778556      -2529816.651795727   0.0001682865636517695     0.00231961280558971
       203                   0.0203         99039.023778556      -2529816.651795727   0.0001682865636517695     0.00231961280558971
       204                   0.0204       99533.02827758501      -2529816.651796002   0.0001594275548985291     0.00252117712875991
       204                   0.0204       99533.02827758501      -2529816.651796002   0.0001594275548985291     0.00252117712875991
       205                   0.0205        100023.945709345      -2529816.651796244   0.0001238080948746772    0.002333408677306468
       205                   0.0205        100023.945709345      -2529816.651796244   0.0001238080948746772    0.002333408677306468
       206                   0.0206        100512.610490121       -2529816.65179658    0.000137970628317377    0.002682337386994041
       206                   0.0206        100512.610490121       -2529816.65179658    0.000137970628317377    0.002682337386994041
       207                   0.0207         101001.54484237      -2529816.651796829   0.0001404393424365885    0.002343249642486034
       207                   0.0207         101001.54484237      -2529816.651796829   0.0001404393424365885    0.002343249642486034
       208                   0.0208        101486.318666045      -2529816.651797052   0.0001214843306124643    0.001986653353127838
       208                   0.0208        101486.318666045      -2529816.651797052   0.0001214843306124643    0.001986653353127838
       209                   0.0209         101978.71876291      -2529816.651797177    0.000110900448723727    0.001656106509627117
       209                   0.0209         101978.71876291      -2529816.651797177    0.000110900448723727    0.001656106509627117
       210                    0.021        102467.703714793      -2529816.651797324   0.0001078794638700559     0.00170833995249087
       210                    0.021        102467.703714793      -2529816.651797324   0.0001078794638700559     0.00170833995249087
       211                   0.0211        102957.610415017      -2529816.651797434   8.533272067089944e-05    0.001682386027956738
       211                   0.0211        102957.610415017      -2529816.651797434   8.533272067089944e-05    0.001682386027956738
       212                   0.0212        103449.912356463      -2529816.651797547    7.43298239258178e-05    0.001379506065986876
       212                   0.0212        103449.912356463      -2529816.651797547    7.43298239258178e-05    0.001379506065986876
       213                   0.0213        103936.836207068      -2529816.651797607   6.169612548681294e-05    0.001215273302576843
       213                   0.0213        103936.836207068      -2529816.651797607   6.169612548681294e-05    0.001215273302576843
       214                   0.0214        104428.450405651      -2529816.651797688   5.460240951159318e-05    0.001171744261236542
       214                   0.0214        104428.450405651      -2529816.651797688   5.460240951159318e-05    0.001171744261236542
       215                   0.0215         104920.31383729      -2529816.651797738   7.029660759116474e-05    0.001199102867780376
       215                   0.0215         104920.31383729      -2529816.651797738   7.029660759116474e-05    0.001199102867780376
       216                   0.0216        105411.834654794      -2529816.651797795   6.396739310346797e-05    0.001006041645437728
       216                   0.0216        105411.834654794      -2529816.651797795   6.396739310346797e-05    0.001006041645437728
       217                   0.0217        106151.276422908      -2529816.651797825   4.423662275947898e-05   0.0008560171878111946
       217                   0.0217        106151.276422908      -2529816.651797825   4.423662275947898e-05   0.0008560171878111946
Loop time of 106151 on 128 procs for 217 steps with 2814 atoms

Loop time of 106151 on 128 procs for 217 steps with 2814 atoms

276.9% CPU use with 4 MPI tasks x 32 OpenMP threads
276.9% CPU use with 4 MPI tasks x 32 OpenMP threads

Minimization stats:
  Stopping criterion = force tolerance
  Energy initial, next-to-last, final = 
     -2529815.54780325  -2529816.65179779  -2529816.65179783
  Force two-norm initial, final = 6.3240738 0.00085601719
  Force max component initial, final = 0.1603833 4.4236623e-05
  Final line search alpha, max atom move = 1 4.4236623e-05
  Iterations, force evaluations = 217 434

Minimization stats:
  Stopping criterion = force tolerance
  Energy initial, next-to-last, final = 
     -2529815.54780325  -2529816.65179779  -2529816.65179783
  Force two-norm initial, final = 6.3240738 0.00085601719
  Force max component initial, final = 0.1603833 4.4236623e-05
  Final line search alpha, max atom move = 1 4.4236623e-05
  Iterations, force evaluations = 217 434

MPI task timing breakdown:
Section |  min time  |  avg time  |  max time  |%varavg| %total
---------------------------------------------------------------

MPI task timing breakdown:
Section |  min time  |  avg time  |  max time  |%varavg| %total
---------------------------------------------------------------
Pair    | 1.0472e+05 | 1.0501e+05 | 1.0527e+05 |  60.2 | 98.93
Pair    | 1.0472e+05 | 1.0501e+05 | 1.0527e+05 |  60.2 | 98.93
Neigh   | 19.424     | 19.6       | 19.731     |   2.6 |  0.02
Neigh   | 19.424     | 19.6       | 19.731     |   2.6 |  0.02
Comm    | 860.59     | 1120.6     | 1410.4     | 583.3 |  1.06
Comm    | 860.59     | 1120.6     | 1410.4     | 583.3 |  1.06
Output  | 0.59878    | 0.59934    | 0.60101    |   0.1 |  0.00
Output  | 0.59878    | 0.59934    | 0.60101    |   0.1 |  0.00
Modify  | 0          | 0          | 0          |   0.0 |  0.00
Modify  | 0          | 0          | 0          |   0.0 |  0.00
Other   |            | 0.1823     |            |       |  0.00
Other   |            | 0.1823     |            |       |  0.00

Nlocal:          703.5 ave         723 max         688 min
Histogram: 2 0 0 0 0 0 1 0 0 1
Nghost:        8107.25 ave        8130 max        8085 min
Histogram: 2 0 0 0 0 0 0 0 0 2
Neighs:              0 ave           0 max           0 min
Histogram: 4 0 0 0 0 0 0 0 0 0
FullNghs:       454966 ave      468151 max      445184 min
Histogram: 2 0 0 0 0 0 1 0 0 1

Nlocal:          703.5 ave         723 max         688 min
Histogram: 2 0 0 0 0 0 1 0 0 1
Nghost:        8107.25 ave        8130 max        8085 min
Histogram: 2 0 0 0 0 0 0 0 0 2
Neighs:              0 ave           0 max           0 min
Histogram: 4 0 0 0 0 0 0 0 0 0
FullNghs:       454966 ave      468151 max      445184 min
Histogram: 2 0 0 0 0 0 1 0 0 1


Total # of neighbors = 1819866
Ave neighs/atom = 646.71855
Neighbor list builds = 435
Dangerous builds = 0
Total # of neighbors = 1819866
Ave neighs/atom = 646.71855
Neighbor list builds = 435
Dangerous builds = 0
write_data /home/p/phrrpq/bilayer_relaxations/MoS2_WS2/P/12_twirl/MoS2_WS2_P_12_twirl.data
System init for write_data ...
System init for write_data ...
Generated 0 of 3 mixed pair_coeff terms from geometric mixing rule
Generated 0 of 3 mixed pair_coeff terms from geometric mixing rule

Total wall time: 29:37:17
Total wall time: 29:37:17
