OMP_THREADS: 12
MPI: 1
NTASKS-PER-NODE: 4
CPUS_PER_TASK: 12
LAMMPS (28 Mar 2023 - Development)
  using 12 OpenMP thread(s) per MPI task
  using 12 OpenMP thread(s) per MPI task
Reading data file ...
  triclinic box = (0 0 0) to (24.903792 21.567317 30) with tilt (12.451896 0 0)
WARNING: Triclinic box skew is large. LAMMPS will run inefficiently. (src/domain.cpp:220)
  1 by 2 by 2 MPI processor grid
  reading atoms ...
  366 atoms
  read_data CPU = 0.026 seconds
CUDA unavailable, setting device type to torch::kCPU.
CUDA unavailable, setting device type to torch::kCPU.
CUDA unavailable, setting device type to torch::kCPU.
CUDA unavailable, setting device type to torch::kCPU.
Loading MACE model from "/home/theory/phrrpq/bilayer_relaxations/MoWSSe_bi_radius_8_reduced_all_1_swa_800_run-123_swa.model-lammps.pt" ... finished.
Loading MACE model from "/home/theory/phrrpq/bilayer_relaxations/MoWSSe_bi_radius_8_reduced_all_1_swa_800_run-123_swa.model-lammps.pt" ... finished.
Loading MACE model from "/home/theory/phrrpq/bilayer_relaxations/MoWSSe_bi_radius_8_reduced_all_1_swa_800_run-123_swa.model-lammps.pt" ... finished.
  - The torch_float_dtype is: Double
  - The torch_float_dtype is: Double
  - The r_max is: 8.
  - The r_max is: 8.
Loading MACE model from "/home/theory/phrrpq/bilayer_relaxations/MoWSSe_bi_radius_8_reduced_all_1_swa_800_run-123_swa.model-lammps.pt" ... finished.
  - The model has: 2 layers.
  - The model has: 2 layers.
  - The model atomic numbers are: 16 34 42 74.
  - The pair_coeff atomic numbers are: 42 16 74 16.
  - The model atomic numbers are: 16 34 42 74.
  - The pair_coeff atomic numbers are: 42 16 74 16.
  - The torch_float_dtype is: Double
  - The r_max is: 8.
  - The model has: 2 layers.
  - The model atomic numbers are: 16 34 42 74.
  - The pair_coeff atomic numbers are: 42 16 74 16.
  - The torch_float_dtype is: Double
  - The r_max is: 8.
  - The model has: 2 layers.
  - The model atomic numbers are: 16 34 42 74.
  - The pair_coeff atomic numbers are: 42 16 74 16.
Generated 0 of 3 mixed pair_coeff terms from geometric mixing rule
Neighbor list info ...
  update: every = 1 steps, delay = 0 steps, check = yes
  max neighbors/atom: 2000, page size: 100000
  master list distance cutoff = 18
  ghost atom cutoff = 18
  binsize = 9, bins = 5 3 4
  1 neighbor lists, perpetual/occasional/extra = 1 0 0
  (1) pair mace, perpetual
      attributes: full, newton on, ghost
      pair build: full/bin/ghost
      stencil: full/ghost/bin/3d
      bin: standard
Setting up Verlet run ...
  Unit style    : metal
  Current step  : 0
  Time step     : 0.0001
Per MPI rank memory allocation (min/avg/max) = 17.82 | 19.34 | 20.87 Mbytes
   Step          Time           Temp          Press           CPU           KinEng         PotEng         TotEng        Atoms         Fmax          Fnorm     
         0                        0                       0       4092.843813406517                       0                       0      -329014.2111877966      -329014.2111877966        366        3.106056511773651       36.54514917999521
Loop time of 2.593e-06 on 48 procs for 0 steps with 366 atoms

86.8% CPU use with 4 MPI tasks x 12 OpenMP threads

MPI task timing breakdown:
Section |  min time  |  avg time  |  max time  |%varavg| %total
---------------------------------------------------------------
Pair    | 0          | 0          | 0          |   0.0 |  0.00
Neigh   | 0          | 0          | 0          |   0.0 |  0.00
Comm    | 0          | 0          | 0          |   0.0 |  0.00
Output  | 0          | 0          | 0          |   0.0 |  0.00
Modify  | 0          | 0          | 0          |   0.0 |  0.00
Other   |            | 2.593e-06  |            |       |100.00

Nlocal:           91.5 ave         153 max          30 min
Histogram: 2 0 0 0 0 0 0 0 0 2
Nghost:           3612 ave        4205 max        3020 min
Histogram: 2 0 0 0 0 0 0 0 0 2
Neighs:              0 ave           0 max           0 min
Histogram: 4 0 0 0 0 0 0 0 0 0
FullNghs:        58805 ave       99100 max       18552 min
Histogram: 2 0 0 0 0 0 0 0 0 2

Total # of neighbors = 235220
Ave neighs/atom = 642.6776
Neighbor list builds = 0
Dangerous builds = 0
BEGIN LAMMPS STANDALONE MINIMIZATION; ii = 4; OMP = 12; MPI = 4
minimize 0.0 1e-3 1000 100000
Generated 0 of 3 mixed pair_coeff terms from geometric mixing rule
Generated 0 of 3 mixed pair_coeff terms from geometric mixing rule
Setting up cg style minimization ...
  Unit style    : metal
  Current step  : 0
Per MPI rank memory allocation (min/avg/max) = 18.94 | 20.47 | 22 Mbytes
Per MPI rank memory allocation (min/avg/max) = 18.94 | 20.47 | 22 Mbytes
   Step          Time           Temp          Press           CPU           KinEng         PotEng         TotEng        Atoms         Fmax          Fnorm     
   Step          Time           Temp          Press           CPU           KinEng         PotEng         TotEng        Atoms         Fmax          Fnorm     
         0                        0                       0       4092.843813406525                       0                       0      -329014.2111877966      -329014.2111877966        366        3.106056511773651       36.54514917999521
         0                        0                       0       4092.843813406525                       0                       0      -329014.2111877966      -329014.2111877966        366        3.106056511773651       36.54514917999521
WARNING: Pair style restartinfo set but has no restart support (src/pair.cpp:754)
WARNING: Pair style restartinfo set but has no restart support (src/pair.cpp:754)
         1                   0.0001                       0      -3447.999360169255       49.86373606299999                       0      -329037.1024521305      -329037.1024521305        366       0.2922291941999505       3.757488396442918
         1                   0.0001                       0      -3447.999360169255       49.86373606299999                       0      -329037.1024521305      -329037.1024521305        366       0.2922291941999505       3.757488396442918
WARNING: Pair style restartinfo set but has no restart support (src/pair.cpp:754)
WARNING: Pair style restartinfo set but has no restart support (src/pair.cpp:754)
         2                   0.0002                       0      -1789.842326001713           149.287486746                       0      -329037.3846154173      -329037.3846154173        366       0.1421285492857111        1.07676628109733
         2                   0.0002                       0      -1789.842326001713           149.287486746                       0      -329037.3846154173      -329037.3846154173        366       0.1421285492857111        1.07676628109733
WARNING: Pair style restartinfo set but has no restart support (src/pair.cpp:754)
WARNING: Pair style restartinfo set but has no restart support (src/pair.cpp:754)
         3                   0.0003                       0      -611.0931410731122           248.132950844                       0      -329037.4202138171      -329037.4202138171        366      0.04789096779748319      0.4354174401741965
         3                   0.0003                       0      -611.0931410731122           248.132950844                       0      -329037.4202138171      -329037.4202138171        366      0.04789096779748319      0.4354174401741965
WARNING: Pair style restartinfo set but has no restart support (src/pair.cpp:754)
WARNING: Pair style restartinfo set but has no restart support (src/pair.cpp:754)
         4                   0.0004                       0      -732.1714833120285           347.254713144                       0       -329037.461809522       -329037.461809522        366       0.1214094703154373       1.310371013086516
         4                   0.0004                       0      -732.1714833120285           347.254713144                       0       -329037.461809522       -329037.461809522        366       0.1214094703154373       1.310371013086516
WARNING: Pair style restartinfo set but has no restart support (src/pair.cpp:754)
WARNING: Pair style restartinfo set but has no restart support (src/pair.cpp:754)
         5                   0.0005                       0      -1039.514392170845           446.393250944                       0      -329037.5174972443      -329037.5174972443        366      0.07804416408212778      0.8574285734436085
         5                   0.0005                       0      -1039.514392170845           446.393250944                       0      -329037.5174972443      -329037.5174972443        366      0.07804416408212778      0.8574285734436085
WARNING: Pair style restartinfo set but has no restart support (src/pair.cpp:754)
WARNING: Pair style restartinfo set but has no restart support (src/pair.cpp:754)
         6    0.0006000000000000001                       0      -1032.202760303218       545.9355465909999                       0      -329037.5375447074      -329037.5375447074        366      0.06099864047804153      0.6132335427966975
         6    0.0006000000000000001                       0      -1032.202760303218       545.9355465909999                       0      -329037.5375447074      -329037.5375447074        366      0.06099864047804153      0.6132335427966975
WARNING: Pair style restartinfo set but has no restart support (src/pair.cpp:754)
WARNING: Pair style restartinfo set but has no restart support (src/pair.cpp:754)
         7                   0.0007                       0      -915.0740723838112       645.5879807709999                       0      -329037.5521766683      -329037.5521766683        366      0.02648250508360858      0.3055463543587031
         7                   0.0007                       0      -915.0740723838112       645.5879807709999                       0      -329037.5521766683      -329037.5521766683        366      0.02648250508360858      0.3055463543587031
WARNING: Pair style restartinfo set but has no restart support (src/pair.cpp:754)
WARNING: Pair style restartinfo set but has no restart support (src/pair.cpp:754)
         8                   0.0008                       0      -937.2422850906576           744.908011277                       0      -329037.5543759179      -329037.5543759179        366      0.03139198570290615      0.2963648074594066
         8                   0.0008                       0      -937.2422850906576           744.908011277                       0      -329037.5543759179      -329037.5543759179        366      0.03139198570290615      0.2963648074594066
WARNING: Pair style restartinfo set but has no restart support (src/pair.cpp:754)
WARNING: Pair style restartinfo set but has no restart support (src/pair.cpp:754)
         9    0.0009000000000000001                       0      -1231.664858906976       844.6463183779999                       0      -329037.5683947894      -329037.5683947894        366      0.05093705820767777      0.3970521943095822
         9    0.0009000000000000001                       0      -1231.664858906976       844.6463183779999                       0      -329037.5683947894      -329037.5683947894        366      0.05093705820767777      0.3970521943095822
WARNING: Pair style restartinfo set but has no restart support (src/pair.cpp:754)
WARNING: Pair style restartinfo set but has no restart support (src/pair.cpp:754)
        10                    0.001                       0      -1016.926099001602       944.4955986509999                       0      -329037.5728769422      -329037.5728769422        366      0.05275594058015109      0.3088880477741096
        10                    0.001                       0      -1016.926099001602       944.4955986509999                       0      -329037.5728769422      -329037.5728769422        366      0.05275594058015109      0.3088880477741096
WARNING: Pair style restartinfo set but has no restart support (src/pair.cpp:754)
WARNING: Pair style restartinfo set but has no restart support (src/pair.cpp:754)
        11                   0.0011                       0      -803.1477204391274          1044.021139559                       0      -329037.5756705415      -329037.5756705415        366      0.02005493306059519      0.1926920404443553
        11                   0.0011                       0      -803.1477204391274          1044.021139559                       0      -329037.5756705415      -329037.5756705415        366      0.02005493306059519      0.1926920404443553
WARNING: Pair style restartinfo set but has no restart support (src/pair.cpp:754)
WARNING: Pair style restartinfo set but has no restart support (src/pair.cpp:754)
        12                   0.0012                       0      -955.2877119631205          1143.607875236                       0      -329037.5786895936      -329037.5786895936        366      0.03945651910271598      0.2421384596722576
        12                   0.0012                       0      -955.2877119631205          1143.607875236                       0      -329037.5786895936      -329037.5786895936        366      0.03945651910271598      0.2421384596722576
WARNING: Pair style restartinfo set but has no restart support (src/pair.cpp:754)
WARNING: Pair style restartinfo set but has no restart support (src/pair.cpp:754)
        13                   0.0013                       0      -1021.866891652929           1243.20845501                       0      -329037.5810490018      -329037.5810490018        366      0.05852181069296105        0.29968163617049
        13                   0.0013                       0      -1021.866891652929           1243.20845501                       0      -329037.5810490018      -329037.5810490018        366      0.05852181069296105        0.29968163617049
WARNING: Pair style restartinfo set but has no restart support (src/pair.cpp:754)
WARNING: Pair style restartinfo set but has no restart support (src/pair.cpp:754)
        14                   0.0014                       0      -919.8795911324044          1343.200795955                       0      -329037.5857735464      -329037.5857735464        366       0.0283052671933427      0.2463301916527279
        14                   0.0014                       0      -919.8795911324044          1343.200795955                       0      -329037.5857735464      -329037.5857735464        366       0.0283052671933427      0.2463301916527279
WARNING: Pair style restartinfo set but has no restart support (src/pair.cpp:754)
WARNING: Pair style restartinfo set but has no restart support (src/pair.cpp:754)
        15                   0.0015                       0      -854.7916812308282          1443.159714358                       0      -329037.5871447264      -329037.5871447264        366     0.009904544416382364     0.09217299035193346
        15                   0.0015                       0      -854.7916812308282          1443.159714358                       0      -329037.5871447264      -329037.5871447264        366     0.009904544416382364     0.09217299035193346
WARNING: Pair style restartinfo set but has no restart support (src/pair.cpp:754)
WARNING: Pair style restartinfo set but has no restart support (src/pair.cpp:754)
        16                   0.0016                       0      -846.2309226420451          1543.002997053                       0      -329037.5875052994      -329037.5875052994        366      0.01305840775429605      0.1107379636448521
        16                   0.0016                       0      -846.2309226420451          1543.002997053                       0      -329037.5875052994      -329037.5875052994        366      0.01305840775429605      0.1107379636448521
WARNING: Pair style restartinfo set but has no restart support (src/pair.cpp:754)
WARNING: Pair style restartinfo set but has no restart support (src/pair.cpp:754)
        17                   0.0017                       0      -849.3901046083663           1642.77809812                       0      -329037.5879716243      -329037.5879716243        366      0.01546242696167306      0.1051783992689136
        17                   0.0017                       0      -849.3901046083663           1642.77809812                       0      -329037.5879716243      -329037.5879716243        366      0.01546242696167306      0.1051783992689136
WARNING: Pair style restartinfo set but has no restart support (src/pair.cpp:754)
WARNING: Pair style restartinfo set but has no restart support (src/pair.cpp:754)
        18                   0.0018                       0      -851.5870909438917          1742.207270711                       0      -329037.5886803847      -329037.5886803847        366      0.01775520753764893       0.142818503064252
        18                   0.0018                       0      -851.5870909438917          1742.207270711                       0      -329037.5886803847      -329037.5886803847        366      0.01775520753764893       0.142818503064252
WARNING: Pair style restartinfo set but has no restart support (src/pair.cpp:754)
WARNING: Pair style restartinfo set but has no restart support (src/pair.cpp:754)
        19                   0.0019                       0      -827.0730702536141          1842.011023768                       0      -329037.5894868647      -329037.5894868647        366      0.01824932812713386      0.1390085834409259
        19                   0.0019                       0      -827.0730702536141          1842.011023768                       0      -329037.5894868647      -329037.5894868647        366      0.01824932812713386      0.1390085834409259
WARNING: Pair style restartinfo set but has no restart support (src/pair.cpp:754)
WARNING: Pair style restartinfo set but has no restart support (src/pair.cpp:754)
        20                    0.002                       0      -772.7571078040486          1941.917290532                       0      -329037.5906258401      -329037.5906258401        366      0.01869519823065465      0.1519164217991116
        20                    0.002                       0      -772.7571078040486          1941.917290532                       0      -329037.5906258401      -329037.5906258401        366      0.01869519823065465      0.1519164217991116
WARNING: Pair style restartinfo set but has no restart support (src/pair.cpp:754)
WARNING: Pair style restartinfo set but has no restart support (src/pair.cpp:754)
        21                   0.0021                       0      -753.4552211500759          2042.100968028                       0      -329037.5914898549      -329037.5914898549        366      0.01629792446000704      0.1258415799570244
        21                   0.0021                       0      -753.4552211500759          2042.100968028                       0      -329037.5914898549      -329037.5914898549        366      0.01629792446000704      0.1258415799570244
WARNING: Pair style restartinfo set but has no restart support (src/pair.cpp:754)
WARNING: Pair style restartinfo set but has no restart support (src/pair.cpp:754)
        22                   0.0022                       0      -759.6666021000043          2142.114700246                       0      -329037.5922042878      -329037.5922042878        366      0.02045013206189994      0.1294606900101061
        22                   0.0022                       0      -759.6666021000043          2142.114700246                       0      -329037.5922042878      -329037.5922042878        366      0.02045013206189994      0.1294606900101061
WARNING: Pair style restartinfo set but has no restart support (src/pair.cpp:754)
WARNING: Pair style restartinfo set but has no restart support (src/pair.cpp:754)
        23                   0.0023                       0       -753.328797623608          2242.014525766                       0      -329037.5925880602      -329037.5925880602        366     0.008854266282113535      0.0605778005264418
        23                   0.0023                       0       -753.328797623608          2242.014525766                       0      -329037.5925880602      -329037.5925880602        366     0.008854266282113535      0.0605778005264418
WARNING: Pair style restartinfo set but has no restart support (src/pair.cpp:754)
WARNING: Pair style restartinfo set but has no restart support (src/pair.cpp:754)
        24                   0.0024                       0      -726.1737271856598          2341.512923037                       0      -329037.5927400582      -329037.5927400582        366      0.01320890853263384     0.07030618376195441
        24                   0.0024                       0      -726.1737271856598          2341.512923037                       0      -329037.5927400582      -329037.5927400582        366      0.01320890853263384     0.07030618376195441
WARNING: Pair style restartinfo set but has no restart support (src/pair.cpp:754)
WARNING: Pair style restartinfo set but has no restart support (src/pair.cpp:754)
        25                   0.0025                       0      -701.8671239804214            2441.4513117                       0      -329037.5929340622      -329037.5929340622        366     0.006530689982624687     0.04858432457187666
        25                   0.0025                       0      -701.8671239804214            2441.4513117                       0      -329037.5929340622      -329037.5929340622        366     0.006530689982624687     0.04858432457187666
WARNING: Pair style restartinfo set but has no restart support (src/pair.cpp:754)
WARNING: Pair style restartinfo set but has no restart support (src/pair.cpp:754)
        26                   0.0026                       0      -723.0834683826781          2541.409556654                       0      -329037.5930152086      -329037.5930152086        366     0.004487685124053819     0.03388660850006955
        26                   0.0026                       0      -723.0834683826781          2541.409556654                       0      -329037.5930152086      -329037.5930152086        366     0.004487685124053819     0.03388660850006955
WARNING: Pair style restartinfo set but has no restart support (src/pair.cpp:754)
WARNING: Pair style restartinfo set but has no restart support (src/pair.cpp:754)
        27                   0.0027                       0      -731.7172473429141          2641.073788715                       0      -329037.5930450376      -329037.5930450376        366     0.004384149834926488     0.02399802507748259
        27                   0.0027                       0      -731.7172473429141          2641.073788715                       0      -329037.5930450376      -329037.5930450376        366     0.004384149834926488     0.02399802507748259
WARNING: Pair style restartinfo set but has no restart support (src/pair.cpp:754)
WARNING: Pair style restartinfo set but has no restart support (src/pair.cpp:754)
        28                   0.0028                       0      -722.4452732555145          2741.046291716                       0      -329037.5930760985      -329037.5930760985        366     0.004839165355618479     0.03070068753843304
        28                   0.0028                       0      -722.4452732555145          2741.046291716                       0      -329037.5930760985      -329037.5930760985        366     0.004839165355618479     0.03070068753843304
WARNING: Pair style restartinfo set but has no restart support (src/pair.cpp:754)
WARNING: Pair style restartinfo set but has no restart support (src/pair.cpp:754)
        29                   0.0029                       0      -712.2031268947785          2840.770667062                       0      -329037.5931070147      -329037.5931070147        366     0.002733986303766535     0.02120752251589144
        29                   0.0029                       0      -712.2031268947785          2840.770667062                       0      -329037.5931070147      -329037.5931070147        366     0.002733986303766535     0.02120752251589144
WARNING: Pair style restartinfo set but has no restart support (src/pair.cpp:754)
WARNING: Pair style restartinfo set but has no restart support (src/pair.cpp:754)
        30                    0.003                       0      -717.8761645608034          2940.861081463                       0      -329037.5931234133      -329037.5931234133        366     0.002666987397037712      0.0199384402580866
        30                    0.003                       0      -717.8761645608034          2940.861081463                       0      -329037.5931234133      -329037.5931234133        366     0.002666987397037712      0.0199384402580866
WARNING: Pair style restartinfo set but has no restart support (src/pair.cpp:754)
WARNING: Pair style restartinfo set but has no restart support (src/pair.cpp:754)
        31                   0.0031                       0      -723.9053429014227          3040.508136099                       0      -329037.5931360949      -329037.5931360949        366     0.001563595757487105     0.01435368147646193
        31                   0.0031                       0      -723.9053429014227          3040.508136099                       0      -329037.5931360949      -329037.5931360949        366     0.001563595757487105     0.01435368147646193
WARNING: Pair style restartinfo set but has no restart support (src/pair.cpp:754)
WARNING: Pair style restartinfo set but has no restart support (src/pair.cpp:754)
        32                   0.0032                       0      -719.4721309750827          3140.267926223                       0      -329037.5931454859      -329037.5931454859        366     0.002954601697143103     0.01725955934914711
        32                   0.0032                       0      -719.4721309750827          3140.267926223                       0      -329037.5931454859      -329037.5931454859        366     0.002954601697143103     0.01725955934914711
WARNING: Pair style restartinfo set but has no restart support (src/pair.cpp:754)
WARNING: Pair style restartinfo set but has no restart support (src/pair.cpp:754)
        33                   0.0033                       0      -713.1109839809461          3240.372920728                       0      -329037.5931554982      -329037.5931554982        366     0.001527639241346218     0.01170412377712879
        33                   0.0033                       0      -713.1109839809461          3240.372920728                       0      -329037.5931554982      -329037.5931554982        366     0.001527639241346218     0.01170412377712879
WARNING: Pair style restartinfo set but has no restart support (src/pair.cpp:754)
WARNING: Pair style restartinfo set but has no restart support (src/pair.cpp:754)
        34                   0.0034                       0      -716.6247897812241          3340.177475005                       0      -329037.5931610165      -329037.5931610165        366     0.001229600840105372     0.01058633674198329
        34                   0.0034                       0      -716.6247897812241          3340.177475005                       0      -329037.5931610165      -329037.5931610165        366     0.001229600840105372     0.01058633674198329
WARNING: Pair style restartinfo set but has no restart support (src/pair.cpp:754)
WARNING: Pair style restartinfo set but has no restart support (src/pair.cpp:754)
        35                   0.0035                       0       -720.490020810229           3440.00410809                       0      -329037.5931654319      -329037.5931654319        366     0.001424321980811092    0.009126842410810802
        35                   0.0035                       0       -720.490020810229           3440.00410809                       0      -329037.5931654319      -329037.5931654319        366     0.001424321980811092    0.009126842410810802
WARNING: Pair style restartinfo set but has no restart support (src/pair.cpp:754)
WARNING: Pair style restartinfo set but has no restart support (src/pair.cpp:754)
        36                   0.0036                       0       -718.050673774984          3540.055924759                       0      -329037.5931688346      -329037.5931688346        366    0.0008553469986576565    0.008861512083809253
        36                   0.0036                       0       -718.050673774984          3540.055924759                       0      -329037.5931688346      -329037.5931688346        366    0.0008553469986576565    0.008861512083809253
WARNING: Pair style restartinfo set but has no restart support (src/pair.cpp:754)
WARNING: Pair style restartinfo set but has no restart support (src/pair.cpp:754)
        37                   0.0037                       0      -715.6134081249191          3640.025673627                       0      -329037.5931707924      -329037.5931707924        366     0.000524256847168658    0.005264841809733374
        37                   0.0037                       0      -715.6134081249191          3640.025673627                       0      -329037.5931707924      -329037.5931707924        366     0.000524256847168658    0.005264841809733374
WARNING: Pair style restartinfo set but has no restart support (src/pair.cpp:754)
WARNING: Pair style restartinfo set but has no restart support (src/pair.cpp:754)
        38                   0.0038                       0      -716.0983702025558          3740.089623487                       0      -329037.5931719487      -329037.5931719487        366     0.001153289393436116    0.005880668453744056
        38                   0.0038                       0      -716.0983702025558          3740.089623487                       0      -329037.5931719487      -329037.5931719487        366     0.001153289393436116    0.005880668453744056
WARNING: Pair style restartinfo set but has no restart support (src/pair.cpp:754)
WARNING: Pair style restartinfo set but has no restart support (src/pair.cpp:754)
        39                   0.0039                       0      -717.6439577579641            3840.0052871                       0      -329037.5931732943      -329037.5931732943        366    0.0008242848441708081    0.005162187994017671
        39                   0.0039                       0      -717.6439577579641            3840.0052871                       0      -329037.5931732943      -329037.5931732943        366    0.0008242848441708081    0.005162187994017671
WARNING: Pair style restartinfo set but has no restart support (src/pair.cpp:754)
WARNING: Pair style restartinfo set but has no restart support (src/pair.cpp:754)
        40                    0.004                       0      -717.3462548805201          3940.016617442                       0      -329037.5931749071      -329037.5931749071        366    0.0006760976236507117    0.006011739546405621
        40                    0.004                       0      -717.3462548805201          3940.016617442                       0      -329037.5931749071      -329037.5931749071        366    0.0006760976236507117    0.006011739546405621
WARNING: Pair style restartinfo set but has no restart support (src/pair.cpp:754)
WARNING: Pair style restartinfo set but has no restart support (src/pair.cpp:754)
        41                   0.0041                       0      -716.4782786490251           4039.79011509                       0      -329037.5931760796      -329037.5931760796        366     0.000699560603009074    0.004549917882267695
        41                   0.0041                       0      -716.4782786490251           4039.79011509                       0      -329037.5931760796      -329037.5931760796        366     0.000699560603009074    0.004549917882267695
WARNING: Pair style restartinfo set but has no restart support (src/pair.cpp:754)
WARNING: Pair style restartinfo set but has no restart support (src/pair.cpp:754)
        42     0.004200000000000001                       0      -716.5934241066966          4139.781558196                       0      -329037.5931769366      -329037.5931769366        366     0.000510052160242358    0.004709921215882758
        42     0.004200000000000001                       0      -716.5934241066966          4139.781558196                       0      -329037.5931769366      -329037.5931769366        366     0.000510052160242358    0.004709921215882758
WARNING: Pair style restartinfo set but has no restart support (src/pair.cpp:754)
WARNING: Pair style restartinfo set but has no restart support (src/pair.cpp:754)
        43                   0.0043                       0      -717.2483028646883          4239.750252248                       0      -329037.5931776904      -329037.5931776904        366    0.0004378965693047881    0.003723126970833646
        43                   0.0043                       0      -717.2483028646883          4239.750252248                       0      -329037.5931776904      -329037.5931776904        366    0.0004378965693047881    0.003723126970833646
WARNING: Pair style restartinfo set but has no restart support (src/pair.cpp:754)
WARNING: Pair style restartinfo set but has no restart support (src/pair.cpp:754)
        44                   0.0044                       0      -717.5699985431887          4339.446096693                       0      -329037.5931782551      -329037.5931782551        366     0.000523233818522751    0.003848854282588798
        44                   0.0044                       0      -717.5699985431887          4339.446096693                       0      -329037.5931782551      -329037.5931782551        366     0.000523233818522751    0.003848854282588798
WARNING: Pair style restartinfo set but has no restart support (src/pair.cpp:754)
WARNING: Pair style restartinfo set but has no restart support (src/pair.cpp:754)
        45     0.004500000000000001                       0      -717.5154152341059          4438.849368241                       0        -329037.59317865        -329037.59317865        366    0.0002724287140547432    0.002080647113179731
        45     0.004500000000000001                       0      -717.5154152341059          4438.849368241                       0        -329037.59317865        -329037.59317865        366    0.0002724287140547432    0.002080647113179731
WARNING: Pair style restartinfo set but has no restart support (src/pair.cpp:754)
WARNING: Pair style restartinfo set but has no restart support (src/pair.cpp:754)
        46                   0.0046                       0      -717.3496332275618          4538.618177377                       0      -329037.5931788812      -329037.5931788812        366    0.0003731184631325094    0.002402676462366337
        46                   0.0046                       0      -717.3496332275618          4538.618177377                       0      -329037.5931788812      -329037.5931788812        366    0.0003731184631325094    0.002402676462366337
WARNING: Pair style restartinfo set but has no restart support (src/pair.cpp:754)
WARNING: Pair style restartinfo set but has no restart support (src/pair.cpp:754)
        47                   0.0047                       0      -717.4675496103403          4638.559273883                       0      -329037.5931790646      -329037.5931790646        366    0.0002815043215038428    0.002099802591409404
        47                   0.0047                       0      -717.4675496103403          4638.559273883                       0      -329037.5931790646      -329037.5931790646        366    0.0002815043215038428    0.002099802591409404
WARNING: Pair style restartinfo set but has no restart support (src/pair.cpp:754)
WARNING: Pair style restartinfo set but has no restart support (src/pair.cpp:754)
        48                   0.0048                       0       -718.134501611484          4738.509559832                       0      -329037.5931793208      -329037.5931793208        366    0.0003563865618036356    0.002777727216164825
        48                   0.0048                       0       -718.134501611484          4738.509559832                       0      -329037.5931793208      -329037.5931793208        366    0.0003563865618036356    0.002777727216164825
WARNING: Pair style restartinfo set but has no restart support (src/pair.cpp:754)
WARNING: Pair style restartinfo set but has no restart support (src/pair.cpp:754)
        49                   0.0049                       0      -718.6406714165629          4838.556821977                       0      -329037.5931796285      -329037.5931796285        366    0.0002708169614772388    0.002190669997960048
        49                   0.0049                       0      -718.6406714165629          4838.556821977                       0      -329037.5931796285      -329037.5931796285        366    0.0002708169614772388    0.002190669997960048
WARNING: Pair style restartinfo set but has no restart support (src/pair.cpp:754)
WARNING: Pair style restartinfo set but has no restart support (src/pair.cpp:754)
        50                    0.005                       0      -718.3713787278331          4938.575924781                       0      -329037.5931798742      -329037.5931798742        366    0.0003265749347038873    0.002546078884975324
        50                    0.005                       0      -718.3713787278331          4938.575924781                       0      -329037.5931798742      -329037.5931798742        366    0.0003265749347038873    0.002546078884975324
WARNING: Pair style restartinfo set but has no restart support (src/pair.cpp:754)
WARNING: Pair style restartinfo set but has no restart support (src/pair.cpp:754)
        51                   0.0051                       0      -718.4233751829288       5038.308886094001                       0      -329037.5931800705      -329037.5931800705        366    0.0002673918396494945    0.002020941737250149
        51                   0.0051                       0      -718.4233751829288       5038.308886094001                       0      -329037.5931800705      -329037.5931800705        366    0.0002673918396494945    0.002020941737250149
WARNING: Pair style restartinfo set but has no restart support (src/pair.cpp:754)
WARNING: Pair style restartinfo set but has no restart support (src/pair.cpp:754)
        52     0.005200000000000001                       0      -719.0432314305426          5138.301943748                       0      -329037.5931802227      -329037.5931802227        366    0.0002317030966123984    0.001932098812956274
        52     0.005200000000000001                       0      -719.0432314305426          5138.301943748                       0      -329037.5931802227      -329037.5931802227        366    0.0002317030966123984    0.001932098812956274
WARNING: Pair style restartinfo set but has no restart support (src/pair.cpp:754)
WARNING: Pair style restartinfo set but has no restart support (src/pair.cpp:754)
        53                   0.0053                       0      -719.6174304411833          5238.160780991                       0      -329037.5931803585      -329037.5931803585        366     0.000203070192496574    0.001329035673644995
        53                   0.0053                       0      -719.6174304411833          5238.160780991                       0      -329037.5931803585      -329037.5931803585        366     0.000203070192496574    0.001329035673644995
WARNING: Pair style restartinfo set but has no restart support (src/pair.cpp:754)
WARNING: Pair style restartinfo set but has no restart support (src/pair.cpp:754)
        54                   0.0054                       0      -719.3231264533954          5338.014458368                       0      -329037.5931804453      -329037.5931804453        366    0.0002297197110108681    0.001715674101247102
        54                   0.0054                       0      -719.3231264533954          5338.014458368                       0      -329037.5931804453      -329037.5931804453        366    0.0002297197110108681    0.001715674101247102
WARNING: Pair style restartinfo set but has no restart support (src/pair.cpp:754)
WARNING: Pair style restartinfo set but has no restart support (src/pair.cpp:754)
        55     0.005500000000000001                       0      -719.0481780011697          5437.720951046                       0      -329037.5931805701      -329037.5931805701        366    0.0002278969583541753    0.001419726611557305
        55     0.005500000000000001                       0      -719.0481780011697          5437.720951046                       0      -329037.5931805701      -329037.5931805701        366    0.0002278969583541753    0.001419726611557305
WARNING: Pair style restartinfo set but has no restart support (src/pair.cpp:754)
WARNING: Pair style restartinfo set but has no restart support (src/pair.cpp:754)
        56                   0.0056                       0      -719.8023457417885          5537.781877101                       0      -329037.5931806559      -329037.5931806559        366    0.0001871416208509587    0.001383088747565718
        56                   0.0056                       0      -719.8023457417885          5537.781877101                       0      -329037.5931806559      -329037.5931806559        366    0.0001871416208509587    0.001383088747565718
WARNING: Pair style restartinfo set but has no restart support (src/pair.cpp:754)
WARNING: Pair style restartinfo set but has no restart support (src/pair.cpp:754)
        57                   0.0057                       0      -720.2362985974996          5687.388362756                       0      -329037.5931807075      -329037.5931807075        366    0.0001139087106503019   0.0009070267200014697
        57                   0.0057                       0      -720.2362985974996          5687.388362756                       0      -329037.5931807075      -329037.5931807075        366    0.0001139087106503019   0.0009070267200014697
Loop time of 5687.39 on 48 procs for 57 steps with 366 atoms

Loop time of 5687.39 on 48 procs for 57 steps with 366 atoms

458.6% CPU use with 4 MPI tasks x 12 OpenMP threads
458.6% CPU use with 4 MPI tasks x 12 OpenMP threads

Minimization stats:
  Stopping criterion = force tolerance
  Energy initial, next-to-last, final = 
     -329014.211187797  -329037.593180656  -329037.593180708
  Force two-norm initial, final = 36.545149 0.00090702672
  Force max component initial, final = 3.1060565 0.00011390871
  Final line search alpha, max atom move = 1 0.00011390871
  Iterations, force evaluations = 57 113

Minimization stats:
  Stopping criterion = force tolerance
  Energy initial, next-to-last, final = 
     -329014.211187797  -329037.593180656  -329037.593180708
  Force two-norm initial, final = 36.545149 0.00090702672
  Force max component initial, final = 3.1060565 0.00011390871
  Final line search alpha, max atom move = 1 0.00011390871
  Iterations, force evaluations = 57 113

MPI task timing breakdown:
Section |  min time  |  avg time  |  max time  |%varavg| %total
---------------------------------------------------------------

MPI task timing breakdown:
Section |  min time  |  avg time  |  max time  |%varavg| %total
---------------------------------------------------------------
Pair    | 4026.4     | 4851.4     | 5678       |1183.6 | 85.30
Pair    | 4026.4     | 4851.4     | 5678       |1183.6 | 85.30
Neigh   | 1.7261     | 2.13       | 2.5398     |  27.6 |  0.04
Neigh   | 1.7261     | 2.13       | 2.5398     |  27.6 |  0.04
Comm    | 6.8219     | 833.83     | 1659.2     |2856.4 | 14.66
Comm    | 6.8219     | 833.83     | 1659.2     |2856.4 | 14.66
Output  | 0.058312   | 0.058416   | 0.058698   |   0.1 |  0.00
Output  | 0.058312   | 0.058416   | 0.058698   |   0.1 |  0.00
Modify  | 0          | 0          | 0          |   0.0 |  0.00
Modify  | 0          | 0          | 0          |   0.0 |  0.00
Other   |            | 0.0103     |            |       |  0.00
Other   |            | 0.0103     |            |       |  0.00

Nlocal:           91.5 ave         149 max          34 min
Histogram: 2 0 0 0 0 0 0 0 0 2
Nghost:        3612.75 ave        4202 max        3026 min
Histogram: 2 0 0 0 0 0 0 0 0 2
Neighs:              0 ave           0 max           0 min
Histogram: 4 0 0 0 0 0 0 0 0 0
FullNghs:        58991 ave       96712 max       21259 min
Histogram: 2 0 0 0 0 0 0 0 0 2

Nlocal:           91.5 ave         149 max          34 min
Histogram: 2 0 0 0 0 0 0 0 0 2
Nghost:        3612.75 ave        4202 max        3026 min
Histogram: 2 0 0 0 0 0 0 0 0 2
Neighs:              0 ave           0 max           0 min
Histogram: 4 0 0 0 0 0 0 0 0 0
FullNghs:        58991 ave       96712 max       21259 min
Histogram: 2 0 0 0 0 0 0 0 0 2


Total # of neighbors = 235964
Ave neighs/atom = 644.71038
Neighbor list builds = 114
Dangerous builds = 0
Total # of neighbors = 235964
Ave neighs/atom = 644.71038
Neighbor list builds = 114
Dangerous builds = 0
write_dump all xyz /home/theory/phrrpq/bilayer_relaxations/MoS2_WS2/P/4/MoS2_WS2_P_4.xyz modify sort id pbc yes element Mo W S

Total wall time: 1:36:28
Total wall time: 1:36:28
