OMP_THREADS: 12
MPI: 1
NTASKS-PER-NODE: 4
CPUS_PER_TASK: 12
LAMMPS (28 Mar 2023 - Development)
  using 12 OpenMP thread(s) per MPI task
  using 12 OpenMP thread(s) per MPI task
Reading data file ...
  triclinic box = (0 0 0) to (24.903792 21.567317 30) with tilt (12.451896 0 0)
WARNING: Triclinic box skew is large. LAMMPS will run inefficiently. (src/domain.cpp:220)
  1 by 2 by 2 MPI processor grid
  reading atoms ...
  366 atoms
  read_data CPU = 0.020 seconds
CUDA unavailable, setting device type to torch::kCPU.
CUDA unavailable, setting device type to torch::kCPU.
CUDA unavailable, setting device type to torch::kCPU.
CUDA unavailable, setting device type to torch::kCPU.
Loading MACE model from "/home/theory/phrrpq/bilayer_relaxations/MoWSSe_bi_radius_8_reduced_all_1_swa_800_run-123_swa.model-lammps.pt" ... finished.
Loading MACE model from "/home/theory/phrrpq/bilayer_relaxations/MoWSSe_bi_radius_8_reduced_all_1_swa_800_run-123_swa.model-lammps.pt" ... finished.
Loading MACE model from "/home/theory/phrrpq/bilayer_relaxations/MoWSSe_bi_radius_8_reduced_all_1_swa_800_run-123_swa.model-lammps.pt" ... finished.
  - The torch_float_dtype is: Double
  - The torch_float_dtype is: Double
  - The r_max is: 8.
  - The model has: 2 layers.
  - The r_max is: 8.
  - The model has: 2 layers.
  - The model atomic numbers are: 16 34 42 74.
  - The pair_coeff atomic numbers are: 42 16 74 16.
  - The model atomic numbers are: 16 34 42 74.
  - The pair_coeff atomic numbers are: 42 16 74 16.
  - The torch_float_dtype is: Double
  - The r_max is: 8.
  - The model has: 2 layers.
Generated 0 of 3 mixed pair_coeff terms from geometric mixing rule
  - The model atomic numbers are: 16 34 42 74.
  - The pair_coeff atomic numbers are: 42 16 74 16.
Loading MACE model from "/home/theory/phrrpq/bilayer_relaxations/MoWSSe_bi_radius_8_reduced_all_1_swa_800_run-123_swa.model-lammps.pt" ... finished.
  - The torch_float_dtype is: Double
  - The r_max is: 8.
  - The model has: 2 layers.
  - The model atomic numbers are: 16 34 42 74.
  - The pair_coeff atomic numbers are: 42 16 74 16.
Neighbor list info ...
  update: every = 1 steps, delay = 0 steps, check = yes
  max neighbors/atom: 2000, page size: 100000
  master list distance cutoff = 18
  ghost atom cutoff = 18
  binsize = 9, bins = 5 3 4
  1 neighbor lists, perpetual/occasional/extra = 1 0 0
  (1) pair mace, perpetual
      attributes: full, newton on, ghost
      pair build: full/bin/ghost
      stencil: full/ghost/bin/3d
      bin: standard
Setting up Verlet run ...
  Unit style    : metal
  Current step  : 0
  Time step     : 0.0001
Per MPI rank memory allocation (min/avg/max) = 17.82 | 19.34 | 20.87 Mbytes
   Step          Time           Temp          Press           CPU           KinEng         PotEng         TotEng        Atoms         Fmax          Fnorm     
         0                        0                       0       4088.979650003304                       0                       0      -329014.2132780787      -329014.2132780787        366        3.102585365858131       36.54575860179058
Loop time of 2.45375e-06 on 48 procs for 0 steps with 366 atoms

91.7% CPU use with 4 MPI tasks x 12 OpenMP threads

MPI task timing breakdown:
Section |  min time  |  avg time  |  max time  |%varavg| %total
---------------------------------------------------------------
Pair    | 0          | 0          | 0          |   0.0 |  0.00
Neigh   | 0          | 0          | 0          |   0.0 |  0.00
Comm    | 0          | 0          | 0          |   0.0 |  0.00
Output  | 0          | 0          | 0          |   0.0 |  0.00
Modify  | 0          | 0          | 0          |   0.0 |  0.00
Other   |            | 2.454e-06  |            |       |100.00

Nlocal:           91.5 ave         153 max          30 min
Histogram: 2 0 0 0 0 0 0 0 0 2
Nghost:           3606 ave        4196 max        3016 min
Histogram: 2 0 0 0 0 0 0 0 0 2
Neighs:              0 ave           0 max           0 min
Histogram: 4 0 0 0 0 0 0 0 0 0
FullNghs:        58815 ave       99061 max       18565 min
Histogram: 2 0 0 0 0 0 0 0 0 2

Total # of neighbors = 235260
Ave neighs/atom = 642.78689
Neighbor list builds = 0
Dangerous builds = 0
BEGIN LAMMPS STANDALONE MINIMIZATION; ii = 4; OMP = 12; MPI = 4
minimize 0.0 1e-3 1000 100000
Generated 0 of 3 mixed pair_coeff terms from geometric mixing rule
Generated 0 of 3 mixed pair_coeff terms from geometric mixing rule
Setting up cg style minimization ...
  Unit style    : metal
  Current step  : 0
Per MPI rank memory allocation (min/avg/max) = 18.94 | 20.47 | 22 Mbytes
Per MPI rank memory allocation (min/avg/max) = 18.94 | 20.47 | 22 Mbytes
   Step          Time           Temp          Press           CPU           KinEng         PotEng         TotEng        Atoms         Fmax          Fnorm     
   Step          Time           Temp          Press           CPU           KinEng         PotEng         TotEng        Atoms         Fmax          Fnorm     
         0                        0                       0       4088.979650003313                       0                       0      -329014.2132780787      -329014.2132780787        366        3.102585365858125       36.54575860179058
         0                        0                       0       4088.979650003313                       0                       0      -329014.2132780787      -329014.2132780787        366        3.102585365858125       36.54575860179058
WARNING: Pair style restartinfo set but has no restart support (src/pair.cpp:754)
WARNING: Pair style restartinfo set but has no restart support (src/pair.cpp:754)
         1                   0.0001                       0      -3457.131849944805            49.900957705                       0      -329037.1072297542      -329037.1072297542        366       0.2916769701234903        3.73011466725824
         1                   0.0001                       0      -3457.131849944805            49.900957705                       0      -329037.1072297542      -329037.1072297542        366       0.2916769701234903        3.73011466725824
WARNING: Pair style restartinfo set but has no restart support (src/pair.cpp:754)
WARNING: Pair style restartinfo set but has no restart support (src/pair.cpp:754)
         2                   0.0002                       0      -1790.611195261783           149.311894882                       0      -329037.3858628462      -329037.3858628462        366       0.1403704528388031       1.063102340559459
         2                   0.0002                       0      -1790.611195261783           149.311894882                       0      -329037.3858628462      -329037.3858628462        366       0.1403704528388031       1.063102340559459
WARNING: Pair style restartinfo set but has no restart support (src/pair.cpp:754)
WARNING: Pair style restartinfo set but has no restart support (src/pair.cpp:754)
         3                   0.0003                       0      -632.6990562618367           248.531061613                       0      -329037.4200663711      -329037.4200663711        366      0.04538809654665306      0.4096877651134972
         3                   0.0003                       0      -632.6990562618367           248.531061613                       0      -329037.4200663711      -329037.4200663711        366      0.04538809654665306      0.4096877651134972
WARNING: Pair style restartinfo set but has no restart support (src/pair.cpp:754)
WARNING: Pair style restartinfo set but has no restart support (src/pair.cpp:754)
         4                   0.0004                       0      -728.8000805774525           347.749438606                       0      -329037.4546259433      -329037.4546259433        366       0.1240593376347771       1.246120319395742
         4                   0.0004                       0      -728.8000805774525           347.749438606                       0      -329037.4546259433      -329037.4546259433        366       0.1240593376347771       1.246120319395742
WARNING: Pair style restartinfo set but has no restart support (src/pair.cpp:754)
WARNING: Pair style restartinfo set but has no restart support (src/pair.cpp:754)
         5                   0.0005                       0      -1018.658371669009       447.5339563829999                       0      -329037.5071493982      -329037.5071493982        366      0.07176455561511189      0.8151288903805344
         5                   0.0005                       0      -1018.658371669009       447.5339563829999                       0      -329037.5071493982      -329037.5071493982        366      0.07176455561511189      0.8151288903805344
WARNING: Pair style restartinfo set but has no restart support (src/pair.cpp:754)
WARNING: Pair style restartinfo set but has no restart support (src/pair.cpp:754)
         6    0.0006000000000000001                       0      -1010.200091069502           547.609838694                       0      -329037.5262830023      -329037.5262830023        366      0.05981849055707113      0.5921839922084952
         6    0.0006000000000000001                       0      -1010.200091069502           547.609838694                       0      -329037.5262830023      -329037.5262830023        366      0.05981849055707113      0.5921839922084952
WARNING: Pair style restartinfo set but has no restart support (src/pair.cpp:754)
WARNING: Pair style restartinfo set but has no restart support (src/pair.cpp:754)
         7                   0.0007                       0       -909.852033540459           647.556636243                       0      -329037.5396194796      -329037.5396194796        366       0.0266333759958417      0.2938055687869398
         7                   0.0007                       0       -909.852033540459           647.556636243                       0      -329037.5396194796      -329037.5396194796        366       0.0266333759958417      0.2938055687869398
WARNING: Pair style restartinfo set but has no restart support (src/pair.cpp:754)
WARNING: Pair style restartinfo set but has no restart support (src/pair.cpp:754)
         8                   0.0008                       0      -927.6136657860284            747.14492933                       0      -329037.5415483398      -329037.5415483398        366      0.02917352650662452      0.2687694156099064
         8                   0.0008                       0      -927.6136657860284            747.14492933                       0      -329037.5415483398      -329037.5415483398        366      0.02917352650662452      0.2687694156099064
WARNING: Pair style restartinfo set but has no restart support (src/pair.cpp:754)
WARNING: Pair style restartinfo set but has no restart support (src/pair.cpp:754)
         9    0.0009000000000000001                       0      -1184.176762906337           846.963565086                       0      -329037.5535975846      -329037.5535975846        366      0.05419415330890852      0.3805314840114493
         9    0.0009000000000000001                       0      -1184.176762906337           846.963565086                       0      -329037.5535975846      -329037.5535975846        366      0.05419415330890852      0.3805314840114493
WARNING: Pair style restartinfo set but has no restart support (src/pair.cpp:754)
WARNING: Pair style restartinfo set but has no restart support (src/pair.cpp:754)
        10                    0.001                       0      -1023.638820442487       946.8240646319999                       0      -329037.5572852767      -329037.5572852767        366      0.04355366048772529      0.2833360378077357
        10                    0.001                       0      -1023.638820442487       946.8240646319999                       0      -329037.5572852767      -329037.5572852767        366      0.04355366048772529      0.2833360378077357
WARNING: Pair style restartinfo set but has no restart support (src/pair.cpp:754)
WARNING: Pair style restartinfo set but has no restart support (src/pair.cpp:754)
        11                   0.0011                       0       -803.576719069034          1046.388124226                       0      -329037.5598771314      -329037.5598771314        366      0.01997759220870233      0.1760866680469347
        11                   0.0011                       0       -803.576719069034          1046.388124226                       0      -329037.5598771314      -329037.5598771314        366      0.01997759220870233      0.1760866680469347
WARNING: Pair style restartinfo set but has no restart support (src/pair.cpp:754)
WARNING: Pair style restartinfo set but has no restart support (src/pair.cpp:754)
        12                   0.0012                       0      -937.8443804786336          1146.296117339                       0      -329037.5621948435      -329037.5621948435        366      0.02811415559142785      0.2224879784051224
        12                   0.0012                       0      -937.8443804786336          1146.296117339                       0      -329037.5621948435      -329037.5621948435        366      0.02811415559142785      0.2224879784051224
WARNING: Pair style restartinfo set but has no restart support (src/pair.cpp:754)
WARNING: Pair style restartinfo set but has no restart support (src/pair.cpp:754)
        13                   0.0013                       0      -1014.537934918279          1245.825649193                       0      -329037.5640752545      -329037.5640752545        366      0.03481112853821244      0.2581288411048391
        13                   0.0013                       0      -1014.537934918279          1245.825649193                       0      -329037.5640752545      -329037.5640752545        366      0.03481112853821244      0.2581288411048391
WARNING: Pair style restartinfo set but has no restart support (src/pair.cpp:754)
WARNING: Pair style restartinfo set but has no restart support (src/pair.cpp:754)
        14                   0.0014                       0      -923.5970162085197          1345.750432515                       0      -329037.5678528987      -329037.5678528987        366      0.03085283143354365       0.228319509824537
        14                   0.0014                       0      -923.5970162085197          1345.750432515                       0      -329037.5678528987      -329037.5678528987        366      0.03085283143354365       0.228319509824537
WARNING: Pair style restartinfo set but has no restart support (src/pair.cpp:754)
WARNING: Pair style restartinfo set but has no restart support (src/pair.cpp:754)
        15                   0.0015                       0      -853.4611876259125          1446.042422224                       0      -329037.5690837431      -329037.5690837431        366     0.009087850522953675     0.07913557905713201
        15                   0.0015                       0      -853.4611876259125          1446.042422224                       0      -329037.5690837431      -329037.5690837431        366     0.009087850522953675     0.07913557905713201
WARNING: Pair style restartinfo set but has no restart support (src/pair.cpp:754)
WARNING: Pair style restartinfo set but has no restart support (src/pair.cpp:754)
        16                   0.0016                       0      -853.2329766015374          1546.158924119                       0      -329037.5693594973      -329037.5693594973        366      0.01137280315160493      0.0955959291124595
        16                   0.0016                       0      -853.2329766015374          1546.158924119                       0      -329037.5693594973      -329037.5693594973        366      0.01137280315160493      0.0955959291124595
WARNING: Pair style restartinfo set but has no restart support (src/pair.cpp:754)
WARNING: Pair style restartinfo set but has no restart support (src/pair.cpp:754)
        17                   0.0017                       0      -861.8069538727657          1645.995247273                       0      -329037.5697043044      -329037.5697043044        366      0.01038386440399254     0.09362716731036434
        17                   0.0017                       0      -861.8069538727657          1645.995247273                       0      -329037.5697043044      -329037.5697043044        366      0.01038386440399254     0.09362716731036434
WARNING: Pair style restartinfo set but has no restart support (src/pair.cpp:754)
WARNING: Pair style restartinfo set but has no restart support (src/pair.cpp:754)
        18                   0.0018                       0      -852.9292926048329          1745.810870279                       0      -329037.5702496544      -329037.5702496544        366      0.01558539563487239      0.1271591413303785
        18                   0.0018                       0      -852.9292926048329          1745.810870279                       0      -329037.5702496544      -329037.5702496544        366      0.01558539563487239      0.1271591413303785
WARNING: Pair style restartinfo set but has no restart support (src/pair.cpp:754)
WARNING: Pair style restartinfo set but has no restart support (src/pair.cpp:754)
        19                   0.0019                       0      -823.8618500490705          1846.153708552                       0      -329037.5708695403      -329037.5708695403        366      0.01567848205388749      0.1202476591014885
        19                   0.0019                       0      -823.8618500490705          1846.153708552                       0      -329037.5708695403      -329037.5708695403        366      0.01567848205388749      0.1202476591014885
WARNING: Pair style restartinfo set but has no restart support (src/pair.cpp:754)
WARNING: Pair style restartinfo set but has no restart support (src/pair.cpp:754)
        20                    0.002                       0      -788.1999206585017          1946.070526437                       0      -329037.5717311922      -329037.5717311922        366      0.01628622962545181      0.1341447921004384
        20                    0.002                       0      -788.1999206585017          1946.070526437                       0      -329037.5717311922      -329037.5717311922        366      0.01628622962545181      0.1341447921004384
WARNING: Pair style restartinfo set but has no restart support (src/pair.cpp:754)
WARNING: Pair style restartinfo set but has no restart support (src/pair.cpp:754)
        21                   0.0021                       0      -777.4228321598927          2046.344518662                       0       -329037.572405475       -329037.572405475        366      0.01209450723943198      0.1088839305816994
        21                   0.0021                       0      -777.4228321598927          2046.344518662                       0       -329037.572405475       -329037.572405475        366      0.01209450723943198      0.1088839305816994
WARNING: Pair style restartinfo set but has no restart support (src/pair.cpp:754)
WARNING: Pair style restartinfo set but has no restart support (src/pair.cpp:754)
        22                   0.0022                       0      -775.0746403770997           2146.59054946                       0      -329037.5730436588      -329037.5730436588        366      0.02014635501917843       0.110927088554074
        22                   0.0022                       0      -775.0746403770997           2146.59054946                       0      -329037.5730436588      -329037.5730436588        366      0.02014635501917843       0.110927088554074
WARNING: Pair style restartinfo set but has no restart support (src/pair.cpp:754)
WARNING: Pair style restartinfo set but has no restart support (src/pair.cpp:754)
        23                   0.0023                       0      -763.4662539463473          2247.209313169                       0      -329037.5733147372      -329037.5733147372        366     0.006442899914297962     0.05150400374057854
        23                   0.0023                       0      -763.4662539463473          2247.209313169                       0      -329037.5733147372      -329037.5733147372        366     0.006442899914297962     0.05150400374057854
WARNING: Pair style restartinfo set but has no restart support (src/pair.cpp:754)
WARNING: Pair style restartinfo set but has no restart support (src/pair.cpp:754)
        24                   0.0024                       0      -742.2643232459251          2347.316503838                       0      -329037.5734357867      -329037.5734357867        366      0.01096087214027001     0.06277839495569851
        24                   0.0024                       0      -742.2643232459251          2347.316503838                       0      -329037.5734357867      -329037.5734357867        366      0.01096087214027001     0.06277839495569851
WARNING: Pair style restartinfo set but has no restart support (src/pair.cpp:754)
WARNING: Pair style restartinfo set but has no restart support (src/pair.cpp:754)
        25                   0.0025                       0      -727.9554243520931          2447.242570431                       0       -329037.573572914       -329037.573572914        366     0.005784906988467651     0.04498876638830338
        25                   0.0025                       0      -727.9554243520931          2447.242570431                       0       -329037.573572914       -329037.573572914        366     0.005784906988467651     0.04498876638830338
WARNING: Pair style restartinfo set but has no restart support (src/pair.cpp:754)
WARNING: Pair style restartinfo set but has no restart support (src/pair.cpp:754)
        26                   0.0026                       0      -740.7629429519222          2547.489395276                       0       -329037.573638601       -329037.573638601        366     0.004911545577977181     0.03138834497974621
        26                   0.0026                       0      -740.7629429519222          2547.489395276                       0       -329037.573638601       -329037.573638601        366     0.004911545577977181     0.03138834497974621
WARNING: Pair style restartinfo set but has no restart support (src/pair.cpp:754)
WARNING: Pair style restartinfo set but has no restart support (src/pair.cpp:754)
        27                   0.0027                       0      -747.1301431749836           2647.58850456                       0      -329037.5736641902      -329037.5736641902        366     0.002584496365177156     0.02119831565122495
        27                   0.0027                       0      -747.1301431749836           2647.58850456                       0      -329037.5736641902      -329037.5736641902        366     0.002584496365177156     0.02119831565122495
WARNING: Pair style restartinfo set but has no restart support (src/pair.cpp:754)
WARNING: Pair style restartinfo set but has no restart support (src/pair.cpp:754)
        28                   0.0028                       0      -741.1429668296845          2747.173797977                       0      -329037.5736874582      -329037.5736874582        366     0.004000671061445873      0.0275965416873099
        28                   0.0028                       0      -741.1429668296845          2747.173797977                       0      -329037.5736874582      -329037.5736874582        366     0.004000671061445873      0.0275965416873099
WARNING: Pair style restartinfo set but has no restart support (src/pair.cpp:754)
WARNING: Pair style restartinfo set but has no restart support (src/pair.cpp:754)
        29                   0.0029                       0      -732.3909777193752          2846.895171983                       0      -329037.5737162991      -329037.5737162991        366     0.002607717468389176     0.01866344695932058
        29                   0.0029                       0      -732.3909777193752          2846.895171983                       0      -329037.5737162991      -329037.5737162991        366     0.002607717468389176     0.01866344695932058
WARNING: Pair style restartinfo set but has no restart support (src/pair.cpp:754)
WARNING: Pair style restartinfo set but has no restart support (src/pair.cpp:754)
        30                    0.003                       0      -737.3117626334233          2946.553601263                       0      -329037.5737296087      -329037.5737296087        366     0.002301086214689184       0.017058008240005
        30                    0.003                       0      -737.3117626334233          2946.553601263                       0      -329037.5737296087      -329037.5737296087        366     0.002301086214689184       0.017058008240005
WARNING: Pair style restartinfo set but has no restart support (src/pair.cpp:754)
WARNING: Pair style restartinfo set but has no restart support (src/pair.cpp:754)
        31                   0.0031                       0      -741.4353033168501           3046.27097426                       0      -329037.5737389209      -329037.5737389209        366     0.001091851365747132     0.01194803274213764
        31                   0.0031                       0      -741.4353033168501           3046.27097426                       0      -329037.5737389209      -329037.5737389209        366     0.001091851365747132     0.01194803274213764
WARNING: Pair style restartinfo set but has no restart support (src/pair.cpp:754)
WARNING: Pair style restartinfo set but has no restart support (src/pair.cpp:754)
        32                   0.0032                       0      -736.0322937511077          3146.403661029                       0      -329037.5737477818      -329037.5737477818        366     0.001800320843652279      0.0158512941914308
        32                   0.0032                       0      -736.0322937511077          3146.403661029                       0      -329037.5737477818      -329037.5737477818        366     0.001800320843652279      0.0158512941914308
WARNING: Pair style restartinfo set but has no restart support (src/pair.cpp:754)
WARNING: Pair style restartinfo set but has no restart support (src/pair.cpp:754)
        33                   0.0033                       0      -732.5351174148049          3246.460317513                       0      -329037.5737549816      -329037.5737549816        366     0.001564775374640268     0.01085305908263906
        33                   0.0033                       0      -732.5351174148049          3246.460317513                       0      -329037.5737549816      -329037.5737549816        366     0.001564775374640268     0.01085305908263906
WARNING: Pair style restartinfo set but has no restart support (src/pair.cpp:754)
WARNING: Pair style restartinfo set but has no restart support (src/pair.cpp:754)
        34                   0.0034                       0      -735.5656213644575          3346.604896128                       0      -329037.5737588436      -329037.5737588436        366     0.001013736807051296    0.009545738691991696
        34                   0.0034                       0      -735.5656213644575          3346.604896128                       0      -329037.5737588436      -329037.5737588436        366     0.001013736807051296    0.009545738691991696
WARNING: Pair style restartinfo set but has no restart support (src/pair.cpp:754)
WARNING: Pair style restartinfo set but has no restart support (src/pair.cpp:754)
        35                   0.0035                       0      -739.2080056177198          3446.701825236                       0      -329037.5737623234      -329037.5737623234        366     0.001106749652867067    0.007377280418865859
        35                   0.0035                       0      -739.2080056177198          3446.701825236                       0      -329037.5737623234      -329037.5737623234        366     0.001106749652867067    0.007377280418865859
WARNING: Pair style restartinfo set but has no restart support (src/pair.cpp:754)
WARNING: Pair style restartinfo set but has no restart support (src/pair.cpp:754)
        36                   0.0036                       0      -736.4067530029035          3546.798043959                       0      -329037.5737647171      -329037.5737647171        366     0.001285201293496584    0.007282506218840655
        36                   0.0036                       0      -736.4067530029035          3546.798043959                       0      -329037.5737647171      -329037.5737647171        366     0.001285201293496584    0.007282506218840655
WARNING: Pair style restartinfo set but has no restart support (src/pair.cpp:754)
WARNING: Pair style restartinfo set but has no restart support (src/pair.cpp:754)
        37                   0.0037                       0      -734.1848167211642          3646.707564042                       0      -329037.5737662163      -329037.5737662163        366    0.0004247620564689376    0.004690801695066441
        37                   0.0037                       0      -734.1848167211642          3646.707564042                       0      -329037.5737662163      -329037.5737662163        366    0.0004247620564689376    0.004690801695066441
WARNING: Pair style restartinfo set but has no restart support (src/pair.cpp:754)
WARNING: Pair style restartinfo set but has no restart support (src/pair.cpp:754)
        38                   0.0038                       0      -735.9843590341751          3746.570403059                       0      -329037.5737674204      -329037.5737674204        366    0.0007340148743170886    0.005655658432377798
        38                   0.0038                       0      -735.9843590341751          3746.570403059                       0      -329037.5737674204      -329037.5737674204        366    0.0007340148743170886    0.005655658432377798
WARNING: Pair style restartinfo set but has no restart support (src/pair.cpp:754)
WARNING: Pair style restartinfo set but has no restart support (src/pair.cpp:754)
        39                   0.0039                       0      -737.4879997076459          3846.539781533                       0      -329037.5737685346      -329037.5737685346        366    0.0005817707743182193    0.005007042568139291
        39                   0.0039                       0      -737.4879997076459          3846.539781533                       0      -329037.5737685346      -329037.5737685346        366    0.0005817707743182193    0.005007042568139291
WARNING: Pair style restartinfo set but has no restart support (src/pair.cpp:754)
WARNING: Pair style restartinfo set but has no restart support (src/pair.cpp:754)
        40                    0.004                       0      -736.0797489970533          3946.421642246                       0      -329037.5737698418      -329037.5737698418        366     0.000616359800357568    0.005401577859853251
        40                    0.004                       0      -736.0797489970533          3946.421642246                       0      -329037.5737698418      -329037.5737698418        366     0.000616359800357568    0.005401577859853251
WARNING: Pair style restartinfo set but has no restart support (src/pair.cpp:754)
WARNING: Pair style restartinfo set but has no restart support (src/pair.cpp:754)
        41                   0.0041                       0      -734.9813772804433          4046.312274923                       0       -329037.573770811       -329037.573770811        366    0.0004999448003961032    0.004356913927055739
        41                   0.0041                       0      -734.9813772804433          4046.312274923                       0       -329037.573770811       -329037.573770811        366    0.0004999448003961032    0.004356913927055739
WARNING: Pair style restartinfo set but has no restart support (src/pair.cpp:754)
WARNING: Pair style restartinfo set but has no restart support (src/pair.cpp:754)
        42     0.004200000000000001                       0      -735.8588511489617           4146.06159633                       0      -329037.5737715263      -329037.5737715263        366    0.0004086961353062461    0.004336100315241824
        42     0.004200000000000001                       0      -735.8588511489617           4146.06159633                       0      -329037.5737715263      -329037.5737715263        366    0.0004086961353062461    0.004336100315241824
WARNING: Pair style restartinfo set but has no restart support (src/pair.cpp:754)
WARNING: Pair style restartinfo set but has no restart support (src/pair.cpp:754)
        43                   0.0043                       0      -737.1525304695508          4245.841729903                       0      -329037.5737721571      -329037.5737721571        366    0.0003661946587257035     0.00325151896305521
        43                   0.0043                       0      -737.1525304695508          4245.841729903                       0      -329037.5737721571      -329037.5737721571        366    0.0003661946587257035     0.00325151896305521
WARNING: Pair style restartinfo set but has no restart support (src/pair.cpp:754)
WARNING: Pair style restartinfo set but has no restart support (src/pair.cpp:754)
        44                   0.0044                       0      -736.7601518993056          4346.017245432                       0      -329037.5737726528      -329037.5737726528        366    0.0004892351625648741    0.003155415574774429
        44                   0.0044                       0      -736.7601518993056          4346.017245432                       0      -329037.5737726528      -329037.5737726528        366    0.0004892351625648741    0.003155415574774429
WARNING: Pair style restartinfo set but has no restart support (src/pair.cpp:754)
WARNING: Pair style restartinfo set but has no restart support (src/pair.cpp:754)
        45     0.004500000000000001                       0      -736.3994300510574          4445.890670468                       0      -329037.5737728923      -329037.5737728923        366    0.0002494366159146028    0.001850021530551332
        45     0.004500000000000001                       0      -736.3994300510574          4445.890670468                       0      -329037.5737728923      -329037.5737728923        366    0.0002494366159146028    0.001850021530551332
WARNING: Pair style restartinfo set but has no restart support (src/pair.cpp:754)
WARNING: Pair style restartinfo set but has no restart support (src/pair.cpp:754)
        46                   0.0046                       0      -736.6767153498697          4545.551220329                       0      -329037.5737730891      -329037.5737730891        366    0.0003104236938041107    0.001960463306439515
        46                   0.0046                       0      -736.6767153498697          4545.551220329                       0      -329037.5737730891      -329037.5737730891        366    0.0003104236938041107    0.001960463306439515
WARNING: Pair style restartinfo set but has no restart support (src/pair.cpp:754)
WARNING: Pair style restartinfo set but has no restart support (src/pair.cpp:754)
        47                   0.0047                       0      -737.0402202609157          4645.411419715                       0      -329037.5737732354      -329037.5737732354        366    0.0003088000845884523    0.001972101614377094
        47                   0.0047                       0      -737.0402202609157          4645.411419715                       0      -329037.5737732354      -329037.5737732354        366    0.0003088000845884523    0.001972101614377094
WARNING: Pair style restartinfo set but has no restart support (src/pair.cpp:754)
WARNING: Pair style restartinfo set but has no restart support (src/pair.cpp:754)
        48                   0.0048                       0      -737.3301309798363          4745.170662717                       0      -329037.5737734783      -329037.5737734783        366    0.0003648824989155725    0.002497261895504647
        48                   0.0048                       0      -737.3301309798363          4745.170662717                       0      -329037.5737734783      -329037.5737734783        366    0.0003648824989155725    0.002497261895504647
WARNING: Pair style restartinfo set but has no restart support (src/pair.cpp:754)
WARNING: Pair style restartinfo set but has no restart support (src/pair.cpp:754)
        49                   0.0049                       0      -737.3944061018724          4845.209108577                       0      -329037.5737736488      -329037.5737736488        366    0.0001976311134528515    0.001877296745721384
        49                   0.0049                       0      -737.3944061018724          4845.209108577                       0      -329037.5737736488      -329037.5737736488        366    0.0001976311134528515    0.001877296745721384
WARNING: Pair style restartinfo set but has no restart support (src/pair.cpp:754)
WARNING: Pair style restartinfo set but has no restart support (src/pair.cpp:754)
        50                    0.005                       0       -737.531637779309          4945.207210177                       0      -329037.5737738473      -329037.5737738473        366    0.0002896037992065144    0.001899833623613307
        50                    0.005                       0       -737.531637779309          4945.207210177                       0      -329037.5737738473      -329037.5737738473        366    0.0002896037992065144    0.001899833623613307
WARNING: Pair style restartinfo set but has no restart support (src/pair.cpp:754)
WARNING: Pair style restartinfo set but has no restart support (src/pair.cpp:754)
        51                   0.0051                       0      -737.7787265713613       5045.154169347999                       0      -329037.5737739574      -329037.5737739574        366    0.0001976361985642262    0.001617928649090947
        51                   0.0051                       0      -737.7787265713613       5045.154169347999                       0      -329037.5737739574      -329037.5737739574        366    0.0001976361985642262    0.001617928649090947
WARNING: Pair style restartinfo set but has no restart support (src/pair.cpp:754)
WARNING: Pair style restartinfo set but has no restart support (src/pair.cpp:754)
        52     0.005200000000000001                       0      -738.1610841854184          5145.214008106                       0      -329037.5737740725      -329037.5737740725        366    0.0002955245433443501    0.001650147775879533
        52     0.005200000000000001                       0      -738.1610841854184          5145.214008106                       0      -329037.5737740725      -329037.5737740725        366    0.0002955245433443501    0.001650147775879533
WARNING: Pair style restartinfo set but has no restart support (src/pair.cpp:754)
WARNING: Pair style restartinfo set but has no restart support (src/pair.cpp:754)
        53                   0.0053                       0      -738.2880251104543          5245.222733327                       0      -329037.5737741521      -329037.5737741521        366    0.0001743716517631916    0.001128369788105463
        53                   0.0053                       0      -738.2880251104543          5245.222733327                       0      -329037.5737741521      -329037.5737741521        366    0.0001743716517631916    0.001128369788105463
WARNING: Pair style restartinfo set but has no restart support (src/pair.cpp:754)
WARNING: Pair style restartinfo set but has no restart support (src/pair.cpp:754)
        54                   0.0054                       0      -738.1681184133988           5345.06825992                       0      -329037.5737742443      -329037.5737742443        366    0.0002084511620932492    0.001439431399812267
        54                   0.0054                       0      -738.1681184133988           5345.06825992                       0      -329037.5737742443      -329037.5737742443        366    0.0002084511620932492    0.001439431399812267
WARNING: Pair style restartinfo set but has no restart support (src/pair.cpp:754)
WARNING: Pair style restartinfo set but has no restart support (src/pair.cpp:754)
        55     0.005500000000000001                       0      -738.3412342744672          5445.040900682                       0      -329037.5737743172      -329037.5737743172        366    0.0001903783302560358    0.001260691403275994
        55     0.005500000000000001                       0      -738.3412342744672          5445.040900682                       0      -329037.5737743172      -329037.5737743172        366    0.0001903783302560358    0.001260691403275994
WARNING: Pair style restartinfo set but has no restart support (src/pair.cpp:754)
WARNING: Pair style restartinfo set but has no restart support (src/pair.cpp:754)
        56                   0.0056                       0      -738.8077022605939           5544.92233282                       0      -329037.5737743896      -329037.5737743896        366    0.0001477971120560969    0.001058737171922606
        56                   0.0056                       0      -738.8077022605939           5544.92233282                       0      -329037.5737743896      -329037.5737743896        366    0.0001477971120560969    0.001058737171922606
WARNING: Pair style restartinfo set but has no restart support (src/pair.cpp:754)
WARNING: Pair style restartinfo set but has no restart support (src/pair.cpp:754)
        57                   0.0057                       0       -738.860408495664          5694.680733307                       0      -329037.5737744182      -329037.5737744182        366    0.0001070923002519721   0.0007762306593668463
        57                   0.0057                       0       -738.860408495664          5694.680733307                       0      -329037.5737744182      -329037.5737744182        366    0.0001070923002519721   0.0007762306593668463
Loop time of 5694.68 on 48 procs for 57 steps with 366 atoms

Loop time of 5694.68 on 48 procs for 57 steps with 366 atoms

458.8% CPU use with 4 MPI tasks x 12 OpenMP threads
458.8% CPU use with 4 MPI tasks x 12 OpenMP threads

Minimization stats:
  Stopping criterion = force tolerance
  Energy initial, next-to-last, final = 
     -329014.213278079   -329037.57377439  -329037.573774418
  Force two-norm initial, final = 36.545759 0.00077623066
  Force max component initial, final = 3.1025854 0.0001070923
  Final line search alpha, max atom move = 1 0.0001070923
  Iterations, force evaluations = 57 113

Minimization stats:
  Stopping criterion = force tolerance
  Energy initial, next-to-last, final = 
     -329014.213278079   -329037.57377439  -329037.573774418
  Force two-norm initial, final = 36.545759 0.00077623066
  Force max component initial, final = 3.1025854 0.0001070923
  Final line search alpha, max atom move = 1 0.0001070923
  Iterations, force evaluations = 57 113

MPI task timing breakdown:
Section |  min time  |  avg time  |  max time  |%varavg| %total
---------------------------------------------------------------

MPI task timing breakdown:
Section |  min time  |  avg time  |  max time  |%varavg| %total
---------------------------------------------------------------
Pair    | 4054.7     | 4869.3     | 5688.9     |1165.8 | 85.51
Pair    | 4054.7     | 4869.3     | 5688.9     |1165.8 | 85.51
Neigh   | 1.7381     | 2.1438     | 2.5498     |  27.7 |  0.04
Neigh   | 1.7381     | 2.1438     | 2.5498     |  27.7 |  0.04
Comm    | 3.1257     | 823.13     | 1638.2     |2836.8 | 14.45
Comm    | 3.1257     | 823.13     | 1638.2     |2836.8 | 14.45
Output  | 0.05776    | 0.057854   | 0.058125   |   0.1 |  0.00
Output  | 0.05776    | 0.057854   | 0.058125   |   0.1 |  0.00
Modify  | 0          | 0          | 0          |   0.0 |  0.00
Modify  | 0          | 0          | 0          |   0.0 |  0.00
Other   |            | 0.01255    |            |       |  0.00
Other   |            | 0.01255    |            |       |  0.00

Nlocal:           91.5 ave         144 max          40 min
Histogram: 2 0 0 0 0 0 0 0 0 2
Nghost:         3630.5 ave        4214 max        3047 min
Histogram: 2 0 0 0 0 0 0 0 0 2
Neighs:              0 ave           0 max           0 min
Histogram: 4 0 0 0 0 0 0 0 0 0
FullNghs:      58975.5 ave       93503 max       25091 min
Histogram: 2 0 0 0 0 0 0 0 0 2

Nlocal:           91.5 ave         144 max          40 min
Histogram: 2 0 0 0 0 0 0 0 0 2
Nghost:         3630.5 ave        4214 max        3047 min
Histogram: 2 0 0 0 0 0 0 0 0 2
Neighs:              0 ave           0 max           0 min
Histogram: 4 0 0 0 0 0 0 0 0 0
FullNghs:      58975.5 ave       93503 max       25091 min
Histogram: 2 0 0 0 0 0 0 0 0 2


Total # of neighbors = 235902
Ave neighs/atom = 644.54098
Neighbor list builds = 114
Dangerous builds = 0
Total # of neighbors = 235902
Ave neighs/atom = 644.54098
Neighbor list builds = 114
Dangerous builds = 0
write_dump all xyz /home/theory/phrrpq/bilayer_relaxations/MoS2_WS2/AP/4/MoS2_WS2_AP_4.xyz modify sort id pbc yes element Mo W S

Total wall time: 1:36:35
Total wall time: 1:36:35
