OMP_THREADS: 12
MPI: 1
NTASKS-PER-NODE: 4
CPUS_PER_TASK: 12
LAMMPS (28 Mar 2023 - Development)
  using 12 OpenMP thread(s) per MPI task
  using 12 OpenMP thread(s) per MPI task
Reading restart file ...
  restart file = 28 Mar 2023, LAMMPS = 28 Mar 2023
  restoring atom style atomic from restart
  triclinic box = (0 0 0) to (168.45367 145.88516 30) with tilt (-84.226836 0 0)
WARNING: Triclinic box skew is large. LAMMPS will run inefficiently. (src/domain.cpp:220)
  2 by 2 by 1 MPI processor grid
  restoring pair style mace from restart
WARNING: Pair style restartinfo set but has no restart support (src/pair.cpp:746)
  16746 atoms
  read_restart CPU = 0.006 seconds
CUDA unavailable, setting device type to torch::kCPU.
CUDA unavailable, setting device type to torch::kCPU.
CUDA unavailable, setting device type to torch::kCPU.
CUDA unavailable, setting device type to torch::kCPU.
Loading MACE model from "/home/theory/phrrpq/bilayer_relaxations/MoWSSe_bi_radius_8_reduced_all_1_swa_800_run-123_swa.model-lammps.pt" ... finished.
Loading MACE model from "/home/theory/phrrpq/bilayer_relaxations/MoWSSe_bi_radius_8_reduced_all_1_swa_800_run-123_swa.model-lammps.pt" ... finished.
Loading MACE model from "/home/theory/phrrpq/bilayer_relaxations/MoWSSe_bi_radius_8_reduced_all_1_swa_800_run-123_swa.model-lammps.pt" ... finished.
  - The torch_float_dtype is: Double
  - The r_max is: 8.
  - The model has: 2 layers.
  - The torch_float_dtype is: Double
  - The torch_float_dtype is: Double
  - The model atomic numbers are: 16 34 42 74.
  - The pair_coeff atomic numbers are: 42 16 74.
  - The r_max is: 8.
  - The r_max is: 8.
  - The model has: 2 layers.
  - The model has: 2 layers.
  - The model atomic numbers are: 16 34 42 74.
  - The pair_coeff atomic numbers are: 42 16 74.
  - The model atomic numbers are: 16 34 42 74.
  - The pair_coeff atomic numbers are: 42 16 74.
Generated 0 of 3 mixed pair_coeff terms from geometric mixing rule
Loading MACE model from "/home/theory/phrrpq/bilayer_relaxations/MoWSSe_bi_radius_8_reduced_all_1_swa_800_run-123_swa.model-lammps.pt" ... finished.
  - The torch_float_dtype is: Double
  - The r_max is: 8.
  - The model has: 2 layers.
  - The model atomic numbers are: 16 34 42 74.
  - The pair_coeff atomic numbers are: 42 16 74.
Neighbor list info ...
  update: every = 1 steps, delay = 0 steps, check = yes
  max neighbors/atom: 2000, page size: 100000
  master list distance cutoff = 18
  ghost atom cutoff = 18
  binsize = 9, bins = 29 17 4
  1 neighbor lists, perpetual/occasional/extra = 1 0 0
  (1) pair mace, perpetual
      attributes: full, newton on, ghost
      pair build: full/bin/ghost
      stencil: full/ghost/bin/3d
      bin: standard
Setting up Verlet run ...
  Unit style    : metal
  Current step  : 637
  Time step     : 0.0001
Per MPI rank memory allocation (min/avg/max) = 63.8 | 63.82 | 63.83 Mbytes
   Step          Time           Temp          Press           CPU           KinEng         PotEng         TotEng        Atoms         Fmax          Fnorm     
       637      0.06370000000000001                       0      -360.7648747959431                       0                       0      -15054865.44836042      -15054865.44836042      16746    1.967637125810236e-05   0.0005896368930200069
Loop time of 2.76175e-06 on 48 procs for 0 steps with 16746 atoms

99.6% CPU use with 4 MPI tasks x 12 OpenMP threads

MPI task timing breakdown:
Section |  min time  |  avg time  |  max time  |%varavg| %total
---------------------------------------------------------------
Pair    | 0          | 0          | 0          |   0.0 |  0.00
Neigh   | 0          | 0          | 0          |   0.0 |  0.00
Comm    | 0          | 0          | 0          |   0.0 |  0.00
Output  | 0          | 0          | 0          |   0.0 |  0.00
Modify  | 0          | 0          | 0          |   0.0 |  0.00
Other   |            | 2.762e-06  |            |       |100.00

Nlocal:         4186.5 ave        4230 max        4165 min
Histogram: 2 0 1 0 0 0 0 0 0 1
Nghost:          14540 ave       14569 max       14484 min
Histogram: 1 0 0 0 0 0 1 0 0 2
Neighs:              0 ave           0 max           0 min
Histogram: 4 0 0 0 0 0 0 0 0 0
FullNghs:  2.71249e+06 ave 2.73864e+06 max 2.70084e+06 min
Histogram: 2 1 0 0 0 0 0 0 0 1

Total # of neighbors = 10849944
Ave neighs/atom = 647.91258
Neighbor list builds = 0
Dangerous builds = 0
BEGIN LAMMPS STANDALONE MINIMIZATION; ii = 30; OMP = 12; MPI = 4
minimize 0.0 1e-3 1000 100000
Generated 0 of 3 mixed pair_coeff terms from geometric mixing rule
Generated 0 of 3 mixed pair_coeff terms from geometric mixing rule
Setting up cg style minimization ...
  Unit style    : metal
  Current step  : 637
Per MPI rank memory allocation (min/avg/max) = 66.05 | 66.07 | 66.08 Mbytes
Per MPI rank memory allocation (min/avg/max) = 66.05 | 66.07 | 66.08 Mbytes
   Step          Time           Temp          Press           CPU           KinEng         PotEng         TotEng        Atoms         Fmax          Fnorm     
   Step          Time           Temp          Press           CPU           KinEng         PotEng         TotEng        Atoms         Fmax          Fnorm     
       637      0.06370000000000001                       0      -360.7648747959486                       0                       0      -15054865.44836042      -15054865.44836042      16746    1.967637125786352e-05   0.0005896368930226661
       637      0.06370000000000001                       0      -360.7648747959486                       0                       0      -15054865.44836042      -15054865.44836042      16746    1.967637125786352e-05   0.0005896368930226661
WARNING: Pair style restartinfo set but has no restart support (src/pair.cpp:754)
WARNING: Pair style restartinfo set but has no restart support (src/pair.cpp:754)
       638      0.06380000000000001                       0      -360.7648747959427            2907.3095158                       0      -15054865.44836042      -15054865.44836042      16746    1.967637125775993e-05   0.0005896368930164444
       638      0.06380000000000001                       0      -360.7648747959427            2907.3095158                       0      -15054865.44836042      -15054865.44836042      16746    1.967637125775993e-05   0.0005896368930164444
Loop time of 2907.31 on 48 procs for 1 steps with 16746 atoms

Loop time of 2907.31 on 48 procs for 1 steps with 16746 atoms

521.5% CPU use with 4 MPI tasks x 12 OpenMP threads
521.5% CPU use with 4 MPI tasks x 12 OpenMP threads

Minimization stats:
  Stopping criterion = linesearch alpha is zero
  Energy initial, next-to-last, final = 
     -15054865.4483604  -15054865.4483604  -15054865.4483604
  Force two-norm initial, final = 0.00058963689 0.00058963689
  Force max component initial, final = 1.9676371e-05 1.9676371e-05
  Final line search alpha, max atom move = 0.03125 6.148866e-07
  Iterations, force evaluations = 1 11

Minimization stats:
  Stopping criterion = linesearch alpha is zero
  Energy initial, next-to-last, final = 
     -15054865.4483604  -15054865.4483604  -15054865.4483604
  Force two-norm initial, final = 0.00058963689 0.00058963689
  Force max component initial, final = 1.9676371e-05 1.9676371e-05
  Final line search alpha, max atom move = 0.03125 6.148866e-07
  Iterations, force evaluations = 1 11

MPI task timing breakdown:
Section |  min time  |  avg time  |  max time  |%varavg| %total
---------------------------------------------------------------

MPI task timing breakdown:
Section |  min time  |  avg time  |  max time  |%varavg| %total
---------------------------------------------------------------
Pair    | 2862.9     | 2882.7     | 2904.7     |  28.1 | 99.15
Pair    | 2862.9     | 2882.7     | 2904.7     |  28.1 | 99.15
Neigh   | 1.3516     | 1.3556     | 1.36       |   0.3 |  0.05
Neigh   | 1.3516     | 1.3556     | 1.36       |   0.3 |  0.05
Comm    | 1.2509     | 23.276     | 43.02      | 312.6 |  0.80
Comm    | 1.2509     | 23.276     | 43.02      | 312.6 |  0.80
Output  | 0          | 0          | 0          |   0.0 |  0.00
Output  | 0          | 0          | 0          |   0.0 |  0.00
Modify  | 0          | 0          | 0          |   0.0 |  0.00
Modify  | 0          | 0          | 0          |   0.0 |  0.00
Other   |            | 0.006203   |            |       |  0.00
Other   |            | 0.006203   |            |       |  0.00

Nlocal:         4186.5 ave        4230 max        4165 min
Histogram: 2 0 1 0 0 0 0 0 0 1
Nghost:          14540 ave       14569 max       14484 min
Histogram: 1 0 0 0 0 0 1 0 0 2
Neighs:              0 ave           0 max           0 min
Histogram: 4 0 0 0 0 0 0 0 0 0
FullNghs:  2.71249e+06 ave 2.73864e+06 max 2.70084e+06 min
Histogram: 2 1 0 0 0 0 0 0 0 1

Nlocal:         4186.5 ave        4230 max        4165 min
Histogram: 2 0 1 0 0 0 0 0 0 1
Nghost:          14540 ave       14569 max       14484 min
Histogram: 1 0 0 0 0 0 1 0 0 2
Neighs:              0 ave           0 max           0 min
Histogram: 4 0 0 0 0 0 0 0 0 0
FullNghs:  2.71249e+06 ave 2.73864e+06 max 2.70084e+06 min
Histogram: 2 1 0 0 0 0 0 0 0 1


Total # of neighbors = 10849944
Ave neighs/atom = 647.91258
Neighbor list builds = 12
Dangerous builds = 0
Total # of neighbors = 10849944
Ave neighs/atom = 647.91258
Neighbor list builds = 12
Dangerous builds = 0
#write_dump all xyz /home/theory/phrrpq/bilayer_relaxations/MoS2_WS2/P/30/MoS2_WS2_P_30.xyz modify sort id pbc yes element Mo S W
write_data /home/theory/phrrpq/bilayer_relaxations/MoS2_WS2/P/30/MoS2_WS2_P_30.data
System init for write_data ...
System init for write_data ...
Generated 0 of 3 mixed pair_coeff terms from geometric mixing rule
Generated 0 of 3 mixed pair_coeff terms from geometric mixing rule
Total wall time: 0:56:35
Total wall time: 0:56:35
