OMP_THREADS: 12
MPI: 1
NTASKS-PER-NODE: 4
CPUS_PER_TASK: 12
LAMMPS (28 Mar 2023 - Development)
  using 12 OpenMP thread(s) per MPI task
  using 12 OpenMP thread(s) per MPI task
Reading restart file ...
  restart file = 28 Mar 2023, LAMMPS = 28 Mar 2023
  restoring atom style atomic from restart
  triclinic box = (0 0 0) to (140.84103 121.97191 28.26298) with tilt (70.420516 0 0)
WARNING: Triclinic box skew is large. LAMMPS will run inefficiently. (src/domain.cpp:220)
  2 by 2 by 1 MPI processor grid
  restoring pair style mace from restart
WARNING: Pair style restartinfo set but has no restart support (src/pair.cpp:746)
  11706 atoms
  read_restart CPU = 0.006 seconds
CUDA unavailable, setting device type to torch::kCPU.
CUDA unavailable, setting device type to torch::kCPU.
CUDA unavailable, setting device type to torch::kCPU.
CUDA unavailable, setting device type to torch::kCPU.
Loading MACE model from "/home/theory/phrrpq/bilayer_relaxations/MoWSSe_bi_radius_8_reduced_all_1_swa_800_run-123_swa.model-lammps.pt" ... finished.
Loading MACE model from "/home/theory/phrrpq/bilayer_relaxations/MoWSSe_bi_radius_8_reduced_all_1_swa_800_run-123_swa.model-lammps.pt" ... finished.
  - The torch_float_dtype is: Double
  - The r_max is: 8.
  - The model has: 2 layers.
  - The model atomic numbers are: 16 34 42 74.
  - The pair_coeff atomic numbers are: 42 16 74.
  - The torch_float_dtype is: Double
  - The r_max is: 8.
  - The model has: 2 layers.
  - The model atomic numbers are: 16 34 42 74.
  - The pair_coeff atomic numbers are: 42 16 74.
Loading MACE model from "/home/theory/phrrpq/bilayer_relaxations/MoWSSe_bi_radius_8_reduced_all_1_swa_800_run-123_swa.model-lammps.pt" ... finished.
Loading MACE model from "/home/theory/phrrpq/bilayer_relaxations/MoWSSe_bi_radius_8_reduced_all_1_swa_800_run-123_swa.model-lammps.pt" ... finished.
  - The torch_float_dtype is: Double
  - The r_max is: 8.
  - The model has: 2 layers.
  - The model atomic numbers are: 16 34 42 74.
  - The pair_coeff atomic numbers are: 42 16 74.
  - The torch_float_dtype is: Double
  - The r_max is: 8.
  - The model has: 2 layers.
  - The model atomic numbers are: 16 34 42 74.
  - The pair_coeff atomic numbers are: 42 16 74.
Generated 0 of 3 mixed pair_coeff terms from geometric mixing rule
Neighbor list info ...
  update: every = 1 steps, delay = 0 steps, check = yes
  max neighbors/atom: 2000, page size: 100000
  master list distance cutoff = 18
  ghost atom cutoff = 18
  binsize = 9, bins = 24 14 4
  1 neighbor lists, perpetual/occasional/extra = 1 0 0
  (1) pair mace, perpetual
      attributes: full, newton on, ghost
      pair build: full/bin/ghost
      stencil: full/ghost/bin/3d
      bin: standard
Setting up Verlet run ...
  Unit style    : metal
  Current step  : 1067
  Time step     : 0.0001
Per MPI rank memory allocation (min/avg/max) = 60.06 | 60.06 | 60.06 Mbytes
   Step          Time           Temp           CPU           TotEng          Fmax          Fnorm     
      1067                   0.1067                       0                       0      -10523836.23767328   4.360461444321878e-05    0.001264939892550138
Loop time of 7.67125e-06 on 48 procs for 0 steps with 11706 atoms

65.2% CPU use with 4 MPI tasks x 12 OpenMP threads

MPI task timing breakdown:
Section |  min time  |  avg time  |  max time  |%varavg| %total
---------------------------------------------------------------
Pair    | 0          | 0          | 0          |   0.0 |  0.00
Neigh   | 0          | 0          | 0          |   0.0 |  0.00
Comm    | 0          | 0          | 0          |   0.0 |  0.00
Output  | 0          | 0          | 0          |   0.0 |  0.00
Modify  | 0          | 0          | 0          |   0.0 |  0.00
Other   |            | 7.671e-06  |            |       |100.00

Nlocal:         2926.5 ave        2956 max        2886 min
Histogram: 1 0 0 1 0 0 0 0 0 2
Nghost:        16618.8 ave       16713 max       16568 min
Histogram: 2 0 0 1 0 0 0 0 0 1
Neighs:              0 ave           0 max           0 min
Histogram: 4 0 0 0 0 0 0 0 0 0
FullNghs:   1.8932e+06 ave 1.91177e+06 max 1.86629e+06 min
Histogram: 1 0 0 1 0 0 0 0 0 2

Total # of neighbors = 7572784
Ave neighs/atom = 646.91474
Neighbor list builds = 0
Dangerous builds = 0
BEGIN LAMMPS STANDALONE MINIMIZATION; ii = 25; OMP = 12; MPI = 4
minimize 0.0 1e-3 1000 100000
Generated 0 of 3 mixed pair_coeff terms from geometric mixing rule
Generated 0 of 3 mixed pair_coeff terms from geometric mixing rule
Setting up cg style minimization ...
  Unit style    : metal
  Current step  : 1067
Per MPI rank memory allocation (min/avg/max) = 62.31 | 62.31 | 62.31 Mbytes
Per MPI rank memory allocation (min/avg/max) = 62.31 | 62.31 | 62.31 Mbytes
   Step          Time           Temp           CPU           TotEng          Fmax          Fnorm     
   Step          Time           Temp           CPU           TotEng          Fmax          Fnorm     
      1067                   0.1067                       0                       0      -10523836.23767328   4.360461448632363e-05    0.001264939892417451
      1067                   0.1067                       0                       0      -10523836.23767328   4.360461448632363e-05    0.001264939892417451
WARNING: Pair style restartinfo set but has no restart support (src/pair.cpp:754)
WARNING: Pair style restartinfo set but has no restart support (src/pair.cpp:754)
      1068                   0.1068                       0       485.9835455309999      -10523836.23767333   4.755933537528727e-05    0.001058875516742337
      1068                   0.1068                       0       485.9835455309999      -10523836.23767333   4.755933537528727e-05    0.001058875516742337
WARNING: Pair style restartinfo set but has no restart support (src/pair.cpp:754)
WARNING: Pair style restartinfo set but has no restart support (src/pair.cpp:754)
      1069                   0.1069                       0       971.0787448789999      -10523836.23767338   3.282822992636825e-05    0.001061963883332645
      1069                   0.1069                       0       971.0787448789999      -10523836.23767338   3.282822992636825e-05    0.001061963883332645
WARNING: Pair style restartinfo set but has no restart support (src/pair.cpp:754)
WARNING: Pair style restartinfo set but has no restart support (src/pair.cpp:754)
      1070                    0.107                       0          1456.145644725      -10523836.23767343   4.480671561243226e-05    0.001191388812794114
      1070                    0.107                       0          1456.145644725      -10523836.23767343   4.480671561243226e-05    0.001191388812794114
WARNING: Pair style restartinfo set but has no restart support (src/pair.cpp:754)
WARNING: Pair style restartinfo set but has no restart support (src/pair.cpp:754)
      1071                   0.1071                       0          1941.732308052      -10523836.23767349   3.277743026980915e-05    0.001024332486703352
      1071                   0.1071                       0          1941.732308052      -10523836.23767349   3.277743026980915e-05    0.001024332486703352
WARNING: Pair style restartinfo set but has no restart support (src/pair.cpp:754)
WARNING: Pair style restartinfo set but has no restart support (src/pair.cpp:754)
      1072                   0.1072                       0          2425.392576982      -10523836.23767353   4.410565335923543e-05    0.001263574216979268
      1072                   0.1072                       0          2425.392576982      -10523836.23767353   4.410565335923543e-05    0.001263574216979268
WARNING: Pair style restartinfo set but has no restart support (src/pair.cpp:754)
WARNING: Pair style restartinfo set but has no restart support (src/pair.cpp:754)
      1073                   0.1073                       0          2909.959754032      -10523836.23767361   3.882301039504182e-05    0.001151369479724589
      1073                   0.1073                       0          2909.959754032      -10523836.23767361   3.882301039504182e-05    0.001151369479724589
WARNING: Pair style restartinfo set but has no restart support (src/pair.cpp:754)
WARNING: Pair style restartinfo set but has no restart support (src/pair.cpp:754)
      1074                   0.1074                       0          3392.912555229      -10523836.23767366   4.460071991740979e-05    0.001278613461323565
      1074                   0.1074                       0          3392.912555229      -10523836.23767366   4.460071991740979e-05    0.001278613461323565
WARNING: Pair style restartinfo set but has no restart support (src/pair.cpp:754)
WARNING: Pair style restartinfo set but has no restart support (src/pair.cpp:754)
      1075                   0.1075                       0          3878.224132621      -10523836.23767374   3.832890573175762e-05    0.001171361724743409
      1075                   0.1075                       0          3878.224132621      -10523836.23767374   3.832890573175762e-05    0.001171361724743409
WARNING: Pair style restartinfo set but has no restart support (src/pair.cpp:754)
WARNING: Pair style restartinfo set but has no restart support (src/pair.cpp:754)
      1076                   0.1076                       0          4362.208869397       -10523836.2376738   5.501911515858049e-05    0.001234467283122972
      1076                   0.1076                       0          4362.208869397       -10523836.2376738   5.501911515858049e-05    0.001234467283122972
WARNING: Pair style restartinfo set but has no restart support (src/pair.cpp:754)
WARNING: Pair style restartinfo set but has no restart support (src/pair.cpp:754)
      1077                   0.1077                       0          4847.463224963      -10523836.23767385   3.711213145151087e-05    0.001163589032099171
      1077                   0.1077                       0          4847.463224963      -10523836.23767385   3.711213145151087e-05    0.001163589032099171
WARNING: Pair style restartinfo set but has no restart support (src/pair.cpp:754)
WARNING: Pair style restartinfo set but has no restart support (src/pair.cpp:754)
      1078                   0.1078                       0          5328.399861695      -10523836.23767391   4.608534205498283e-05    0.001253902693081479
      1078                   0.1078                       0          5328.399861695      -10523836.23767391   4.608534205498283e-05    0.001253902693081479
WARNING: Pair style restartinfo set but has no restart support (src/pair.cpp:754)
WARNING: Pair style restartinfo set but has no restart support (src/pair.cpp:754)
      1079                   0.1079                       0          5811.832572933        -10523836.237674   4.052434904755747e-05    0.001178525347433936
      1079                   0.1079                       0          5811.832572933        -10523836.237674   4.052434904755747e-05    0.001178525347433936
WARNING: Pair style restartinfo set but has no restart support (src/pair.cpp:754)
WARNING: Pair style restartinfo set but has no restart support (src/pair.cpp:754)
      1080                    0.108                       0          6294.524117147      -10523836.23767406   4.385903413259328e-05    0.001233648322275958
      1080                    0.108                       0          6294.524117147      -10523836.23767406   4.385903413259328e-05    0.001233648322275958
WARNING: Pair style restartinfo set but has no restart support (src/pair.cpp:754)
WARNING: Pair style restartinfo set but has no restart support (src/pair.cpp:754)
      1081                   0.1081                       0          6777.990407369      -10523836.23767413   3.839000601400121e-05    0.001211692208527487
      1081                   0.1081                       0          6777.990407369      -10523836.23767413   3.839000601400121e-05    0.001211692208527487
WARNING: Pair style restartinfo set but has no restart support (src/pair.cpp:754)
WARNING: Pair style restartinfo set but has no restart support (src/pair.cpp:754)
      1082                   0.1082                       0          7261.447679886      -10523836.23767417   4.971958495843948e-05    0.001251665421372378
      1082                   0.1082                       0          7261.447679886      -10523836.23767417   4.971958495843948e-05    0.001251665421372378
WARNING: Pair style restartinfo set but has no restart support (src/pair.cpp:754)
WARNING: Pair style restartinfo set but has no restart support (src/pair.cpp:754)
      1083                   0.1083                       0          7745.817715814      -10523836.23767425   4.337914867665396e-05    0.001144803010952214
      1083                   0.1083                       0          7745.817715814      -10523836.23767425   4.337914867665396e-05    0.001144803010952214
WARNING: Pair style restartinfo set but has no restart support (src/pair.cpp:754)
WARNING: Pair style restartinfo set but has no restart support (src/pair.cpp:754)
      1084                   0.1084                       0          8229.286124508      -10523836.23767429   4.111005402606576e-05    0.001244763421132889
      1084                   0.1084                       0          8229.286124508      -10523836.23767429   4.111005402606576e-05    0.001244763421132889
WARNING: Pair style restartinfo set but has no restart support (src/pair.cpp:754)
WARNING: Pair style restartinfo set but has no restart support (src/pair.cpp:754)
      1085                   0.1085                       0       8713.227863751001      -10523836.23767438   3.868572353023057e-05    0.001244014245428472
      1085                   0.1085                       0       8713.227863751001      -10523836.23767438   3.868572353023057e-05    0.001244014245428472
WARNING: Pair style restartinfo set but has no restart support (src/pair.cpp:754)
WARNING: Pair style restartinfo set but has no restart support (src/pair.cpp:754)
      1086                   0.1086                       0       9197.509908993001      -10523836.23767444   4.258102132542464e-05    0.001241083089166669
      1086                   0.1086                       0       9197.509908993001      -10523836.23767444   4.258102132542464e-05    0.001241083089166669
WARNING: Pair style restartinfo set but has no restart support (src/pair.cpp:754)
WARNING: Pair style restartinfo set but has no restart support (src/pair.cpp:754)
      1087                   0.1087                       0          9678.650483366      -10523836.23767452    3.72646840549138e-05    0.001199038867098834
      1087                   0.1087                       0          9678.650483366      -10523836.23767452    3.72646840549138e-05    0.001199038867098834
WARNING: Pair style restartinfo set but has no restart support (src/pair.cpp:754)
WARNING: Pair style restartinfo set but has no restart support (src/pair.cpp:754)
      1088                   0.1088                       0          10160.78711982      -10523836.23767458   5.060188295537472e-05    0.001277325232007768
      1088                   0.1088                       0          10160.78711982      -10523836.23767458   5.060188295537472e-05    0.001277325232007768
WARNING: Pair style restartinfo set but has no restart support (src/pair.cpp:754)
WARNING: Pair style restartinfo set but has no restart support (src/pair.cpp:754)
      1089                   0.1089                       0         10642.768796795      -10523836.23767465   4.178249606347564e-05    0.001275901855267618
      1089                   0.1089                       0         10642.768796795      -10523836.23767465   4.178249606347564e-05    0.001275901855267618
WARNING: Pair style restartinfo set but has no restart support (src/pair.cpp:754)
WARNING: Pair style restartinfo set but has no restart support (src/pair.cpp:754)
      1090                    0.109                       0         11123.790830256      -10523836.23767472    4.38092610601441e-05    0.001274596189928514
      1090                    0.109                       0         11123.790830256      -10523836.23767472    4.38092610601441e-05    0.001274596189928514
WARNING: Pair style restartinfo set but has no restart support (src/pair.cpp:754)
WARNING: Pair style restartinfo set but has no restart support (src/pair.cpp:754)
      1091                   0.1091                       0         11605.695381309      -10523836.23767479   4.148858396118768e-05    0.001283599542960783
      1091                   0.1091                       0         11605.695381309      -10523836.23767479   4.148858396118768e-05    0.001283599542960783
WARNING: Pair style restartinfo set but has no restart support (src/pair.cpp:754)
WARNING: Pair style restartinfo set but has no restart support (src/pair.cpp:754)
      1092                   0.1092                       0         12087.742798094      -10523836.23767486   4.990003915750912e-05    0.001309328900102735
      1092                   0.1092                       0         12087.742798094      -10523836.23767486   4.990003915750912e-05    0.001309328900102735
WARNING: Pair style restartinfo set but has no restart support (src/pair.cpp:754)
WARNING: Pair style restartinfo set but has no restart support (src/pair.cpp:754)
      1093                   0.1093                       0         12569.697113596      -10523836.23767495   4.836133921349304e-05    0.001328362404824415
      1093                   0.1093                       0         12569.697113596      -10523836.23767495   4.836133921349304e-05    0.001328362404824415
WARNING: Pair style restartinfo set but has no restart support (src/pair.cpp:754)
WARNING: Pair style restartinfo set but has no restart support (src/pair.cpp:754)
      1094                   0.1094                       0           13050.7843438      -10523836.23767503   5.473931712097471e-05    0.001348982948015325
      1094                   0.1094                       0           13050.7843438      -10523836.23767503   5.473931712097471e-05    0.001348982948015325
WARNING: Pair style restartinfo set but has no restart support (src/pair.cpp:754)
WARNING: Pair style restartinfo set but has no restart support (src/pair.cpp:754)
      1095                   0.1095                       0         13532.311046694       -10523836.2376751   4.997381973482692e-05    0.001347189713301825
      1095                   0.1095                       0         13532.311046694       -10523836.2376751   4.997381973482692e-05    0.001347189713301825
WARNING: Pair style restartinfo set but has no restart support (src/pair.cpp:754)
WARNING: Pair style restartinfo set but has no restart support (src/pair.cpp:754)
      1096                   0.1096                       0          14014.20416823      -10523836.23767517   4.787938125602395e-05    0.001308497373993733
      1096                   0.1096                       0          14014.20416823      -10523836.23767517   4.787938125602395e-05    0.001308497373993733
WARNING: Pair style restartinfo set but has no restart support (src/pair.cpp:754)
WARNING: Pair style restartinfo set but has no restart support (src/pair.cpp:754)
      1097                   0.1097                       0         14496.222543032      -10523836.23767526    5.11400223768485e-05    0.001337432243490391
      1097                   0.1097                       0         14496.222543032      -10523836.23767526    5.11400223768485e-05    0.001337432243490391
WARNING: Pair style restartinfo set but has no restart support (src/pair.cpp:754)
WARNING: Pair style restartinfo set but has no restart support (src/pair.cpp:754)
      1098                   0.1098                       0         14978.440038985      -10523836.23767533   5.003366393023846e-05    0.001384669670152375
      1098                   0.1098                       0         14978.440038985      -10523836.23767533   5.003366393023846e-05    0.001384669670152375
WARNING: Pair style restartinfo set but has no restart support (src/pair.cpp:754)
WARNING: Pair style restartinfo set but has no restart support (src/pair.cpp:754)
      1099                   0.1099                       0         15461.221680646      -10523836.23767543   4.643070576147018e-05    0.001429737908459659
      1099                   0.1099                       0         15461.221680646      -10523836.23767543   4.643070576147018e-05    0.001429737908459659
WARNING: Pair style restartinfo set but has no restart support (src/pair.cpp:754)
WARNING: Pair style restartinfo set but has no restart support (src/pair.cpp:754)
      1100                     0.11                       0         15942.351409287      -10523836.23767551   5.304187819728595e-05    0.001424999007112468
      1100                     0.11                       0         15942.351409287      -10523836.23767551   5.304187819728595e-05    0.001424999007112468
WARNING: Pair style restartinfo set but has no restart support (src/pair.cpp:754)
WARNING: Pair style restartinfo set but has no restart support (src/pair.cpp:754)
      1101                   0.1101                       0         16424.550686287      -10523836.23767562   5.237021609089921e-05    0.001490103280262067
      1101                   0.1101                       0         16424.550686287      -10523836.23767562   5.237021609089921e-05    0.001490103280262067
WARNING: Pair style restartinfo set but has no restart support (src/pair.cpp:754)
WARNING: Pair style restartinfo set but has no restart support (src/pair.cpp:754)
      1102                   0.1102                       0         16906.601825682      -10523836.23767571   5.008112794873797e-05    0.001457677569887982
      1102                   0.1102                       0         16906.601825682      -10523836.23767571   5.008112794873797e-05    0.001457677569887982
WARNING: Pair style restartinfo set but has no restart support (src/pair.cpp:754)
WARNING: Pair style restartinfo set but has no restart support (src/pair.cpp:754)
      1103                   0.1103                       0         17389.312834878       -10523836.2376758   5.915597611344699e-05    0.001554198125206415
      1103                   0.1103                       0         17389.312834878       -10523836.2376758   5.915597611344699e-05    0.001554198125206415
WARNING: Pair style restartinfo set but has no restart support (src/pair.cpp:754)
WARNING: Pair style restartinfo set but has no restart support (src/pair.cpp:754)
      1104                   0.1104                       0         17873.663400808      -10523836.23767589   5.238610605268201e-05    0.001482138960989886
      1104                   0.1104                       0         17873.663400808      -10523836.23767589   5.238610605268201e-05    0.001482138960989886
WARNING: Pair style restartinfo set but has no restart support (src/pair.cpp:754)
WARNING: Pair style restartinfo set but has no restart support (src/pair.cpp:754)
      1105                   0.1105                       0         18358.140115288      -10523836.23767601   5.171720859309844e-05     0.00159924674395299
      1105                   0.1105                       0         18358.140115288      -10523836.23767601   5.171720859309844e-05     0.00159924674395299
WARNING: Pair style restartinfo set but has no restart support (src/pair.cpp:754)
WARNING: Pair style restartinfo set but has no restart support (src/pair.cpp:754)
      1106                   0.1106                       0         18839.550488891       -10523836.2376761   5.753296708426866e-05    0.001505474961002666
      1106                   0.1106                       0         18839.550488891       -10523836.2376761   5.753296708426866e-05    0.001505474961002666
WARNING: Pair style restartinfo set but has no restart support (src/pair.cpp:754)
WARNING: Pair style restartinfo set but has no restart support (src/pair.cpp:754)
      1107                   0.1107                       0          19320.48521301      -10523836.23767625   5.055956920829957e-05    0.001634746859199183
      1107                   0.1107                       0          19320.48521301      -10523836.23767625   5.055956920829957e-05    0.001634746859199183
WARNING: Pair style restartinfo set but has no restart support (src/pair.cpp:754)
WARNING: Pair style restartinfo set but has no restart support (src/pair.cpp:754)
      1108                   0.1108                       0         19803.199114327      -10523836.23767634    5.17404263366758e-05    0.001576085605661151
      1108                   0.1108                       0         19803.199114327      -10523836.23767634    5.17404263366758e-05    0.001576085605661151
WARNING: Pair style restartinfo set but has no restart support (src/pair.cpp:754)
WARNING: Pair style restartinfo set but has no restart support (src/pair.cpp:754)
      1109                   0.1109                       0         20286.615259322      -10523836.23767646   6.103933661527898e-05    0.001624315663516966
      1109                   0.1109                       0         20286.615259322      -10523836.23767646   6.103933661527898e-05    0.001624315663516966
WARNING: Pair style restartinfo set but has no restart support (src/pair.cpp:754)
WARNING: Pair style restartinfo set but has no restart support (src/pair.cpp:754)
      1110                    0.111                       0          20770.47583804      -10523836.23767655   4.530617249933963e-05    0.001496623400840755
      1110                    0.111                       0          20770.47583804      -10523836.23767655   4.530617249933963e-05    0.001496623400840755
WARNING: Pair style restartinfo set but has no restart support (src/pair.cpp:754)
WARNING: Pair style restartinfo set but has no restart support (src/pair.cpp:754)
      1111                   0.1111                       0          21253.74710347      -10523836.23767667   5.959652622017364e-05    0.001661681906964524
      1111                   0.1111                       0          21253.74710347      -10523836.23767667   5.959652622017364e-05    0.001661681906964524
WARNING: Pair style restartinfo set but has no restart support (src/pair.cpp:754)
WARNING: Pair style restartinfo set but has no restart support (src/pair.cpp:754)
      1112                   0.1112                       0         21735.043997206      -10523836.23767676    5.00344835392165e-05    0.001521532491631078
      1112                   0.1112                       0         21735.043997206      -10523836.23767676    5.00344835392165e-05    0.001521532491631078
WARNING: Pair style restartinfo set but has no restart support (src/pair.cpp:754)
WARNING: Pair style restartinfo set but has no restart support (src/pair.cpp:754)
      1113                   0.1113                       0           22216.7721388      -10523836.23767689    5.50089605925049e-05    0.001741831656935181
      1113                   0.1113                       0           22216.7721388      -10523836.23767689    5.50089605925049e-05    0.001741831656935181
WARNING: Pair style restartinfo set but has no restart support (src/pair.cpp:754)
WARNING: Pair style restartinfo set but has no restart support (src/pair.cpp:754)
      1114                   0.1114                       0         22699.193380122      -10523836.23767699   4.589902713958172e-05    0.001596897707773429
      1114                   0.1114                       0         22699.193380122      -10523836.23767699   4.589902713958172e-05    0.001596897707773429
WARNING: Pair style restartinfo set but has no restart support (src/pair.cpp:754)
WARNING: Pair style restartinfo set but has no restart support (src/pair.cpp:754)
      1115                   0.1115                       0         23179.638064754      -10523836.23767714   6.223280938597031e-05    0.001849531331726542
      1115                   0.1115                       0         23179.638064754      -10523836.23767714   6.223280938597031e-05    0.001849531331726542
WARNING: Pair style restartinfo set but has no restart support (src/pair.cpp:754)
WARNING: Pair style restartinfo set but has no restart support (src/pair.cpp:754)
      1116                   0.1116                       0         23661.249841487      -10523836.23767727   5.436029848427748e-05    0.001634667651993765
      1116                   0.1116                       0         23661.249841487      -10523836.23767727   5.436029848427748e-05    0.001634667651993765
WARNING: Pair style restartinfo set but has no restart support (src/pair.cpp:754)
WARNING: Pair style restartinfo set but has no restart support (src/pair.cpp:754)
      1117                   0.1117                       0         24143.594299618      -10523836.23767741   5.601156566531391e-05    0.001784021682896781
      1117                   0.1117                       0         24143.594299618      -10523836.23767741   5.601156566531391e-05    0.001784021682896781
WARNING: Pair style restartinfo set but has no restart support (src/pair.cpp:754)
WARNING: Pair style restartinfo set but has no restart support (src/pair.cpp:754)
      1118                   0.1118                       0          24624.65523483      -10523836.23767751   5.433216105187391e-05    0.001547949068554188
      1118                   0.1118                       0          24624.65523483      -10523836.23767751   5.433216105187391e-05    0.001547949068554188
WARNING: Pair style restartinfo set but has no restart support (src/pair.cpp:754)
WARNING: Pair style restartinfo set but has no restart support (src/pair.cpp:754)
      1119                   0.1119                       0         25108.285228326      -10523836.23767764   5.628513881502078e-05    0.001697411901646511
      1119                   0.1119                       0         25108.285228326      -10523836.23767764   5.628513881502078e-05    0.001697411901646511
WARNING: Pair style restartinfo set but has no restart support (src/pair.cpp:754)
WARNING: Pair style restartinfo set but has no restart support (src/pair.cpp:754)
      1120                    0.112                       0         25591.481738585      -10523836.23767773   4.398866975958461e-05    0.001452552306832305
      1120                    0.112                       0         25591.481738585      -10523836.23767773   4.398866975958461e-05    0.001452552306832305
WARNING: Pair style restartinfo set but has no restart support (src/pair.cpp:754)
WARNING: Pair style restartinfo set but has no restart support (src/pair.cpp:754)
      1121                   0.1121                       0         26072.641618322      -10523836.23767784   5.145616328597769e-05    0.001607733102718311
      1121                   0.1121                       0         26072.641618322      -10523836.23767784   5.145616328597769e-05    0.001607733102718311
WARNING: Pair style restartinfo set but has no restart support (src/pair.cpp:754)
WARNING: Pair style restartinfo set but has no restart support (src/pair.cpp:754)
      1122                   0.1122                       0         26553.420321614      -10523836.23767794   5.191773305380772e-05    0.001434533944566364
      1122                   0.1122                       0         26553.420321614      -10523836.23767794   5.191773305380772e-05    0.001434533944566364
WARNING: Pair style restartinfo set but has no restart support (src/pair.cpp:754)
WARNING: Pair style restartinfo set but has no restart support (src/pair.cpp:754)
      1123                   0.1123                       0         27034.209313609      -10523836.23767805   6.503947102945787e-05    0.001645493390604855
      1123                   0.1123                       0         27034.209313609      -10523836.23767805   6.503947102945787e-05    0.001645493390604855
WARNING: Pair style restartinfo set but has no restart support (src/pair.cpp:754)
WARNING: Pair style restartinfo set but has no restart support (src/pair.cpp:754)
      1124                   0.1124                       0         27515.611126307      -10523836.23767816   5.135587880806744e-05    0.001422623493100664
      1124                   0.1124                       0         27515.611126307      -10523836.23767816   5.135587880806744e-05    0.001422623493100664
WARNING: Pair style restartinfo set but has no restart support (src/pair.cpp:754)
WARNING: Pair style restartinfo set but has no restart support (src/pair.cpp:754)
      1125                   0.1125                       0         27998.128118671      -10523836.23767825   6.323302996400371e-05    0.001646788465115386
      1125                   0.1125                       0         27998.128118671      -10523836.23767825   6.323302996400371e-05    0.001646788465115386
WARNING: Pair style restartinfo set but has no restart support (src/pair.cpp:754)
WARNING: Pair style restartinfo set but has no restart support (src/pair.cpp:754)
      1126                   0.1126                       0         28481.830365616      -10523836.23767834   3.932684614282184e-05    0.001399028710338441
      1126                   0.1126                       0         28481.830365616      -10523836.23767834   3.932684614282184e-05    0.001399028710338441
WARNING: Pair style restartinfo set but has no restart support (src/pair.cpp:754)
WARNING: Pair style restartinfo set but has no restart support (src/pair.cpp:754)
      1127                   0.1127                       0         28965.617685552      -10523836.23767844    5.68532531661824e-05    0.001532233186430046
      1127                   0.1127                       0         28965.617685552      -10523836.23767844    5.68532531661824e-05    0.001532233186430046
WARNING: Pair style restartinfo set but has no restart support (src/pair.cpp:754)
WARNING: Pair style restartinfo set but has no restart support (src/pair.cpp:754)
      1128                   0.1128                       0         29449.642500427      -10523836.23767853   4.765823019257147e-05    0.001342523655007622
      1128                   0.1128                       0         29449.642500427      -10523836.23767853   4.765823019257147e-05    0.001342523655007622
WARNING: Pair style restartinfo set but has no restart support (src/pair.cpp:754)
WARNING: Pair style restartinfo set but has no restart support (src/pair.cpp:754)
      1129                   0.1129                       0         29930.378323965      -10523836.23767862   5.527136564506161e-05    0.001501848985797265
      1129                   0.1129                       0         29930.378323965      -10523836.23767862   5.527136564506161e-05    0.001501848985797265
WARNING: Pair style restartinfo set but has no restart support (src/pair.cpp:754)
WARNING: Pair style restartinfo set but has no restart support (src/pair.cpp:754)
      1130                    0.113                       0         30413.080115026       -10523836.2376787   4.168891375287698e-05    0.001282480433949074
      1130                    0.113                       0         30413.080115026       -10523836.2376787   4.168891375287698e-05    0.001282480433949074
WARNING: Pair style restartinfo set but has no restart support (src/pair.cpp:754)
WARNING: Pair style restartinfo set but has no restart support (src/pair.cpp:754)
      1131                   0.1131                       0         30892.871962573      -10523836.23767878    5.73911450835211e-05    0.001451337344102348
      1131                   0.1131                       0         30892.871962573      -10523836.23767878    5.73911450835211e-05    0.001451337344102348
WARNING: Pair style restartinfo set but has no restart support (src/pair.cpp:754)
WARNING: Pair style restartinfo set but has no restart support (src/pair.cpp:754)
      1132                   0.1132                       0         31372.901916332      -10523836.23767885   3.857373694259687e-05    0.001224220627656657
      1132                   0.1132                       0         31372.901916332      -10523836.23767885   3.857373694259687e-05    0.001224220627656657
WARNING: Pair style restartinfo set but has no restart support (src/pair.cpp:754)
WARNING: Pair style restartinfo set but has no restart support (src/pair.cpp:754)
      1133                   0.1133                       0         31853.870986641      -10523836.23767892   5.804601942111692e-05    0.001366405664732087
      1133                   0.1133                       0         31853.870986641      -10523836.23767892   5.804601942111692e-05    0.001366405664732087
WARNING: Pair style restartinfo set but has no restart support (src/pair.cpp:754)
WARNING: Pair style restartinfo set but has no restart support (src/pair.cpp:754)
      1134                   0.1134                       0         32335.817375938        -10523836.237679   3.453898901938828e-05    0.001161773883629316
      1134                   0.1134                       0         32335.817375938        -10523836.237679   3.453898901938828e-05    0.001161773883629316
WARNING: Pair style restartinfo set but has no restart support (src/pair.cpp:754)
WARNING: Pair style restartinfo set but has no restart support (src/pair.cpp:754)
      1135                   0.1135                       0         32817.116117666      -10523836.23767907   4.450885416283201e-05    0.001357988329092798
      1135                   0.1135                       0         32817.116117666      -10523836.23767907   4.450885416283201e-05    0.001357988329092798
WARNING: Pair style restartinfo set but has no restart support (src/pair.cpp:754)
WARNING: Pair style restartinfo set but has no restart support (src/pair.cpp:754)
      1136                   0.1136                       0         33299.132528056      -10523836.23767914   3.379659045048278e-05    0.001168867517076138
      1136                   0.1136                       0         33299.132528056      -10523836.23767914   3.379659045048278e-05    0.001168867517076138
WARNING: Pair style restartinfo set but has no restart support (src/pair.cpp:754)
WARNING: Pair style restartinfo set but has no restart support (src/pair.cpp:754)
      1137                   0.1137                       0         33779.281883204      -10523836.23767923   4.663663506496163e-05    0.001340511881482525
      1137                   0.1137                       0         33779.281883204      -10523836.23767923   4.663663506496163e-05    0.001340511881482525
WARNING: Pair style restartinfo set but has no restart support (src/pair.cpp:754)
WARNING: Pair style restartinfo set but has no restart support (src/pair.cpp:754)
      1138                   0.1138                       0         34259.358919309      -10523836.23767925    4.40870279536619e-05    0.001152207131102023
      1138                   0.1138                       0         34259.358919309      -10523836.23767925    4.40870279536619e-05    0.001152207131102023
WARNING: Pair style restartinfo set but has no restart support (src/pair.cpp:754)
WARNING: Pair style restartinfo set but has no restart support (src/pair.cpp:754)
      1139                   0.1139                       0         34740.586753287      -10523836.23767934   5.064410085997469e-05    0.001401307574668349
      1139                   0.1139                       0         34740.586753287      -10523836.23767934   5.064410085997469e-05    0.001401307574668349
WARNING: Pair style restartinfo set but has no restart support (src/pair.cpp:754)
WARNING: Pair style restartinfo set but has no restart support (src/pair.cpp:754)
      1140                    0.114                       0          35223.18064487      -10523836.23767942   4.177343431000435e-05    0.001145674166106062
      1140                    0.114                       0          35223.18064487      -10523836.23767942   4.177343431000435e-05    0.001145674166106062
WARNING: Pair style restartinfo set but has no restart support (src/pair.cpp:754)
WARNING: Pair style restartinfo set but has no restart support (src/pair.cpp:754)
      1141                   0.1141                       0         35702.865443686       -10523836.2376795   4.980917972979317e-05    0.001383014276787886
      1141                   0.1141                       0         35702.865443686       -10523836.2376795   4.980917972979317e-05    0.001383014276787886
WARNING: Pair style restartinfo set but has no restart support (src/pair.cpp:754)
WARNING: Pair style restartinfo set but has no restart support (src/pair.cpp:754)
      1142                   0.1142                       0         36184.238439138      -10523836.23767956   3.499086993026466e-05    0.001148656881643932
      1142                   0.1142                       0         36184.238439138      -10523836.23767956   3.499086993026466e-05    0.001148656881643932
WARNING: Pair style restartinfo set but has no restart support (src/pair.cpp:754)
WARNING: Pair style restartinfo set but has no restart support (src/pair.cpp:754)
      1143                   0.1143                       0           36664.5629494       -10523836.2376796   5.006930548677718e-05    0.001331505293652601
      1143                   0.1143                       0           36664.5629494       -10523836.2376796   5.006930548677718e-05    0.001331505293652601
WARNING: Pair style restartinfo set but has no restart support (src/pair.cpp:754)
WARNING: Pair style restartinfo set but has no restart support (src/pair.cpp:754)
      1144                   0.1144                       0         37146.359374219       -10523836.2376797   3.237940655022266e-05     0.00115296474639221
      1144                   0.1144                       0         37146.359374219       -10523836.2376797   3.237940655022266e-05     0.00115296474639221
WARNING: Pair style restartinfo set but has no restart support (src/pair.cpp:754)
WARNING: Pair style restartinfo set but has no restart support (src/pair.cpp:754)
      1145                   0.1145                       0         37628.315147713      -10523836.23767977   5.564872326115555e-05    0.001401991894474085
      1145                   0.1145                       0         37628.315147713      -10523836.23767977   5.564872326115555e-05    0.001401991894474085
WARNING: Pair style restartinfo set but has no restart support (src/pair.cpp:754)
WARNING: Pair style restartinfo set but has no restart support (src/pair.cpp:754)
      1146                   0.1146                       0         38108.496507333      -10523836.23767984   3.242692596347116e-05    0.001188073157116926
      1146                   0.1146                       0         38108.496507333      -10523836.23767984   3.242692596347116e-05    0.001188073157116926
WARNING: Pair style restartinfo set but has no restart support (src/pair.cpp:754)
WARNING: Pair style restartinfo set but has no restart support (src/pair.cpp:754)
      1147                   0.1147                       0         38590.634142923      -10523836.23767991   4.738930201249091e-05    0.001374390778192204
      1147                   0.1147                       0         38590.634142923      -10523836.23767991   4.738930201249091e-05    0.001374390778192204
WARNING: Pair style restartinfo set but has no restart support (src/pair.cpp:754)
WARNING: Pair style restartinfo set but has no restart support (src/pair.cpp:754)
      1148                   0.1148                       0         39071.514158206      -10523836.23767997   4.383588056869683e-05    0.001151995047088648
      1148                   0.1148                       0         39071.514158206      -10523836.23767997   4.383588056869683e-05    0.001151995047088648
WARNING: Pair style restartinfo set but has no restart support (src/pair.cpp:754)
WARNING: Pair style restartinfo set but has no restart support (src/pair.cpp:754)
      1149                   0.1149                       0          39553.03694562      -10523836.23768004   5.157928051075767e-05    0.001360472737516078
      1149                   0.1149                       0          39553.03694562      -10523836.23768004   5.157928051075767e-05    0.001360472737516078
WARNING: Pair style restartinfo set but has no restart support (src/pair.cpp:754)
WARNING: Pair style restartinfo set but has no restart support (src/pair.cpp:754)
      1150                    0.115                       0         40036.095952126      -10523836.23768011    3.54478085382188e-05     0.00112269728242205
      1150                    0.115                       0         40036.095952126      -10523836.23768011    3.54478085382188e-05     0.00112269728242205
WARNING: Pair style restartinfo set but has no restart support (src/pair.cpp:754)
WARNING: Pair style restartinfo set but has no restart support (src/pair.cpp:754)
      1151                   0.1151                       0         40518.143030293      -10523836.23768017   4.553457103479569e-05    0.001351027938267684
      1151                   0.1151                       0         40518.143030293      -10523836.23768017   4.553457103479569e-05    0.001351027938267684
WARNING: Pair style restartinfo set but has no restart support (src/pair.cpp:754)
WARNING: Pair style restartinfo set but has no restart support (src/pair.cpp:754)
      1152                   0.1152                       0         40998.982068694      -10523836.23768022   3.554574088548098e-05    0.001158878530767863
      1152                   0.1152                       0         40998.982068694      -10523836.23768022   3.554574088548098e-05    0.001158878530767863
WARNING: Pair style restartinfo set but has no restart support (src/pair.cpp:754)
WARNING: Pair style restartinfo set but has no restart support (src/pair.cpp:754)
      1153                   0.1153                       0         41480.610255493      -10523836.23768028   5.699533331489154e-05    0.001327613326106259
      1153                   0.1153                       0         41480.610255493      -10523836.23768028   5.699533331489154e-05    0.001327613326106259
WARNING: Pair style restartinfo set but has no restart support (src/pair.cpp:754)
WARNING: Pair style restartinfo set but has no restart support (src/pair.cpp:754)
      1154                   0.1154                       0         41961.690111365      -10523836.23768036    3.58459638524402e-05    0.001136248273924048
      1154                   0.1154                       0         41961.690111365      -10523836.23768036    3.58459638524402e-05    0.001136248273924048
WARNING: Pair style restartinfo set but has no restart support (src/pair.cpp:754)
WARNING: Pair style restartinfo set but has no restart support (src/pair.cpp:754)
      1155                   0.1155                       0         42443.268272772      -10523836.23768044   5.589665494893509e-05    0.001374905759845612
      1155                   0.1155                       0         42443.268272772      -10523836.23768044   5.589665494893509e-05    0.001374905759845612
WARNING: Pair style restartinfo set but has no restart support (src/pair.cpp:754)
WARNING: Pair style restartinfo set but has no restart support (src/pair.cpp:754)
      1156                   0.1156                       0         42925.648982801      -10523836.23768051   3.727966319354292e-05    0.001206966595068652
      1156                   0.1156                       0         42925.648982801      -10523836.23768051   3.727966319354292e-05    0.001206966595068652
WARNING: Pair style restartinfo set but has no restart support (src/pair.cpp:754)
WARNING: Pair style restartinfo set but has no restart support (src/pair.cpp:754)
      1157                   0.1157                       0         43407.077733229      -10523836.23768058   4.890086510888486e-05    0.001429181526296683
      1157                   0.1157                       0         43407.077733229      -10523836.23768058   4.890086510888486e-05    0.001429181526296683
WARNING: Pair style restartinfo set but has no restart support (src/pair.cpp:754)
WARNING: Pair style restartinfo set but has no restart support (src/pair.cpp:754)
      1158                   0.1158                       0          43890.11787883      -10523836.23768065   3.257754580751051e-05    0.001191252585098346
      1158                   0.1158                       0          43890.11787883      -10523836.23768065   3.257754580751051e-05    0.001191252585098346
WARNING: Pair style restartinfo set but has no restart support (src/pair.cpp:754)
WARNING: Pair style restartinfo set but has no restart support (src/pair.cpp:754)
      1159                   0.1159                       0         44371.645461643      -10523836.23768074   5.769833462356683e-05    0.001427425453620997
      1159                   0.1159                       0         44371.645461643      -10523836.23768074   5.769833462356683e-05    0.001427425453620997
WARNING: Pair style restartinfo set but has no restart support (src/pair.cpp:754)
WARNING: Pair style restartinfo set but has no restart support (src/pair.cpp:754)
      1160                    0.116                       0         44855.439315075      -10523836.23768079   3.508729364884423e-05    0.001201966656234749
      1160                    0.116                       0         44855.439315075      -10523836.23768079   3.508729364884423e-05    0.001201966656234749
WARNING: Pair style restartinfo set but has no restart support (src/pair.cpp:754)
WARNING: Pair style restartinfo set but has no restart support (src/pair.cpp:754)
      1161                   0.1161                       0         45337.619411408      -10523836.23768087   4.895376502500983e-05    0.001417618738120802
      1161                   0.1161                       0         45337.619411408      -10523836.23768087   4.895376502500983e-05    0.001417618738120802
WARNING: Pair style restartinfo set but has no restart support (src/pair.cpp:754)
WARNING: Pair style restartinfo set but has no restart support (src/pair.cpp:754)
      1162                   0.1162                       0         45822.894080964      -10523836.23768095   3.459692289598665e-05     0.00119834938598399
      1162                   0.1162                       0         45822.894080964      -10523836.23768095   3.459692289598665e-05     0.00119834938598399
WARNING: Pair style restartinfo set but has no restart support (src/pair.cpp:754)
WARNING: Pair style restartinfo set but has no restart support (src/pair.cpp:754)
      1163                   0.1163                       0         46306.888810999      -10523836.23768101    5.38548532077726e-05    0.001407268652706151
      1163                   0.1163                       0         46306.888810999      -10523836.23768101    5.38548532077726e-05    0.001407268652706151
WARNING: Pair style restartinfo set but has no restart support (src/pair.cpp:754)
WARNING: Pair style restartinfo set but has no restart support (src/pair.cpp:754)
      1164                   0.1164                       0         46791.798169688      -10523836.23768109   3.452541517074407e-05    0.001146750921964331
      1164                   0.1164                       0         46791.798169688      -10523836.23768109   3.452541517074407e-05    0.001146750921964331
WARNING: Pair style restartinfo set but has no restart support (src/pair.cpp:754)
WARNING: Pair style restartinfo set but has no restart support (src/pair.cpp:754)
      1165                   0.1165                       0          47276.33138531      -10523836.23768116   4.515182418564183e-05     0.00133022988531205
      1165                   0.1165                       0          47276.33138531      -10523836.23768116   4.515182418564183e-05     0.00133022988531205
WARNING: Too many warnings: 101 vs 100. All future warnings will be suppressed (src/thermo.cpp:466)
WARNING: Too many warnings: 101 vs 100. All future warnings will be suppressed (src/thermo.cpp:466)
      1166                   0.1166                       0         47760.240958716      -10523836.23768122   3.536889561578209e-05    0.001066158367823599
      1166                   0.1166                       0         47760.240958716      -10523836.23768122   3.536889561578209e-05    0.001066158367823599
      1167                   0.1167                       0         48244.631450442      -10523836.23768127    4.87483637640904e-05    0.001240237816097083
      1167                   0.1167                       0         48244.631450442      -10523836.23768127    4.87483637640904e-05    0.001240237816097083
      1168                   0.1168                       0         48726.499765771      -10523836.23768133   3.274137453249477e-05    0.001011282635559798
      1168                   0.1168                       0         48726.499765771      -10523836.23768133   3.274137453249477e-05    0.001011282635559798
      1169                   0.1169                       0         49208.704481755      -10523836.23768137   4.977435608433871e-05    0.001206823502119844
      1169                   0.1169                       0         49208.704481755      -10523836.23768137   4.977435608433871e-05    0.001206823502119844
      1170                    0.117                       0         49693.290931503      -10523836.23768144   3.430620599602363e-05    0.001004710497858072
      1170                    0.117                       0         49693.290931503      -10523836.23768144   3.430620599602363e-05    0.001004710497858072
      1171                   0.1171                       0         50177.279738837       -10523836.2376815   3.756638219214718e-05    0.001195412485479228
      1171                   0.1171                       0         50177.279738837       -10523836.2376815   3.756638219214718e-05    0.001195412485479228
      1172                   0.1172                       0         50661.149983969      -10523836.23768155   3.858185875416759e-05    0.001019961396635344
      1172                   0.1172                       0         50661.149983969      -10523836.23768155   3.858185875416759e-05    0.001019961396635344
      1173                   0.1173                       0         51145.151747428       -10523836.2376816    4.49122342323395e-05    0.001208128347528427
      1173                   0.1173                       0         51145.151747428       -10523836.2376816    4.49122342323395e-05    0.001208128347528427
      1174                   0.1174                       0         51628.146100073      -10523836.23768163   3.127313667515693e-05    0.001020008115285808
      1174                   0.1174                       0         51628.146100073      -10523836.23768163   3.127313667515693e-05    0.001020008115285808
      1175                   0.1175                       0         52110.905230623      -10523836.23768171   4.113710655908416e-05    0.001197357336465689
      1175                   0.1175                       0         52110.905230623      -10523836.23768171   4.113710655908416e-05    0.001197357336465689
      1176                   0.1176                       0         52837.975501147      -10523836.23768177   3.086681787301626e-05   0.0009948490196417547
      1176                   0.1176                       0         52837.975501147      -10523836.23768177   3.086681787301626e-05   0.0009948490196417547
Loop time of 52838 on 48 procs for 109 steps with 11706 atoms

Loop time of 52838 on 48 procs for 109 steps with 11706 atoms

518.4% CPU use with 4 MPI tasks x 12 OpenMP threads
518.4% CPU use with 4 MPI tasks x 12 OpenMP threads

Minimization stats:
  Stopping criterion = force tolerance
  Energy initial, next-to-last, final = 
     -10523836.2376733  -10523836.2376817  -10523836.2376818
  Force two-norm initial, final = 0.0012649399 0.00099484902
  Force max component initial, final = 4.3604614e-05 3.0866818e-05
  Final line search alpha, max atom move = 1 3.0866818e-05
  Iterations, force evaluations = 109 218

Minimization stats:
  Stopping criterion = force tolerance
  Energy initial, next-to-last, final = 
     -10523836.2376733  -10523836.2376817  -10523836.2376818
  Force two-norm initial, final = 0.0012649399 0.00099484902
  Force max component initial, final = 4.3604614e-05 3.0866818e-05
  Final line search alpha, max atom move = 1 3.0866818e-05
  Iterations, force evaluations = 109 218

MPI task timing breakdown:
Section |  min time  |  avg time  |  max time  |%varavg| %total
---------------------------------------------------------------

MPI task timing breakdown:
Section |  min time  |  avg time  |  max time  |%varavg| %total
---------------------------------------------------------------
Pair    | 51987      | 52378      | 52749      | 130.7 | 99.13
Pair    | 51987      | 52378      | 52749      | 130.7 | 99.13
Neigh   | 24.608     | 24.825     | 25.007     |   3.6 |  0.05
Neigh   | 24.608     | 24.825     | 25.007     |   3.6 |  0.05
Comm    | 63.564     | 435.25     | 825.87     |1434.0 |  0.82
Comm    | 63.564     | 435.25     | 825.87     |1434.0 |  0.82
Output  | 0.28632    | 0.28655    | 0.28721    |   0.1 |  0.00
Output  | 0.28632    | 0.28655    | 0.28721    |   0.1 |  0.00
Modify  | 0          | 0          | 0          |   0.0 |  0.00
Modify  | 0          | 0          | 0          |   0.0 |  0.00
Other   |            | 0.05549    |            |       |  0.00
Other   |            | 0.05549    |            |       |  0.00

Nlocal:         2926.5 ave        2956 max        2886 min
Histogram: 1 0 0 1 0 0 0 0 0 2
Nghost:        16619.2 ave       16714 max       16568 min
Histogram: 2 0 0 1 0 0 0 0 0 1
Neighs:              0 ave           0 max           0 min
Histogram: 4 0 0 0 0 0 0 0 0 0
FullNghs:   1.8932e+06 ave 1.91178e+06 max  1.8663e+06 min
Histogram: 1 0 0 1 0 0 0 0 0 2

Nlocal:         2926.5 ave        2956 max        2886 min
Histogram: 1 0 0 1 0 0 0 0 0 2
Nghost:        16619.2 ave       16714 max       16568 min
Histogram: 2 0 0 1 0 0 0 0 0 1
Neighs:              0 ave           0 max           0 min
Histogram: 4 0 0 0 0 0 0 0 0 0
FullNghs:   1.8932e+06 ave 1.91178e+06 max  1.8663e+06 min
Histogram: 1 0 0 1 0 0 0 0 0 2


Total # of neighbors = 7572812
Ave neighs/atom = 646.91714
Neighbor list builds = 219
Dangerous builds = 0
Total # of neighbors = 7572812
Ave neighs/atom = 646.91714
Neighbor list builds = 219
Dangerous builds = 0
write_data /home/theory/phrrpq/bilayer_relaxations/MoS2_WS2/AP/25_twirl/MoS2_WS2_AP_25_twirl.data
System init for write_data ...
System init for write_data ...
Generated 0 of 3 mixed pair_coeff terms from geometric mixing rule
Generated 0 of 3 mixed pair_coeff terms from geometric mixing rule

Total wall time: 14:48:45
Total wall time: 14:48:45
