Python 3.10.4
OMP_THREADS: 12
MPI: 1
NTASKS-PER-NODE: 4
CPUS_PER_TASK: 12
MPI startup(): PMI server not found. Please set I_MPI_PMI_LIBRARY variable if it is not a singleton case.
MPI startup(): PMI server not found. Please set I_MPI_PMI_LIBRARY variable if it is not a singleton case.
MPI startup(): PMI server not found. Please set I_MPI_PMI_LIBRARY variable if it is not a singleton case.
MPI startup(): PMI server not found. Please set I_MPI_PMI_LIBRARY variable if it is not a singleton case.
LAMMPS (28 Mar 2023 - Development)
LAMMPS (28 Mar 2023 - Development)
LAMMPS (28 Mar 2023 - Development)
LAMMPS (28 Mar 2023 - Development)
  using 12 OpenMP thread(s) per MPI task
  using 12 OpenMP thread(s) per MPI task
  using 12 OpenMP thread(s) per MPI task
  using 12 OpenMP thread(s) per MPI task
  using 12 OpenMP thread(s) per MPI task
  using 12 OpenMP thread(s) per MPI task
  using 12 OpenMP thread(s) per MPI task
  using 12 OpenMP thread(s) per MPI task
Reading data file ...
Reading data file ...
Reading data file ...
Reading data file ...
  triclinic box = (0 0 0) to (57.969748 50.203275 30) with tilt (28.984874 0 0)
  triclinic box = (0 0 0) to (57.969748 50.203275 30) with tilt (28.984874 0 0)
  triclinic box = (0 0 0) to (57.969748 50.203275 30) with tilt (28.984874 0 0)
  triclinic box = (0 0 0) to (57.969748 50.203275 30) with tilt (28.984874 0 0)
WARNING: Triclinic box skew is large. LAMMPS will run inefficiently. (src/domain.cpp:220)
WARNING: Triclinic box skew is large. LAMMPS will run inefficiently. (src/domain.cpp:220)
WARNING: Triclinic box skew is large. LAMMPS will run inefficiently. (src/domain.cpp:220)
WARNING: Triclinic box skew is large. LAMMPS will run inefficiently. (src/domain.cpp:220)
  1 by 1 by 1 MPI processor grid
  1 by 1 by 1 MPI processor grid
  1 by 1 by 1 MPI processor grid
  1 by 1 by 1 MPI processor grid
  reading atoms ...
  reading atoms ...
  reading atoms ...
  reading atoms ...
  1986 atoms
  1986 atoms
  1986 atoms
  1986 atoms
  read_data CPU = 0.023 seconds
  read_data CPU = 0.023 seconds
  read_data CPU = 0.023 seconds
  read_data CPU = 0.023 seconds
CUDA unavailable, setting device type to torch::kCPU.
CUDA unavailable, setting device type to torch::kCPU.
Loading MACE model from "/home/theory/phrrpq/bilayer_relaxations/MoWSSe_bi_radius_8_reduced_all_1_swa_800_run-123_swa.model-lammps.pt" ...CUDA unavailable, setting device type to torch::kCPU.
CUDA unavailable, setting device type to torch::kCPU.
Loading MACE model from "/home/theory/phrrpq/bilayer_relaxations/MoWSSe_bi_radius_8_reduced_all_1_swa_800_run-123_swa.model-lammps.pt" ...Loading MACE model from "/home/theory/phrrpq/bilayer_relaxations/MoWSSe_bi_radius_8_reduced_all_1_swa_800_run-123_swa.model-lammps.pt" ...Loading MACE model from "/home/theory/phrrpq/bilayer_relaxations/MoWSSe_bi_radius_8_reduced_all_1_swa_800_run-123_swa.model-lammps.pt" ... finished.
 finished.
 finished.
 finished.
  - The torch_float_dtype is: Double
  - The r_max is: 8.
  - The torch_float_dtype is: Double
  - The model has: 2 layers.
  - The torch_float_dtype is: Double
  - The torch_float_dtype is: Double
  - The r_max is:   - The r_max is:   - The r_max is: 8.
8.
  - The model has: 28.
  - The model has:  layers.
  - The model has: 2 layers.
2 layers.
  - The model atomic numbers are: 16 34 42 74.
  - The pair_coeff atomic numbers are: 42 16.
  - The model atomic numbers are: 16 34 42 74.
  - The pair_coeff atomic numbers are: 42 16.
  - The model atomic numbers are: 16 34 42 74.
  - The pair_coeff atomic numbers are: 42   - The model atomic numbers are: 16 34 4216.
 74.
  - The pair_coeff atomic numbers are: 42 16.
Generated 0 of 1 mixed pair_coeff terms from geometric mixing rule
Generated 0 of 1 mixed pair_coeff terms from geometric mixing rule
Generated 0 of 1 mixed pair_coeff terms from geometric mixing rule
Generated 0 of 1 mixed pair_coeff terms from geometric mixing rule
Neighbor list info ...
  update: every = 1 steps, delay = 0 steps, check = yes
  max neighbors/atom: 2000, page size: 100000
  master list distance cutoff = 18
  ghost atom cutoff = 18
  binsize = 9, bins = 10 6 4
  1 neighbor lists, perpetual/occasional/extra = 1 0 0
  (1) pair mace, perpetual
      attributes: full, newton on, ghost
      pair build: full/bin/ghost
      stencil: full/ghost/bin/3d
      bin: standard
Neighbor list info ...
  update: every = 1 steps, delay = 0 steps, check = yes
  max neighbors/atom: 2000, page size: 100000
  master list distance cutoff = 18
  ghost atom cutoff = 18
  binsize = 9, bins = 10 6 4
  1 neighbor lists, perpetual/occasional/extra = 1 0 0
  (1) pair mace, perpetual
      attributes: full, newton on, ghost
      pair build: full/bin/ghost
      stencil: full/ghost/bin/3d
      bin: standard
Neighbor list info ...
  update: every = 1 steps, delay = 0 steps, check = yes
  max neighbors/atom: 2000, page size: 100000
  master list distance cutoff = 18
  ghost atom cutoff = 18
  binsize = 9, bins = 10 6 4
  1 neighbor lists, perpetual/occasional/extra = 1 0 0
  (1) pair mace, perpetual
      attributes: full, newton on, ghost
      pair build: full/bin/ghost
      stencil: full/ghost/bin/3d
      bin: standard
Neighbor list info ...
  update: every = 1 steps, delay = 0 steps, check = yes
  max neighbors/atom: 2000, page size: 100000
  master list distance cutoff = 18
  ghost atom cutoff = 18
  binsize = 9, bins = 10 6 4
  1 neighbor lists, perpetual/occasional/extra = 1 0 0
  (1) pair mace, perpetual
      attributes: full, newton on, ghost
      pair build: full/bin/ghost
      stencil: full/ghost/bin/3d
      bin: standard
Setting up Verlet run ...
  Unit style    : metal
  Current step  : 0
  Time step     : 0.0001
Setting up Verlet run ...
  Unit style    : metal
  Current step  : 0
  Time step     : 0.0001
Setting up Verlet run ...
  Unit style    : metal
  Current step  : 0
  Time step     : 0.0001
Setting up Verlet run ...
  Unit style    : metal
  Current step  : 0
  Time step     : 0.0001
Per MPI rank memory allocation (min/avg/max) = 38.41 | 38.41 | 38.41 Mbytes
   Step          Time           Temp          Press           CPU           KinEng         PotEng         TotEng        Atoms         Fmax          Fnorm     
         0                        0                       0       674.6106605655382                       0                       0       -1695537.83966424       -1695537.83966424       1986        1.385578715106897       36.09438479167871
Loop time of 8.93e-07 on 12 procs for 0 steps with 1986 atoms

224.0% CPU use with 1 MPI tasks x 12 OpenMP threads

MPI task timing breakdown:
Section |  min time  |  avg time  |  max time  |%varavg| %total
---------------------------------------------------------------
Pair    | 0          | 0          | 0          |   0.0 |  0.00
Neigh   | 0          | 0          | 0          |   0.0 |  0.00
Comm    | 0          | 0          | 0          |   0.0 |  0.00
Output  | 0          | 0          | 0          |   0.0 |  0.00
Modify  | 0          | 0          | 0          |   0.0 |  0.00
Other   |            | 8.93e-07   |            |       |100.00

Nlocal:           1986 ave        1986 max        1986 min
Histogram: 1 0 0 0 0 0 0 0 0 0
Nghost:           9732 ave        9732 max        9732 min
Histogram: 1 0 0 0 0 0 0 0 0 0
Neighs:              0 ave           0 max           0 min
Histogram: 1 0 0 0 0 0 0 0 0 0
FullNghs:  1.27736e+06 ave 1.27736e+06 max 1.27736e+06 min
Histogram: 1 0 0 0 0 0 0 0 0 0

Total # of neighbors = 1277358
Ave neighs/atom = 643.18127
Neighbor list builds = 0
Dangerous builds = 0
BEGIN LAMMPS STANDALONE MINIMIZATION; ii = 10; OMP = 12; MPI = 4
minimize 0.0 1e-3 1000 100000
Generated 0 of 1 mixed pair_coeff terms from geometric mixing rule
Generated 0 of 1 mixed pair_coeff terms from geometric mixing rule
Setting up cg style minimization ...
  Unit style    : metal
  Current step  : 0
Per MPI rank memory allocation (min/avg/max) = 38.41 | 38.41 | 38.41 Mbytes
   Step          Time           Temp          Press           CPU           KinEng         PotEng         TotEng        Atoms         Fmax          Fnorm     
         0                        0                       0       674.6106605655382                       0                       0       -1695537.83966424       -1695537.83966424       1986        1.385578715106897       36.09438479167871
Loop time of 9.99e-07 on 12 procs for 0 steps with 1986 atoms

200.2% CPU use with 1 MPI tasks x 12 OpenMP threads

MPI task timing breakdown:
Section |  min time  |  avg time  |  max time  |%varavg| %total
---------------------------------------------------------------
Pair    | 0          | 0          | 0          |   0.0 |  0.00
Neigh   | 0          | 0          | 0          |   0.0 |  0.00
Comm    | 0          | 0          | 0          |   0.0 |  0.00
Output  | 0          | 0          | 0          |   0.0 |  0.00
Modify  | 0          | 0          | 0          |   0.0 |  0.00
Other   |            | 9.99e-07   |            |       |100.00

Nlocal:           1986 ave        1986 max        1986 min
Histogram: 1 0 0 0 0 0 0 0 0 0
Nghost:           9732 ave        9732 max        9732 min
Histogram: 1 0 0 0 0 0 0 0 0 0
Neighs:              0 ave           0 max           0 min
Histogram: 1 0 0 0 0 0 0 0 0 0
FullNghs:  1.27736e+06 ave 1.27736e+06 max 1.27736e+06 min
Histogram: 1 0 0 0 0 0 0 0 0 0

Total # of neighbors = 1277358
Ave neighs/atom = 643.18127
Neighbor list builds = 0
Dangerous builds = 0
BEGIN LAMMPS STANDALONE MINIMIZATION; ii = 10; OMP = 12; MPI = 4
minimize 0.0 1e-3 1000 100000
Generated 0 of 1 mixed pair_coeff terms from geometric mixing rule
Generated 0 of 1 mixed pair_coeff terms from geometric mixing rule
Setting up cg style minimization ...
  Unit style    : metal
  Current step  : 0
Per MPI rank memory allocation (min/avg/max) = 38.41 | 38.41 | 38.41 Mbytes
   Step          Time           Temp          Press           CPU           KinEng         PotEng         TotEng        Atoms         Fmax          Fnorm     
         0                        0                       0       674.6106605655382                       0                       0       -1695537.83966424       -1695537.83966424       1986        1.385578715106897       36.09438479167871
Loop time of 9.32e-07 on 12 procs for 0 steps with 1986 atoms

107.3% CPU use with 1 MPI tasks x 12 OpenMP threads

MPI task timing breakdown:
Section |  min time  |  avg time  |  max time  |%varavg| %total
---------------------------------------------------------------
Pair    | 0          | 0          | 0          |   0.0 |  0.00
Neigh   | 0          | 0          | 0          |   0.0 |  0.00
Comm    | 0          | 0          | 0          |   0.0 |  0.00
Output  | 0          | 0          | 0          |   0.0 |  0.00
Modify  | 0          | 0          | 0          |   0.0 |  0.00
Other   |            | 9.32e-07   |            |       |100.00

Nlocal:           1986 ave        1986 max        1986 min
Histogram: 1 0 0 0 0 0 0 0 0 0
Nghost:           9732 ave        9732 max        9732 min
Histogram: 1 0 0 0 0 0 0 0 0 0
Neighs:              0 ave           0 max           0 min
Histogram: 1 0 0 0 0 0 0 0 0 0
FullNghs:  1.27736e+06 ave 1.27736e+06 max 1.27736e+06 min
Histogram: 1 0 0 0 0 0 0 0 0 0

Total # of neighbors = 1277358
Ave neighs/atom = 643.18127
Neighbor list builds = 0
Dangerous builds = 0
BEGIN LAMMPS STANDALONE MINIMIZATION; ii = 10; OMP = 12; MPI = 4
minimize 0.0 1e-3 1000 100000
Generated 0 of 1 mixed pair_coeff terms from geometric mixing rule
Generated 0 of 1 mixed pair_coeff terms from geometric mixing rule
Setting up cg style minimization ...
  Unit style    : metal
  Current step  : 0
Per MPI rank memory allocation (min/avg/max) = 38.41 | 38.41 | 38.41 Mbytes
   Step          Time           Temp          Press           CPU           KinEng         PotEng         TotEng        Atoms         Fmax          Fnorm     
         0                        0                       0       674.6106605655382                       0                       0       -1695537.83966424       -1695537.83966424       1986        1.385578715106897       36.09438479167871
Loop time of 9.85e-07 on 12 procs for 0 steps with 1986 atoms

203.0% CPU use with 1 MPI tasks x 12 OpenMP threads

MPI task timing breakdown:
Section |  min time  |  avg time  |  max time  |%varavg| %total
---------------------------------------------------------------
Pair    | 0          | 0          | 0          |   0.0 |  0.00
Neigh   | 0          | 0          | 0          |   0.0 |  0.00
Comm    | 0          | 0          | 0          |   0.0 |  0.00
Output  | 0          | 0          | 0          |   0.0 |  0.00
Modify  | 0          | 0          | 0          |   0.0 |  0.00
Other   |            | 9.85e-07   |            |       |100.00

Nlocal:           1986 ave        1986 max        1986 min
Histogram: 1 0 0 0 0 0 0 0 0 0
Nghost:           9732 ave        9732 max        9732 min
Histogram: 1 0 0 0 0 0 0 0 0 0
Neighs:              0 ave           0 max           0 min
Histogram: 1 0 0 0 0 0 0 0 0 0
FullNghs:  1.27736e+06 ave 1.27736e+06 max 1.27736e+06 min
Histogram: 1 0 0 0 0 0 0 0 0 0

Total # of neighbors = 1277358
Ave neighs/atom = 643.18127
Neighbor list builds = 0
Dangerous builds = 0
BEGIN LAMMPS STANDALONE MINIMIZATION; ii = 10; OMP = 12; MPI = 4
minimize 0.0 1e-3 1000 100000
Generated 0 of 1 mixed pair_coeff terms from geometric mixing rule
Generated 0 of 1 mixed pair_coeff terms from geometric mixing rule
Setting up cg style minimization ...
  Unit style    : metal
  Current step  : 0
Per MPI rank memory allocation (min/avg/max) = 39.54 | 39.54 | 39.54 Mbytes
Per MPI rank memory allocation (min/avg/max) = 39.54 | 39.54 | 39.54 Mbytes
   Step          Time           Temp          Press           CPU           KinEng         PotEng         TotEng        Atoms         Fmax          Fnorm     
   Step          Time           Temp          Press           CPU           KinEng         PotEng         TotEng        Atoms         Fmax          Fnorm     
         0                        0                       0       674.6106605655444                       0                       0       -1695537.83966424       -1695537.83966424       1986        1.385578715106897        36.0943847916787
         0                        0                       0       674.6106605655444                       0                       0       -1695537.83966424       -1695537.83966424       1986        1.385578715106897        36.0943847916787
Per MPI rank memory allocation (min/avg/max) = 39.54 | 39.54 | 39.54 Mbytes
Per MPI rank memory allocation (min/avg/max) = 39.54 | 39.54 | 39.54 Mbytes
   Step          Time           Temp          Press           CPU           KinEng         PotEng         TotEng        Atoms         Fmax          Fnorm     
   Step          Time           Temp          Press           CPU           KinEng         PotEng         TotEng        Atoms         Fmax          Fnorm     
         0                        0                       0       674.6106605655444                       0                       0       -1695537.83966424       -1695537.83966424       1986        1.385578715106897        36.0943847916787
         0                        0                       0       674.6106605655444                       0                       0       -1695537.83966424       -1695537.83966424       1986        1.385578715106897        36.0943847916787
Per MPI rank memory allocation (min/avg/max) = 39.54 | 39.54 | 39.54 Mbytes
Per MPI rank memory allocation (min/avg/max) = 39.54 | 39.54 | 39.54 Mbytes
   Step          Time           Temp          Press           CPU           KinEng         PotEng         TotEng        Atoms         Fmax          Fnorm     
   Step          Time           Temp          Press           CPU           KinEng         PotEng         TotEng        Atoms         Fmax          Fnorm     
         0                        0                       0       674.6106605655444                       0                       0       -1695537.83966424       -1695537.83966424       1986        1.385578715106897        36.0943847916787
         0                        0                       0       674.6106605655444                       0                       0       -1695537.83966424       -1695537.83966424       1986        1.385578715106897        36.0943847916787
Per MPI rank memory allocation (min/avg/max) = 39.54 | 39.54 | 39.54 Mbytes
Per MPI rank memory allocation (min/avg/max) = 39.54 | 39.54 | 39.54 Mbytes
   Step          Time           Temp          Press           CPU           KinEng         PotEng         TotEng        Atoms         Fmax          Fnorm     
   Step          Time           Temp          Press           CPU           KinEng         PotEng         TotEng        Atoms         Fmax          Fnorm     
         0                        0                       0       674.6106605655444                       0                       0       -1695537.83966424       -1695537.83966424       1986        1.385578715106897        36.0943847916787
         0                        0                       0       674.6106605655444                       0                       0       -1695537.83966424       -1695537.83966424       1986        1.385578715106897        36.0943847916787
WARNING: Pair style restartinfo set but has no restart support (src/pair.cpp:754)
WARNING: Pair style restartinfo set but has no restart support (src/pair.cpp:754)
         1                   0.0001                       0      -999.4266331551106           190.744297159                       0       -1695561.08207374       -1695561.08207374       1986       0.1028722755045779       1.664059458439564
         1                   0.0001                       0      -999.4266331551106           190.744297159                       0       -1695561.08207374       -1695561.08207374       1986       0.1028722755045779       1.664059458439564
WARNING: Pair style restartinfo set but has no restart support (src/pair.cpp:754)
WARNING: Pair style restartinfo set but has no restart support (src/pair.cpp:754)
         1                   0.0001                       0      -999.4266331551106           191.101943875                       0       -1695561.08207374       -1695561.08207374       1986       0.1028722755045779       1.664059458439564
         1                   0.0001                       0      -999.4266331551106           191.101943875                       0       -1695561.08207374       -1695561.08207374       1986       0.1028722755045779       1.664059458439564
WARNING: Pair style restartinfo set but has no restart support (src/pair.cpp:754)
WARNING: Pair style restartinfo set but has no restart support (src/pair.cpp:754)
         1                   0.0001                       0      -999.4266331551106           191.784304193                       0       -1695561.08207374       -1695561.08207374       1986       0.1028722755045779       1.664059458439564
         1                   0.0001                       0      -999.4266331551106           191.784304193                       0       -1695561.08207374       -1695561.08207374       1986       0.1028722755045779       1.664059458439564
WARNING: Pair style restartinfo set but has no restart support (src/pair.cpp:754)
WARNING: Pair style restartinfo set but has no restart support (src/pair.cpp:754)
         1                   0.0001                       0      -999.4266331551106           190.886493086                       0       -1695561.08207374       -1695561.08207374       1986       0.1028722755045779       1.664059458439564
         1                   0.0001                       0      -999.4266331551106           190.886493086                       0       -1695561.08207374       -1695561.08207374       1986       0.1028722755045779       1.664059458439564
WARNING: Pair style restartinfo set but has no restart support (src/pair.cpp:754)
WARNING: Pair style restartinfo set but has no restart support (src/pair.cpp:754)
         2                   0.0002                       0      -465.8489895836668            395.85733439                       0      -1695561.191281796      -1695561.191281796       1986      0.08104831903167192       1.307017840868729
         2                   0.0002                       0      -465.8489895836668            395.85733439                       0      -1695561.191281796      -1695561.191281796       1986      0.08104831903167192       1.307017840868729
WARNING: Pair style restartinfo set but has no restart support (src/pair.cpp:754)
WARNING: Pair style restartinfo set but has no restart support (src/pair.cpp:754)
         2                   0.0002                       0      -465.8489895836668           396.026152539                       0      -1695561.191281796      -1695561.191281796       1986      0.08104831903167192       1.307017840868729
         2                   0.0002                       0      -465.8489895836668           396.026152539                       0      -1695561.191281796      -1695561.191281796       1986      0.08104831903167192       1.307017840868729
WARNING: Pair style restartinfo set but has no restart support (src/pair.cpp:754)
WARNING: Pair style restartinfo set but has no restart support (src/pair.cpp:754)
         2                   0.0002                       0      -465.8489895836668           396.518606936                       0      -1695561.191281796      -1695561.191281796       1986      0.08104831903167192       1.307017840868729
         2                   0.0002                       0      -465.8489895836668           396.518606936                       0      -1695561.191281796      -1695561.191281796       1986      0.08104831903167192       1.307017840868729
WARNING: Pair style restartinfo set but has no restart support (src/pair.cpp:754)
WARNING: Pair style restartinfo set but has no restart support (src/pair.cpp:754)
         2                   0.0002                       0      -465.8489895836668           396.279915524                       0      -1695561.191281796      -1695561.191281796       1986      0.08104831903167192       1.307017840868729
         2                   0.0002                       0      -465.8489895836668           396.279915524                       0      -1695561.191281796      -1695561.191281796       1986      0.08104831903167192       1.307017840868729
WARNING: Pair style restartinfo set but has no restart support (src/pair.cpp:754)
WARNING: Pair style restartinfo set but has no restart support (src/pair.cpp:754)
         3                   0.0003                       0      -331.5338251885034           594.872241055                       0      -1695561.298689716      -1695561.298689716       1986       0.1527294791931589       2.387539062638738
         3                   0.0003                       0      -331.5338251885034           594.872241055                       0      -1695561.298689716      -1695561.298689716       1986       0.1527294791931589       2.387539062638738
WARNING: Pair style restartinfo set but has no restart support (src/pair.cpp:754)
WARNING: Pair style restartinfo set but has no restart support (src/pair.cpp:754)
         3                   0.0003                       0      -331.5338251885034       595.7835199039999                       0      -1695561.298689716      -1695561.298689716       1986       0.1527294791931589       2.387539062638738
         3                   0.0003                       0      -331.5338251885034       595.7835199039999                       0      -1695561.298689716      -1695561.298689716       1986       0.1527294791931589       2.387539062638738
WARNING: Pair style restartinfo set but has no restart support (src/pair.cpp:754)
WARNING: Pair style restartinfo set but has no restart support (src/pair.cpp:754)
         3                   0.0003                       0      -331.5338251885034           595.386262942                       0      -1695561.298689716      -1695561.298689716       1986       0.1527294791931589       2.387539062638738
         3                   0.0003                       0      -331.5338251885034           595.386262942                       0      -1695561.298689716      -1695561.298689716       1986       0.1527294791931589       2.387539062638738
WARNING: Pair style restartinfo set but has no restart support (src/pair.cpp:754)
WARNING: Pair style restartinfo set but has no restart support (src/pair.cpp:754)
         3                   0.0003                       0      -331.5338251885034           595.229511456                       0      -1695561.298689716      -1695561.298689716       1986       0.1527294791931589       2.387539062638738
         3                   0.0003                       0      -331.5338251885034           595.229511456                       0      -1695561.298689716      -1695561.298689716       1986       0.1527294791931589       2.387539062638738
WARNING: Pair style restartinfo set but has no restart support (src/pair.cpp:754)
WARNING: Pair style restartinfo set but has no restart support (src/pair.cpp:754)
         4                   0.0004                       0      -813.8751434067476           794.296586861                       0      -1695561.921037807      -1695561.921037807       1986       0.1654764852998898       3.742114923034283
         4                   0.0004                       0      -813.8751434067476           794.296586861                       0      -1695561.921037807      -1695561.921037807       1986       0.1654764852998898       3.742114923034283
WARNING: Pair style restartinfo set but has no restart support (src/pair.cpp:754)
WARNING: Pair style restartinfo set but has no restart support (src/pair.cpp:754)
         4                   0.0004                       0      -813.8751434067476           794.290630312                       0      -1695561.921037807      -1695561.921037807       1986       0.1654764852998898       3.742114923034283
         4                   0.0004                       0      -813.8751434067476           794.290630312                       0      -1695561.921037807      -1695561.921037807       1986       0.1654764852998898       3.742114923034283
WARNING: Pair style restartinfo set but has no restart support (src/pair.cpp:754)
WARNING: Pair style restartinfo set but has no restart support (src/pair.cpp:754)
         4                   0.0004                       0      -813.8751434067476       794.8576807339999                       0      -1695561.921037807      -1695561.921037807       1986       0.1654764852998898       3.742114923034283
         4                   0.0004                       0      -813.8751434067476       794.8576807339999                       0      -1695561.921037807      -1695561.921037807       1986       0.1654764852998898       3.742114923034283
WARNING: Pair style restartinfo set but has no restart support (src/pair.cpp:754)
WARNING: Pair style restartinfo set but has no restart support (src/pair.cpp:754)
         4                   0.0004                       0      -813.8751434067476           794.191965204                       0      -1695561.921037807      -1695561.921037807       1986       0.1654764852998898       3.742114923034283
         4                   0.0004                       0      -813.8751434067476           794.191965204                       0      -1695561.921037807      -1695561.921037807       1986       0.1654764852998898       3.742114923034283
WARNING: Pair style restartinfo set but has no restart support (src/pair.cpp:754)
WARNING: Pair style restartinfo set but has no restart support (src/pair.cpp:754)
         5                   0.0005                       0      -1271.261055305918       993.4987914610001                       0      -1695562.538245179      -1695562.538245179       1986       0.1380515176134958       3.360992634349594
         5                   0.0005                       0      -1271.261055305918       993.4987914610001                       0      -1695562.538245179      -1695562.538245179       1986       0.1380515176134958       3.360992634349594
WARNING: Pair style restartinfo set but has no restart support (src/pair.cpp:754)
WARNING: Pair style restartinfo set but has no restart support (src/pair.cpp:754)
         5                   0.0005                       0      -1271.261055305918           993.541644806                       0      -1695562.538245179      -1695562.538245179       1986       0.1380515176134958       3.360992634349594
         5                   0.0005                       0      -1271.261055305918           993.541644806                       0      -1695562.538245179      -1695562.538245179       1986       0.1380515176134958       3.360992634349594
WARNING: Pair style restartinfo set but has no restart support (src/pair.cpp:754)
WARNING: Pair style restartinfo set but has no restart support (src/pair.cpp:754)
         5                   0.0005                       0      -1271.261055305918       994.4523053830001                       0      -1695562.538245179      -1695562.538245179       1986       0.1380515176134958       3.360992634349594
         5                   0.0005                       0      -1271.261055305918       994.4523053830001                       0      -1695562.538245179      -1695562.538245179       1986       0.1380515176134958       3.360992634349594
WARNING: Pair style restartinfo set but has no restart support (src/pair.cpp:754)
WARNING: Pair style restartinfo set but has no restart support (src/pair.cpp:754)
         5                   0.0005                       0      -1271.261055305918           993.794263023                       0      -1695562.538245179      -1695562.538245179       1986       0.1380515176134958       3.360992634349594
         5                   0.0005                       0      -1271.261055305918           993.794263023                       0      -1695562.538245179      -1695562.538245179       1986       0.1380515176134958       3.360992634349594
WARNING: Pair style restartinfo set but has no restart support (src/pair.cpp:754)
WARNING: Pair style restartinfo set but has no restart support (src/pair.cpp:754)
         6    0.0006000000000000001                       0      -966.7786536061458          1192.991150102                       0      -1695563.186226349      -1695563.186226349       1986       0.1472102681472883       2.072197695432537
         6    0.0006000000000000001                       0      -966.7786536061458          1192.991150102                       0      -1695563.186226349      -1695563.186226349       1986       0.1472102681472883       2.072197695432537
WARNING: Pair style restartinfo set but has no restart support (src/pair.cpp:754)
WARNING: Pair style restartinfo set but has no restart support (src/pair.cpp:754)
         6    0.0006000000000000001                       0      -966.7786536061458          1193.369073654                       0      -1695563.186226349      -1695563.186226349       1986       0.1472102681472883       2.072197695432537
         6    0.0006000000000000001                       0      -966.7786536061458          1193.369073654                       0      -1695563.186226349      -1695563.186226349       1986       0.1472102681472883       2.072197695432537
WARNING: Pair style restartinfo set but has no restart support (src/pair.cpp:754)
WARNING: Pair style restartinfo set but has no restart support (src/pair.cpp:754)
         6    0.0006000000000000001                       0      -966.7786536061458          1193.987973727                       0      -1695563.186226349      -1695563.186226349       1986       0.1472102681472883       2.072197695432537
         6    0.0006000000000000001                       0      -966.7786536061458          1193.987973727                       0      -1695563.186226349      -1695563.186226349       1986       0.1472102681472883       2.072197695432537
WARNING: Pair style restartinfo set but has no restart support (src/pair.cpp:754)
WARNING: Pair style restartinfo set but has no restart support (src/pair.cpp:754)
         6    0.0006000000000000001                       0      -966.7786536061458          1193.093033998                       0      -1695563.186226349      -1695563.186226349       1986       0.1472102681472883       2.072197695432537
         6    0.0006000000000000001                       0      -966.7786536061458          1193.093033998                       0      -1695563.186226349      -1695563.186226349       1986       0.1472102681472883       2.072197695432537
WARNING: Pair style restartinfo set but has no restart support (src/pair.cpp:754)
WARNING: Pair style restartinfo set but has no restart support (src/pair.cpp:754)
         7                   0.0007                       0      -919.0731847326365          1392.783565682                       0       -1695563.24318334       -1695563.24318334       1986      0.02237832043330409      0.5677756565544669
         7                   0.0007                       0      -919.0731847326365          1392.783565682                       0       -1695563.24318334       -1695563.24318334       1986      0.02237832043330409      0.5677756565544669
WARNING: Pair style restartinfo set but has no restart support (src/pair.cpp:754)
WARNING: Pair style restartinfo set but has no restart support (src/pair.cpp:754)
         7                   0.0007                       0      -919.0731847326365          1392.381761189                       0       -1695563.24318334       -1695563.24318334       1986      0.02237832043330409      0.5677756565544669
         7                   0.0007                       0      -919.0731847326365          1392.381761189                       0       -1695563.24318334       -1695563.24318334       1986      0.02237832043330409      0.5677756565544669
WARNING: Pair style restartinfo set but has no restart support (src/pair.cpp:754)
WARNING: Pair style restartinfo set but has no restart support (src/pair.cpp:754)
         7                   0.0007                       0      -919.0731847326365          1392.670606037                       0       -1695563.24318334       -1695563.24318334       1986      0.02237832043330409      0.5677756565544669
         7                   0.0007                       0      -919.0731847326365          1392.670606037                       0       -1695563.24318334       -1695563.24318334       1986      0.02237832043330409      0.5677756565544669
WARNING: Pair style restartinfo set but has no restart support (src/pair.cpp:754)
WARNING: Pair style restartinfo set but has no restart support (src/pair.cpp:754)
         7                   0.0007                       0      -919.0731847326365          1394.454432833                       0       -1695563.24318334       -1695563.24318334       1986      0.02237832043330409      0.5677756565544669
         7                   0.0007                       0      -919.0731847326365          1394.454432833                       0       -1695563.24318334       -1695563.24318334       1986      0.02237832043330409      0.5677756565544669
WARNING: Pair style restartinfo set but has no restart support (src/pair.cpp:754)
WARNING: Pair style restartinfo set but has no restart support (src/pair.cpp:754)
         8                   0.0008                       0      -896.2807697692683          1592.746033005                       0      -1695563.271703066      -1695563.271703066       1986      0.03142285687338602      0.8306987468396465
         8                   0.0008                       0      -896.2807697692683          1592.746033005                       0      -1695563.271703066      -1695563.271703066       1986      0.03142285687338602      0.8306987468396465
WARNING: Pair style restartinfo set but has no restart support (src/pair.cpp:754)
WARNING: Pair style restartinfo set but has no restart support (src/pair.cpp:754)
         8                   0.0008                       0      -896.2807697692683          1592.300967111                       0      -1695563.271703066      -1695563.271703066       1986      0.03142285687338602      0.8306987468396465
         8                   0.0008                       0      -896.2807697692683          1592.300967111                       0      -1695563.271703066      -1695563.271703066       1986      0.03142285687338602      0.8306987468396465
WARNING: Pair style restartinfo set but has no restart support (src/pair.cpp:754)
WARNING: Pair style restartinfo set but has no restart support (src/pair.cpp:754)
         8                   0.0008                       0      -896.2807697692683          1592.292558084                       0      -1695563.271703066      -1695563.271703066       1986      0.03142285687338602      0.8306987468396465
         8                   0.0008                       0      -896.2807697692683          1592.292558084                       0      -1695563.271703066      -1695563.271703066       1986      0.03142285687338602      0.8306987468396465
WARNING: Pair style restartinfo set but has no restart support (src/pair.cpp:754)
WARNING: Pair style restartinfo set but has no restart support (src/pair.cpp:754)
         8                   0.0008                       0      -896.2807697692683          1594.397061878                       0      -1695563.271703066      -1695563.271703066       1986      0.03142285687338602      0.8306987468396465
         8                   0.0008                       0      -896.2807697692683          1594.397061878                       0      -1695563.271703066      -1695563.271703066       1986      0.03142285687338602      0.8306987468396465
WARNING: Pair style restartinfo set but has no restart support (src/pair.cpp:754)
WARNING: Pair style restartinfo set but has no restart support (src/pair.cpp:754)
         9    0.0009000000000000001                       0      -884.5193343640158          1792.732248581                       0      -1695563.312327578      -1695563.312327578       1986      0.06104896255801825       1.173929031956296
         9    0.0009000000000000001                       0      -884.5193343640158          1792.732248581                       0      -1695563.312327578      -1695563.312327578       1986      0.06104896255801825       1.173929031956296
WARNING: Pair style restartinfo set but has no restart support (src/pair.cpp:754)
WARNING: Pair style restartinfo set but has no restart support (src/pair.cpp:754)
         9    0.0009000000000000001                       0      -884.5193343640158          1793.804228815                       0      -1695563.312327578      -1695563.312327578       1986      0.06104896255801825       1.173929031956296
         9    0.0009000000000000001                       0      -884.5193343640158          1793.804228815                       0      -1695563.312327578      -1695563.312327578       1986      0.06104896255801825       1.173929031956296
WARNING: Pair style restartinfo set but has no restart support (src/pair.cpp:754)
WARNING: Pair style restartinfo set but has no restart support (src/pair.cpp:754)
         9    0.0009000000000000001                       0      -884.5193343640158          1792.971794394                       0      -1695563.312327578      -1695563.312327578       1986      0.06104896255801825       1.173929031956296
         9    0.0009000000000000001                       0      -884.5193343640158          1792.971794394                       0      -1695563.312327578      -1695563.312327578       1986      0.06104896255801825       1.173929031956296
WARNING: Pair style restartinfo set but has no restart support (src/pair.cpp:754)
WARNING: Pair style restartinfo set but has no restart support (src/pair.cpp:754)
         9    0.0009000000000000001                       0      -884.5193343640158          1794.800399078                       0      -1695563.312327578      -1695563.312327578       1986      0.06104896255801825       1.173929031956296
         9    0.0009000000000000001                       0      -884.5193343640158          1794.800399078                       0      -1695563.312327578      -1695563.312327578       1986      0.06104896255801825       1.173929031956296
WARNING: Pair style restartinfo set but has no restart support (src/pair.cpp:754)
WARNING: Pair style restartinfo set but has no restart support (src/pair.cpp:754)
        10                    0.001                       0      -860.1817250142927          1993.524283863                       0      -1695563.378430994      -1695563.378430994       1986       0.0629540479344427       1.453356700633843
        10                    0.001                       0      -860.1817250142927          1993.524283863                       0      -1695563.378430994      -1695563.378430994       1986       0.0629540479344427       1.453356700633843
WARNING: Pair style restartinfo set but has no restart support (src/pair.cpp:754)
WARNING: Pair style restartinfo set but has no restart support (src/pair.cpp:754)
        10                    0.001                       0      -860.1817250142927          1995.047735455                       0      -1695563.378430994      -1695563.378430994       1986       0.0629540479344427       1.453356700633843
        10                    0.001                       0      -860.1817250142927          1995.047735455                       0      -1695563.378430994      -1695563.378430994       1986       0.0629540479344427       1.453356700633843
WARNING: Pair style restartinfo set but has no restart support (src/pair.cpp:754)
WARNING: Pair style restartinfo set but has no restart support (src/pair.cpp:754)
        10                    0.001                       0      -860.1817250142927          1993.710461933                       0      -1695563.378430994      -1695563.378430994       1986       0.0629540479344427       1.453356700633843
        10                    0.001                       0      -860.1817250142927          1993.710461933                       0      -1695563.378430994      -1695563.378430994       1986       0.0629540479344427       1.453356700633843
WARNING: Pair style restartinfo set but has no restart support (src/pair.cpp:754)
WARNING: Pair style restartinfo set but has no restart support (src/pair.cpp:754)
        10                    0.001                       0      -860.1817250142927          1996.064927697                       0      -1695563.378430994      -1695563.378430994       1986       0.0629540479344427       1.453356700633843
        10                    0.001                       0      -860.1817250142927          1996.064927697                       0      -1695563.378430994      -1695563.378430994       1986       0.0629540479344427       1.453356700633843
WARNING: Pair style restartinfo set but has no restart support (src/pair.cpp:754)
WARNING: Pair style restartinfo set but has no restart support (src/pair.cpp:754)
        11                   0.0011                       0      -712.5206469301443          2195.814704262                       0      -1695563.532246093      -1695563.532246093       1986      0.06895163316297928       1.597040880187034
        11                   0.0011                       0      -712.5206469301443          2195.814704262                       0      -1695563.532246093      -1695563.532246093       1986      0.06895163316297928       1.597040880187034
WARNING: Pair style restartinfo set but has no restart support (src/pair.cpp:754)
WARNING: Pair style restartinfo set but has no restart support (src/pair.cpp:754)
        11                   0.0011                       0      -712.5206469301443          2195.689771661                       0      -1695563.532246093      -1695563.532246093       1986      0.06895163316297928       1.597040880187034
        11                   0.0011                       0      -712.5206469301443          2195.689771661                       0      -1695563.532246093      -1695563.532246093       1986      0.06895163316297928       1.597040880187034
WARNING: Pair style restartinfo set but has no restart support (src/pair.cpp:754)
WARNING: Pair style restartinfo set but has no restart support (src/pair.cpp:754)
        11                   0.0011                       0      -712.5206469301443          2197.365881368                       0      -1695563.532246093      -1695563.532246093       1986      0.06895163316297928       1.597040880187034
        11                   0.0011                       0      -712.5206469301443          2197.365881368                       0      -1695563.532246093      -1695563.532246093       1986      0.06895163316297928       1.597040880187034
WARNING: Pair style restartinfo set but has no restart support (src/pair.cpp:754)
WARNING: Pair style restartinfo set but has no restart support (src/pair.cpp:754)
        11                   0.0011                       0      -712.5206469301443          2198.023307367                       0      -1695563.532246093      -1695563.532246093       1986      0.06895163316297928       1.597040880187034
        11                   0.0011                       0      -712.5206469301443          2198.023307367                       0      -1695563.532246093      -1695563.532246093       1986      0.06895163316297928       1.597040880187034
WARNING: Pair style restartinfo set but has no restart support (src/pair.cpp:754)
WARNING: Pair style restartinfo set but has no restart support (src/pair.cpp:754)
        12                   0.0012                       0      -556.0273981803666          2397.628729776                       0      -1695563.642954382      -1695563.642954382       1986      0.04952606819523535      0.6646465409789217
        12                   0.0012                       0      -556.0273981803666          2397.628729776                       0      -1695563.642954382      -1695563.642954382       1986      0.04952606819523535      0.6646465409789217
WARNING: Pair style restartinfo set but has no restart support (src/pair.cpp:754)
WARNING: Pair style restartinfo set but has no restart support (src/pair.cpp:754)
        12                   0.0012                       0      -556.0273981803666          2399.136116435                       0      -1695563.642954382      -1695563.642954382       1986      0.04952606819523535      0.6646465409789217
        12                   0.0012                       0      -556.0273981803666          2399.136116435                       0      -1695563.642954382      -1695563.642954382       1986      0.04952606819523535      0.6646465409789217
WARNING: Pair style restartinfo set but has no restart support (src/pair.cpp:754)
WARNING: Pair style restartinfo set but has no restart support (src/pair.cpp:754)
        12                   0.0012                       0      -556.0273981803666          2398.065462657                       0      -1695563.642954382      -1695563.642954382       1986      0.04952606819523535      0.6646465409789217
        12                   0.0012                       0      -556.0273981803666          2398.065462657                       0      -1695563.642954382      -1695563.642954382       1986      0.04952606819523535      0.6646465409789217
WARNING: Pair style restartinfo set but has no restart support (src/pair.cpp:754)
WARNING: Pair style restartinfo set but has no restart support (src/pair.cpp:754)
        12                   0.0012                       0      -556.0273981803666          2399.941056045                       0      -1695563.642954382      -1695563.642954382       1986      0.04952606819523535      0.6646465409789217
        12                   0.0012                       0      -556.0273981803666          2399.941056045                       0      -1695563.642954382      -1695563.642954382       1986      0.04952606819523535      0.6646465409789217
WARNING: Pair style restartinfo set but has no restart support (src/pair.cpp:754)
WARNING: Pair style restartinfo set but has no restart support (src/pair.cpp:754)
        13                   0.0013                       0      -546.5996349114048          2599.950231521                       0      -1695563.650158599      -1695563.650158599       1986      0.01937759700214235      0.3073732066888368
        13                   0.0013                       0      -546.5996349114048          2599.950231521                       0      -1695563.650158599      -1695563.650158599       1986      0.01937759700214235      0.3073732066888368
WARNING: Pair style restartinfo set but has no restart support (src/pair.cpp:754)
WARNING: Pair style restartinfo set but has no restart support (src/pair.cpp:754)
        13                   0.0013                       0      -546.5996349114048            2601.0985035                       0      -1695563.650158599      -1695563.650158599       1986      0.01937759700214235      0.3073732066888368
        13                   0.0013                       0      -546.5996349114048            2601.0985035                       0      -1695563.650158599      -1695563.650158599       1986      0.01937759700214235      0.3073732066888368
WARNING: Pair style restartinfo set but has no restart support (src/pair.cpp:754)
WARNING: Pair style restartinfo set but has no restart support (src/pair.cpp:754)
        13                   0.0013                       0      -546.5996349114048          2599.862409041                       0      -1695563.650158599      -1695563.650158599       1986      0.01937759700214235      0.3073732066888368
        13                   0.0013                       0      -546.5996349114048          2599.862409041                       0      -1695563.650158599      -1695563.650158599       1986      0.01937759700214235      0.3073732066888368
WARNING: Pair style restartinfo set but has no restart support (src/pair.cpp:754)
WARNING: Pair style restartinfo set but has no restart support (src/pair.cpp:754)
        13                   0.0013                       0      -546.5996349114048          2601.816321843                       0      -1695563.650158599      -1695563.650158599       1986      0.01937759700214235      0.3073732066888368
        13                   0.0013                       0      -546.5996349114048          2601.816321843                       0      -1695563.650158599      -1695563.650158599       1986      0.01937759700214235      0.3073732066888368
WARNING: Pair style restartinfo set but has no restart support (src/pair.cpp:754)
WARNING: Pair style restartinfo set but has no restart support (src/pair.cpp:754)
        14                   0.0014                       0      -531.2819406138435          2801.226987486                       0      -1695563.664950683      -1695563.664950683       1986      0.03540484635424933      0.5799061264210392
        14                   0.0014                       0      -531.2819406138435          2801.226987486                       0      -1695563.664950683      -1695563.664950683       1986      0.03540484635424933      0.5799061264210392
WARNING: Pair style restartinfo set but has no restart support (src/pair.cpp:754)
WARNING: Pair style restartinfo set but has no restart support (src/pair.cpp:754)
        14                   0.0014                       0      -531.2819406138435          2801.132172206                       0      -1695563.664950683      -1695563.664950683       1986      0.03540484635424933      0.5799061264210392
        14                   0.0014                       0      -531.2819406138435          2801.132172206                       0      -1695563.664950683      -1695563.664950683       1986      0.03540484635424933      0.5799061264210392
WARNING: Pair style restartinfo set but has no restart support (src/pair.cpp:754)
WARNING: Pair style restartinfo set but has no restart support (src/pair.cpp:754)
        14                   0.0014                       0      -531.2819406138435          2802.739028559                       0      -1695563.664950683      -1695563.664950683       1986      0.03540484635424933      0.5799061264210392
        14                   0.0014                       0      -531.2819406138435          2802.739028559                       0      -1695563.664950683      -1695563.664950683       1986      0.03540484635424933      0.5799061264210392
WARNING: Pair style restartinfo set but has no restart support (src/pair.cpp:754)
WARNING: Pair style restartinfo set but has no restart support (src/pair.cpp:754)
        14                   0.0014                       0      -531.2819406138435          2803.130346311                       0      -1695563.664950683      -1695563.664950683       1986      0.03540484635424933      0.5799061264210392
        14                   0.0014                       0      -531.2819406138435          2803.130346311                       0      -1695563.664950683      -1695563.664950683       1986      0.03540484635424933      0.5799061264210392
WARNING: Pair style restartinfo set but has no restart support (src/pair.cpp:754)
WARNING: Pair style restartinfo set but has no restart support (src/pair.cpp:754)
        15                   0.0015                       0      -502.9542197125269          3004.023059324                       0      -1695563.676421666      -1695563.676421666       1986      0.03766864920847057      0.5907879452801343
        15                   0.0015                       0      -502.9542197125269          3004.023059324                       0      -1695563.676421666      -1695563.676421666       1986      0.03766864920847057      0.5907879452801343
WARNING: Pair style restartinfo set but has no restart support (src/pair.cpp:754)
WARNING: Pair style restartinfo set but has no restart support (src/pair.cpp:754)
        15                   0.0015                       0      -502.9542197125269          3003.373122475                       0      -1695563.676421666      -1695563.676421666       1986      0.03766864920847057      0.5907879452801343
        15                   0.0015                       0      -502.9542197125269          3003.373122475                       0      -1695563.676421666      -1695563.676421666       1986      0.03766864920847057      0.5907879452801343
WARNING: Pair style restartinfo set but has no restart support (src/pair.cpp:754)
WARNING: Pair style restartinfo set but has no restart support (src/pair.cpp:754)
        15                   0.0015                       0      -502.9542197125269          3003.971683028                       0      -1695563.676421666      -1695563.676421666       1986      0.03766864920847057      0.5907879452801343
        15                   0.0015                       0      -502.9542197125269          3003.971683028                       0      -1695563.676421666      -1695563.676421666       1986      0.03766864920847057      0.5907879452801343
WARNING: Pair style restartinfo set but has no restart support (src/pair.cpp:754)
WARNING: Pair style restartinfo set but has no restart support (src/pair.cpp:754)
        15                   0.0015                       0      -502.9542197125269          3003.109268386                       0      -1695563.676421666      -1695563.676421666       1986      0.03766864920847057      0.5907879452801343
        15                   0.0015                       0      -502.9542197125269          3003.109268386                       0      -1695563.676421666      -1695563.676421666       1986      0.03766864920847057      0.5907879452801343
WARNING: Pair style restartinfo set but has no restart support (src/pair.cpp:754)
WARNING: Pair style restartinfo set but has no restart support (src/pair.cpp:754)
        16                   0.0016                       0      -439.7913079422523          3205.329002256                       0      -1695563.694129585      -1695563.694129585       1986      0.03370984059066465      0.6638369568528643
        16                   0.0016                       0      -439.7913079422523          3205.329002256                       0      -1695563.694129585      -1695563.694129585       1986      0.03370984059066465      0.6638369568528643
WARNING: Pair style restartinfo set but has no restart support (src/pair.cpp:754)
WARNING: Pair style restartinfo set but has no restart support (src/pair.cpp:754)
        16                   0.0016                       0      -439.7913079422523          3205.585456082                       0      -1695563.694129585      -1695563.694129585       1986      0.03370984059066465      0.6638369568528643
        16                   0.0016                       0      -439.7913079422523          3205.585456082                       0      -1695563.694129585      -1695563.694129585       1986      0.03370984059066465      0.6638369568528643
WARNING: Pair style restartinfo set but has no restart support (src/pair.cpp:754)
WARNING: Pair style restartinfo set but has no restart support (src/pair.cpp:754)
        16                   0.0016                       0      -439.7913079422523          3205.949361493                       0      -1695563.694129585      -1695563.694129585       1986      0.03370984059066465      0.6638369568528643
        16                   0.0016                       0      -439.7913079422523          3205.949361493                       0      -1695563.694129585      -1695563.694129585       1986      0.03370984059066465      0.6638369568528643
WARNING: Pair style restartinfo set but has no restart support (src/pair.cpp:754)
WARNING: Pair style restartinfo set but has no restart support (src/pair.cpp:754)
        16                   0.0016                       0      -439.7913079422523          3205.768132341                       0      -1695563.694129585      -1695563.694129585       1986      0.03370984059066465      0.6638369568528643
        16                   0.0016                       0      -439.7913079422523          3205.768132341                       0      -1695563.694129585      -1695563.694129585       1986      0.03370984059066465      0.6638369568528643
WARNING: Pair style restartinfo set but has no restart support (src/pair.cpp:754)
WARNING: Pair style restartinfo set but has no restart support (src/pair.cpp:754)
        17                   0.0017                       0      -391.8964344264493          3407.461614782                       0      -1695563.712008644      -1695563.712008644       1986      0.03819952231962842      0.4089743757914581
        17                   0.0017                       0      -391.8964344264493          3407.461614782                       0      -1695563.712008644      -1695563.712008644       1986      0.03819952231962842      0.4089743757914581
WARNING: Pair style restartinfo set but has no restart support (src/pair.cpp:754)
WARNING: Pair style restartinfo set but has no restart support (src/pair.cpp:754)
        17                   0.0017                       0      -391.8964344264493          3408.334732295                       0      -1695563.712008644      -1695563.712008644       1986      0.03819952231962842      0.4089743757914581
        17                   0.0017                       0      -391.8964344264493          3408.334732295                       0      -1695563.712008644      -1695563.712008644       1986      0.03819952231962842      0.4089743757914581
WARNING: Pair style restartinfo set but has no restart support (src/pair.cpp:754)
WARNING: Pair style restartinfo set but has no restart support (src/pair.cpp:754)
        17                   0.0017                       0      -391.8964344264493          3408.844404147                       0      -1695563.712008644      -1695563.712008644       1986      0.03819952231962842      0.4089743757914581
        17                   0.0017                       0      -391.8964344264493          3408.844404147                       0      -1695563.712008644      -1695563.712008644       1986      0.03819952231962842      0.4089743757914581
WARNING: Pair style restartinfo set but has no restart support (src/pair.cpp:754)
WARNING: Pair style restartinfo set but has no restart support (src/pair.cpp:754)
        17                   0.0017                       0      -391.8964344264493          3409.238925132                       0      -1695563.712008644      -1695563.712008644       1986      0.03819952231962842      0.4089743757914581
        17                   0.0017                       0      -391.8964344264493          3409.238925132                       0      -1695563.712008644      -1695563.712008644       1986      0.03819952231962842      0.4089743757914581
WARNING: Pair style restartinfo set but has no restart support (src/pair.cpp:754)
WARNING: Pair style restartinfo set but has no restart support (src/pair.cpp:754)
        18                   0.0018                       0      -393.3109243105143          3609.376076542                       0      -1695563.717576315      -1695563.717576315       1986      0.04181466266838866      0.3955693919677021
        18                   0.0018                       0      -393.3109243105143          3609.376076542                       0      -1695563.717576315      -1695563.717576315       1986      0.04181466266838866      0.3955693919677021
WARNING: Pair style restartinfo set but has no restart support (src/pair.cpp:754)
WARNING: Pair style restartinfo set but has no restart support (src/pair.cpp:754)
        18                   0.0018                       0      -393.3109243105143          3610.411749915                       0      -1695563.717576315      -1695563.717576315       1986      0.04181466266838866      0.3955693919677021
        18                   0.0018                       0      -393.3109243105143          3610.411749915                       0      -1695563.717576315      -1695563.717576315       1986      0.04181466266838866      0.3955693919677021
WARNING: Pair style restartinfo set but has no restart support (src/pair.cpp:754)
WARNING: Pair style restartinfo set but has no restart support (src/pair.cpp:754)
        18                   0.0018                       0      -393.3109243105143          3611.193970028                       0      -1695563.717576315      -1695563.717576315       1986      0.04181466266838866      0.3955693919677021
        18                   0.0018                       0      -393.3109243105143          3611.193970028                       0      -1695563.717576315      -1695563.717576315       1986      0.04181466266838866      0.3955693919677021
WARNING: Pair style restartinfo set but has no restart support (src/pair.cpp:754)
WARNING: Pair style restartinfo set but has no restart support (src/pair.cpp:754)
        18                   0.0018                       0      -393.3109243105143          3611.650213345                       0      -1695563.717576315      -1695563.717576315       1986      0.04181466266838866      0.3955693919677021
        18                   0.0018                       0      -393.3109243105143          3611.650213345                       0      -1695563.717576315      -1695563.717576315       1986      0.04181466266838866      0.3955693919677021
WARNING: Pair style restartinfo set but has no restart support (src/pair.cpp:754)
WARNING: Pair style restartinfo set but has no restart support (src/pair.cpp:754)
        19                   0.0019                       0      -393.1377709204802           3811.00999819                       0      -1695563.724130895      -1695563.724130895       1986      0.03540596817974026      0.4370413687121501
        19                   0.0019                       0      -393.1377709204802           3811.00999819                       0      -1695563.724130895      -1695563.724130895       1986      0.03540596817974026      0.4370413687121501
WARNING: Pair style restartinfo set but has no restart support (src/pair.cpp:754)
WARNING: Pair style restartinfo set but has no restart support (src/pair.cpp:754)
        19                   0.0019                       0      -393.1377709204802          3812.006849416                       0      -1695563.724130895      -1695563.724130895       1986      0.03540596817974026      0.4370413687121501
        19                   0.0019                       0      -393.1377709204802          3812.006849416                       0      -1695563.724130895      -1695563.724130895       1986      0.03540596817974026      0.4370413687121501
WARNING: Pair style restartinfo set but has no restart support (src/pair.cpp:754)
WARNING: Pair style restartinfo set but has no restart support (src/pair.cpp:754)
        19                   0.0019                       0      -393.1377709204802           3812.97566504                       0      -1695563.724130895      -1695563.724130895       1986      0.03540596817974026      0.4370413687121501
        19                   0.0019                       0      -393.1377709204802           3812.97566504                       0      -1695563.724130895      -1695563.724130895       1986      0.03540596817974026      0.4370413687121501
WARNING: Pair style restartinfo set but has no restart support (src/pair.cpp:754)
WARNING: Pair style restartinfo set but has no restart support (src/pair.cpp:754)
        19                   0.0019                       0      -393.1377709204802          3813.453216047                       0      -1695563.724130895      -1695563.724130895       1986      0.03540596817974026      0.4370413687121501
        19                   0.0019                       0      -393.1377709204802          3813.453216047                       0      -1695563.724130895      -1695563.724130895       1986      0.03540596817974026      0.4370413687121501
WARNING: Pair style restartinfo set but has no restart support (src/pair.cpp:754)
WARNING: Pair style restartinfo set but has no restart support (src/pair.cpp:754)
        20                    0.002                       0      -341.3533836032033          4013.469540455                       0      -1695563.740391614      -1695563.740391614       1986      0.06474427847350259       0.496904503373462
        20                    0.002                       0      -341.3533836032033          4013.469540455                       0      -1695563.740391614      -1695563.740391614       1986      0.06474427847350259       0.496904503373462
WARNING: Pair style restartinfo set but has no restart support (src/pair.cpp:754)
WARNING: Pair style restartinfo set but has no restart support (src/pair.cpp:754)
        20                    0.002                       0      -341.3533836032033          4014.156183529                       0      -1695563.740391614      -1695563.740391614       1986      0.06474427847350259       0.496904503373462
        20                    0.002                       0      -341.3533836032033          4014.156183529                       0      -1695563.740391614      -1695563.740391614       1986      0.06474427847350259       0.496904503373462
WARNING: Pair style restartinfo set but has no restart support (src/pair.cpp:754)
WARNING: Pair style restartinfo set but has no restart support (src/pair.cpp:754)
        20                    0.002                       0      -341.3533836032033          4015.438015875                       0      -1695563.740391614      -1695563.740391614       1986      0.06474427847350259       0.496904503373462
        20                    0.002                       0      -341.3533836032033          4015.438015875                       0      -1695563.740391614      -1695563.740391614       1986      0.06474427847350259       0.496904503373462
WARNING: Pair style restartinfo set but has no restart support (src/pair.cpp:754)
WARNING: Pair style restartinfo set but has no restart support (src/pair.cpp:754)
        20                    0.002                       0      -341.3533836032033          4015.332985867                       0      -1695563.740391614      -1695563.740391614       1986      0.06474427847350259       0.496904503373462
        20                    0.002                       0      -341.3533836032033          4015.332985867                       0      -1695563.740391614      -1695563.740391614       1986      0.06474427847350259       0.496904503373462
WARNING: Pair style restartinfo set but has no restart support (src/pair.cpp:754)
WARNING: Pair style restartinfo set but has no restart support (src/pair.cpp:754)
        21                   0.0021                       0      -323.2593821506304       4215.255265534999                       0      -1695563.745434315      -1695563.745434315       1986      0.02871685148799859      0.3022296083131857
        21                   0.0021                       0      -323.2593821506304       4215.255265534999                       0      -1695563.745434315      -1695563.745434315       1986      0.02871685148799859      0.3022296083131857
WARNING: Pair style restartinfo set but has no restart support (src/pair.cpp:754)
WARNING: Pair style restartinfo set but has no restart support (src/pair.cpp:754)
        21                   0.0021                       0      -323.2593821506304          4216.131721135                       0      -1695563.745434315      -1695563.745434315       1986      0.02871685148799859      0.3022296083131857
        21                   0.0021                       0      -323.2593821506304          4216.131721135                       0      -1695563.745434315      -1695563.745434315       1986      0.02871685148799859      0.3022296083131857
WARNING: Pair style restartinfo set but has no restart support (src/pair.cpp:754)
WARNING: Pair style restartinfo set but has no restart support (src/pair.cpp:754)
        21                   0.0021                       0      -323.2593821506304          4217.215332106                       0      -1695563.745434315      -1695563.745434315       1986      0.02871685148799859      0.3022296083131857
        21                   0.0021                       0      -323.2593821506304          4217.215332106                       0      -1695563.745434315      -1695563.745434315       1986      0.02871685148799859      0.3022296083131857
WARNING: Pair style restartinfo set but has no restart support (src/pair.cpp:754)
WARNING: Pair style restartinfo set but has no restart support (src/pair.cpp:754)
        21                   0.0021                       0      -323.2593821506304          4216.914822516                       0      -1695563.745434315      -1695563.745434315       1986      0.02871685148799859      0.3022296083131857
        21                   0.0021                       0      -323.2593821506304          4216.914822516                       0      -1695563.745434315      -1695563.745434315       1986      0.02871685148799859      0.3022296083131857
WARNING: Pair style restartinfo set but has no restart support (src/pair.cpp:754)
WARNING: Pair style restartinfo set but has no restart support (src/pair.cpp:754)
        22                   0.0022                       0      -311.9034060796441          4417.436083428                       0      -1695563.751249729      -1695563.751249729       1986      0.02325999605396489      0.3550889352584135
        22                   0.0022                       0      -311.9034060796441          4417.436083428                       0      -1695563.751249729      -1695563.751249729       1986      0.02325999605396489      0.3550889352584135
WARNING: Pair style restartinfo set but has no restart support (src/pair.cpp:754)
WARNING: Pair style restartinfo set but has no restart support (src/pair.cpp:754)
        22                   0.0022                       0      -311.9034060796441          4418.243448723                       0      -1695563.751249729      -1695563.751249729       1986      0.02325999605396489      0.3550889352584135
        22                   0.0022                       0      -311.9034060796441          4418.243448723                       0      -1695563.751249729      -1695563.751249729       1986      0.02325999605396489      0.3550889352584135
WARNING: Pair style restartinfo set but has no restart support (src/pair.cpp:754)
WARNING: Pair style restartinfo set but has no restart support (src/pair.cpp:754)
        22                   0.0022                       0      -311.9034060796441          4419.137728533                       0      -1695563.751249729      -1695563.751249729       1986      0.02325999605396489      0.3550889352584135
        22                   0.0022                       0      -311.9034060796441          4419.137728533                       0      -1695563.751249729      -1695563.751249729       1986      0.02325999605396489      0.3550889352584135
WARNING: Pair style restartinfo set but has no restart support (src/pair.cpp:754)
WARNING: Pair style restartinfo set but has no restart support (src/pair.cpp:754)
        22                   0.0022                       0      -311.9034060796441          4418.632624033                       0      -1695563.751249729      -1695563.751249729       1986      0.02325999605396489      0.3550889352584135
        22                   0.0022                       0      -311.9034060796441          4418.632624033                       0      -1695563.751249729      -1695563.751249729       1986      0.02325999605396489      0.3550889352584135
WARNING: Pair style restartinfo set but has no restart support (src/pair.cpp:754)
WARNING: Pair style restartinfo set but has no restart support (src/pair.cpp:754)
        23                   0.0023                       0      -309.2661432684699          4619.341539257                       0      -1695563.755493594      -1695563.755493594       1986      0.02806518966127477      0.2951033067919764
        23                   0.0023                       0      -309.2661432684699          4619.341539257                       0      -1695563.755493594      -1695563.755493594       1986      0.02806518966127477      0.2951033067919764
WARNING: Pair style restartinfo set but has no restart support (src/pair.cpp:754)
WARNING: Pair style restartinfo set but has no restart support (src/pair.cpp:754)
        23                   0.0023                       0      -309.2661432684699          4619.745352654                       0      -1695563.755493594      -1695563.755493594       1986      0.02806518966127477      0.2951033067919764
        23                   0.0023                       0      -309.2661432684699          4619.745352654                       0      -1695563.755493594      -1695563.755493594       1986      0.02806518966127477      0.2951033067919764
WARNING: Pair style restartinfo set but has no restart support (src/pair.cpp:754)
WARNING: Pair style restartinfo set but has no restart support (src/pair.cpp:754)
        23                   0.0023                       0      -309.2661432684699          4618.916670072                       0      -1695563.755493594      -1695563.755493594       1986      0.02806518966127477      0.2951033067919764
        23                   0.0023                       0      -309.2661432684699          4618.916670072                       0      -1695563.755493594      -1695563.755493594       1986      0.02806518966127477      0.2951033067919764
WARNING: Pair style restartinfo set but has no restart support (src/pair.cpp:754)
WARNING: Pair style restartinfo set but has no restart support (src/pair.cpp:754)
        23                   0.0023                       0      -309.2661432684699          4620.136188895                       0      -1695563.755493594      -1695563.755493594       1986      0.02806518966127477      0.2951033067919764
        23                   0.0023                       0      -309.2661432684699          4620.136188895                       0      -1695563.755493594      -1695563.755493594       1986      0.02806518966127477      0.2951033067919764
WARNING: Pair style restartinfo set but has no restart support (src/pair.cpp:754)
WARNING: Pair style restartinfo set but has no restart support (src/pair.cpp:754)
        24                   0.0024                       0      -306.2413080268042       4821.043041059999                       0      -1695563.759354718      -1695563.759354718       1986      0.03554029131505475      0.3895537766997129
        24                   0.0024                       0      -306.2413080268042       4821.043041059999                       0      -1695563.759354718      -1695563.759354718       1986      0.03554029131505475      0.3895537766997129
WARNING: Pair style restartinfo set but has no restart support (src/pair.cpp:754)
WARNING: Pair style restartinfo set but has no restart support (src/pair.cpp:754)
        24                   0.0024                       0      -306.2413080268042          4821.811406871                       0      -1695563.759354718      -1695563.759354718       1986      0.03554029131505475      0.3895537766997129
        24                   0.0024                       0      -306.2413080268042          4821.811406871                       0      -1695563.759354718      -1695563.759354718       1986      0.03554029131505475      0.3895537766997129
WARNING: Pair style restartinfo set but has no restart support (src/pair.cpp:754)
WARNING: Pair style restartinfo set but has no restart support (src/pair.cpp:754)
        24                   0.0024                       0      -306.2413080268042          4820.764188598                       0      -1695563.759354718      -1695563.759354718       1986      0.03554029131505475      0.3895537766997129
        24                   0.0024                       0      -306.2413080268042          4820.764188598                       0      -1695563.759354718      -1695563.759354718       1986      0.03554029131505475      0.3895537766997129
WARNING: Pair style restartinfo set but has no restart support (src/pair.cpp:754)
WARNING: Pair style restartinfo set but has no restart support (src/pair.cpp:754)
        24                   0.0024                       0      -306.2413080268042           4822.10741638                       0      -1695563.759354718      -1695563.759354718       1986      0.03554029131505475      0.3895537766997129
        24                   0.0024                       0      -306.2413080268042           4822.10741638                       0      -1695563.759354718      -1695563.759354718       1986      0.03554029131505475      0.3895537766997129
WARNING: Pair style restartinfo set but has no restart support (src/pair.cpp:754)
WARNING: Pair style restartinfo set but has no restart support (src/pair.cpp:754)
        25                   0.0025                       0       -294.814763027625          5023.557432506                       0      -1695563.768931054      -1695563.768931054       1986      0.02089982226249568      0.3116569185572423
        25                   0.0025                       0       -294.814763027625          5023.557432506                       0      -1695563.768931054      -1695563.768931054       1986      0.02089982226249568      0.3116569185572423
WARNING: Pair style restartinfo set but has no restart support (src/pair.cpp:754)
WARNING: Pair style restartinfo set but has no restart support (src/pair.cpp:754)
        25                   0.0025                       0       -294.814763027625          5022.360756745                       0      -1695563.768931054      -1695563.768931054       1986      0.02089982226249568      0.3116569185572423
        25                   0.0025                       0       -294.814763027625          5022.360756745                       0      -1695563.768931054      -1695563.768931054       1986      0.02089982226249568      0.3116569185572423
WARNING: Pair style restartinfo set but has no restart support (src/pair.cpp:754)
WARNING: Pair style restartinfo set but has no restart support (src/pair.cpp:754)
        25                   0.0025                       0       -294.814763027625          5023.285215928                       0      -1695563.768931054      -1695563.768931054       1986      0.02089982226249568      0.3116569185572423
        25                   0.0025                       0       -294.814763027625          5023.285215928                       0      -1695563.768931054      -1695563.768931054       1986      0.02089982226249568      0.3116569185572423
WARNING: Pair style restartinfo set but has no restart support (src/pair.cpp:754)
WARNING: Pair style restartinfo set but has no restart support (src/pair.cpp:754)
        25                   0.0025                       0       -294.814763027625           5024.55322212                       0      -1695563.768931054      -1695563.768931054       1986      0.02089982226249568      0.3116569185572423
        25                   0.0025                       0       -294.814763027625           5024.55322212                       0      -1695563.768931054      -1695563.768931054       1986      0.02089982226249568      0.3116569185572423
WARNING: Pair style restartinfo set but has no restart support (src/pair.cpp:754)
WARNING: Pair style restartinfo set but has no restart support (src/pair.cpp:754)
        26                   0.0026                       0      -293.2305370305526          5223.917085319                       0      -1695563.771250353      -1695563.771250353       1986      0.01697000691992126      0.2237253460437017
        26                   0.0026                       0      -293.2305370305526          5223.917085319                       0      -1695563.771250353      -1695563.771250353       1986      0.01697000691992126      0.2237253460437017
WARNING: Pair style restartinfo set but has no restart support (src/pair.cpp:754)
WARNING: Pair style restartinfo set but has no restart support (src/pair.cpp:754)
        26                   0.0026                       0      -293.2305370305526       5223.248867900999                       0      -1695563.771250353      -1695563.771250353       1986      0.01697000691992126      0.2237253460437017
        26                   0.0026                       0      -293.2305370305526       5223.248867900999                       0      -1695563.771250353      -1695563.771250353       1986      0.01697000691992126      0.2237253460437017
WARNING: Pair style restartinfo set but has no restart support (src/pair.cpp:754)
WARNING: Pair style restartinfo set but has no restart support (src/pair.cpp:754)
        26                   0.0026                       0      -293.2305370305526          5226.265973819                       0      -1695563.771250353      -1695563.771250353       1986      0.01697000691992126      0.2237253460437017
        26                   0.0026                       0      -293.2305370305526          5226.265973819                       0      -1695563.771250353      -1695563.771250353       1986      0.01697000691992126      0.2237253460437017
WARNING: Pair style restartinfo set but has no restart support (src/pair.cpp:754)
WARNING: Pair style restartinfo set but has no restart support (src/pair.cpp:754)
        26                   0.0026                       0      -293.2305370305526          5226.830722905                       0      -1695563.771250353      -1695563.771250353       1986      0.01697000691992126      0.2237253460437017
        26                   0.0026                       0      -293.2305370305526          5226.830722905                       0      -1695563.771250353      -1695563.771250353       1986      0.01697000691992126      0.2237253460437017
WARNING: Pair style restartinfo set but has no restart support (src/pair.cpp:754)
WARNING: Pair style restartinfo set but has no restart support (src/pair.cpp:754)
        27                   0.0027                       0      -294.5807367809949          5424.114793279                       0      -1695563.773013565      -1695563.773013565       1986      0.01160151989543908      0.1717777153871243
        27                   0.0027                       0      -294.5807367809949          5424.114793279                       0      -1695563.773013565      -1695563.773013565       1986      0.01160151989543908      0.1717777153871243
WARNING: Pair style restartinfo set but has no restart support (src/pair.cpp:754)
WARNING: Pair style restartinfo set but has no restart support (src/pair.cpp:754)
        27                   0.0027                       0      -294.5807367809949          5425.445889969                       0      -1695563.773013565      -1695563.773013565       1986      0.01160151989543908      0.1717777153871243
        27                   0.0027                       0      -294.5807367809949          5425.445889969                       0      -1695563.773013565      -1695563.773013565       1986      0.01160151989543908      0.1717777153871243
WARNING: Pair style restartinfo set but has no restart support (src/pair.cpp:754)
WARNING: Pair style restartinfo set but has no restart support (src/pair.cpp:754)
        27                   0.0027                       0      -294.5807367809949       5428.164461525999                       0      -1695563.773013565      -1695563.773013565       1986      0.01160151989543908      0.1717777153871243
        27                   0.0027                       0      -294.5807367809949       5428.164461525999                       0      -1695563.773013565      -1695563.773013565       1986      0.01160151989543908      0.1717777153871243
WARNING: Pair style restartinfo set but has no restart support (src/pair.cpp:754)
WARNING: Pair style restartinfo set but has no restart support (src/pair.cpp:754)
        27                   0.0027                       0      -294.5807367809949          5428.972095055                       0      -1695563.773013565      -1695563.773013565       1986      0.01160151989543908      0.1717777153871243
        27                   0.0027                       0      -294.5807367809949          5428.972095055                       0      -1695563.773013565      -1695563.773013565       1986      0.01160151989543908      0.1717777153871243
WARNING: Pair style restartinfo set but has no restart support (src/pair.cpp:754)
WARNING: Pair style restartinfo set but has no restart support (src/pair.cpp:754)
        28                   0.0028                       0      -298.5150060445826          5625.597375118                       0      -1695563.774479004      -1695563.774479004       1986      0.01937852143204676      0.2161806073830536
        28                   0.0028                       0      -298.5150060445826          5625.597375118                       0      -1695563.774479004      -1695563.774479004       1986      0.01937852143204676      0.2161806073830536
WARNING: Pair style restartinfo set but has no restart support (src/pair.cpp:754)
WARNING: Pair style restartinfo set but has no restart support (src/pair.cpp:754)
        28                   0.0028                       0      -298.5150060445826          5626.974009457                       0      -1695563.774479004      -1695563.774479004       1986      0.01937852143204676      0.2161806073830536
        28                   0.0028                       0      -298.5150060445826          5626.974009457                       0      -1695563.774479004      -1695563.774479004       1986      0.01937852143204676      0.2161806073830536
WARNING: Pair style restartinfo set but has no restart support (src/pair.cpp:754)
WARNING: Pair style restartinfo set but has no restart support (src/pair.cpp:754)
        28                   0.0028                       0      -298.5150060445826          5629.536824633                       0      -1695563.774479004      -1695563.774479004       1986      0.01937852143204676      0.2161806073830536
        28                   0.0028                       0      -298.5150060445826          5629.536824633                       0      -1695563.774479004      -1695563.774479004       1986      0.01937852143204676      0.2161806073830536
WARNING: Pair style restartinfo set but has no restart support (src/pair.cpp:754)
WARNING: Pair style restartinfo set but has no restart support (src/pair.cpp:754)
        28                   0.0028                       0      -298.5150060445826          5630.428772497                       0      -1695563.774479004      -1695563.774479004       1986      0.01937852143204676      0.2161806073830536
        28                   0.0028                       0      -298.5150060445826          5630.428772497                       0      -1695563.774479004      -1695563.774479004       1986      0.01937852143204676      0.2161806073830536
WARNING: Pair style restartinfo set but has no restart support (src/pair.cpp:754)
WARNING: Pair style restartinfo set but has no restart support (src/pair.cpp:754)
        29                   0.0029                       0      -303.4697685514174          5827.354202944                       0      -1695563.776226517      -1695563.776226517       1986     0.009459640570326749       0.189762959433389
        29                   0.0029                       0      -303.4697685514174          5827.354202944                       0      -1695563.776226517      -1695563.776226517       1986     0.009459640570326749       0.189762959433389
WARNING: Pair style restartinfo set but has no restart support (src/pair.cpp:754)
WARNING: Pair style restartinfo set but has no restart support (src/pair.cpp:754)
        29                   0.0029                       0      -303.4697685514174          5828.902877805                       0      -1695563.776226517      -1695563.776226517       1986     0.009459640570326749       0.189762959433389
        29                   0.0029                       0      -303.4697685514174          5828.902877805                       0      -1695563.776226517      -1695563.776226517       1986     0.009459640570326749       0.189762959433389
WARNING: Pair style restartinfo set but has no restart support (src/pair.cpp:754)
WARNING: Pair style restartinfo set but has no restart support (src/pair.cpp:754)
        29                   0.0029                       0      -303.4697685514174           5831.26579592                       0      -1695563.776226517      -1695563.776226517       1986     0.009459640570326749       0.189762959433389
        29                   0.0029                       0      -303.4697685514174           5831.26579592                       0      -1695563.776226517      -1695563.776226517       1986     0.009459640570326749       0.189762959433389
WARNING: Pair style restartinfo set but has no restart support (src/pair.cpp:754)
WARNING: Pair style restartinfo set but has no restart support (src/pair.cpp:754)
        29                   0.0029                       0      -303.4697685514174          5832.122586719                       0      -1695563.776226517      -1695563.776226517       1986     0.009459640570326749       0.189762959433389
        29                   0.0029                       0      -303.4697685514174          5832.122586719                       0      -1695563.776226517      -1695563.776226517       1986     0.009459640570326749       0.189762959433389
WARNING: Pair style restartinfo set but has no restart support (src/pair.cpp:754)
WARNING: Pair style restartinfo set but has no restart support (src/pair.cpp:754)
        30                    0.003                       0      -309.0956869892843          6029.261193229                       0      -1695563.778156574      -1695563.778156574       1986      0.01946190938888723      0.2461576543053763
        30                    0.003                       0      -309.0956869892843          6029.261193229                       0      -1695563.778156574      -1695563.778156574       1986      0.01946190938888723      0.2461576543053763
WARNING: Pair style restartinfo set but has no restart support (src/pair.cpp:754)
WARNING: Pair style restartinfo set but has no restart support (src/pair.cpp:754)
        30                    0.003                       0      -309.0956869892843          6030.833051984                       0      -1695563.778156574      -1695563.778156574       1986      0.01946190938888723      0.2461576543053763
        30                    0.003                       0      -309.0956869892843          6030.833051984                       0      -1695563.778156574      -1695563.778156574       1986      0.01946190938888723      0.2461576543053763
WARNING: Pair style restartinfo set but has no restart support (src/pair.cpp:754)
WARNING: Pair style restartinfo set but has no restart support (src/pair.cpp:754)
        30                    0.003                       0      -309.0956869892843          6032.214555924                       0      -1695563.778156574      -1695563.778156574       1986      0.01946190938888723      0.2461576543053763
        30                    0.003                       0      -309.0956869892843          6032.214555924                       0      -1695563.778156574      -1695563.778156574       1986      0.01946190938888723      0.2461576543053763
WARNING: Pair style restartinfo set but has no restart support (src/pair.cpp:754)
WARNING: Pair style restartinfo set but has no restart support (src/pair.cpp:754)
        30                    0.003                       0      -309.0956869892843           6033.07682905                       0      -1695563.778156574      -1695563.778156574       1986      0.01946190938888723      0.2461576543053763
        30                    0.003                       0      -309.0956869892843           6033.07682905                       0      -1695563.778156574      -1695563.778156574       1986      0.01946190938888723      0.2461576543053763
WARNING: Pair style restartinfo set but has no restart support (src/pair.cpp:754)
WARNING: Pair style restartinfo set but has no restart support (src/pair.cpp:754)
        31                   0.0031                       0      -317.3867705027222       6230.934513890999                       0      -1695563.780415266      -1695563.780415266       1986      0.01487297547047346      0.1706615773111588
        31                   0.0031                       0      -317.3867705027222       6230.934513890999                       0      -1695563.780415266      -1695563.780415266       1986      0.01487297547047346      0.1706615773111588
WARNING: Pair style restartinfo set but has no restart support (src/pair.cpp:754)
WARNING: Pair style restartinfo set but has no restart support (src/pair.cpp:754)
        31                   0.0031                       0      -317.3867705027222          6232.502281145                       0      -1695563.780415266      -1695563.780415266       1986      0.01487297547047346      0.1706615773111588
        31                   0.0031                       0      -317.3867705027222          6232.502281145                       0      -1695563.780415266      -1695563.780415266       1986      0.01487297547047346      0.1706615773111588
WARNING: Pair style restartinfo set but has no restart support (src/pair.cpp:754)
WARNING: Pair style restartinfo set but has no restart support (src/pair.cpp:754)
        31                   0.0031                       0      -317.3867705027222       6233.639074387999                       0      -1695563.780415266      -1695563.780415266       1986      0.01487297547047346      0.1706615773111588
        31                   0.0031                       0      -317.3867705027222       6233.639074387999                       0      -1695563.780415266      -1695563.780415266       1986      0.01487297547047346      0.1706615773111588
WARNING: Pair style restartinfo set but has no restart support (src/pair.cpp:754)
WARNING: Pair style restartinfo set but has no restart support (src/pair.cpp:754)
        31                   0.0031                       0      -317.3867705027222          6234.597342372                       0      -1695563.780415266      -1695563.780415266       1986      0.01487297547047346      0.1706615773111588
        31                   0.0031                       0      -317.3867705027222          6234.597342372                       0      -1695563.780415266      -1695563.780415266       1986      0.01487297547047346      0.1706615773111588
WARNING: Pair style restartinfo set but has no restart support (src/pair.cpp:754)
WARNING: Pair style restartinfo set but has no restart support (src/pair.cpp:754)
        32                   0.0032                       0      -321.5632414294718       6432.435707844999                       0      -1695563.781068377      -1695563.781068377       1986     0.004648898056005544      0.1105580125627679
        32                   0.0032                       0      -321.5632414294718       6432.435707844999                       0      -1695563.781068377      -1695563.781068377       1986     0.004648898056005544      0.1105580125627679
WARNING: Pair style restartinfo set but has no restart support (src/pair.cpp:754)
WARNING: Pair style restartinfo set but has no restart support (src/pair.cpp:754)
        32                   0.0032                       0      -321.5632414294718          6434.692170654                       0      -1695563.781068377      -1695563.781068377       1986     0.004648898056005544      0.1105580125627679
        32                   0.0032                       0      -321.5632414294718          6434.692170654                       0      -1695563.781068377      -1695563.781068377       1986     0.004648898056005544      0.1105580125627679
WARNING: Pair style restartinfo set but has no restart support (src/pair.cpp:754)
WARNING: Pair style restartinfo set but has no restart support (src/pair.cpp:754)
        32                   0.0032                       0      -321.5632414294718       6435.428401724999                       0      -1695563.781068377      -1695563.781068377       1986     0.004648898056005544      0.1105580125627679
        32                   0.0032                       0      -321.5632414294718       6435.428401724999                       0      -1695563.781068377      -1695563.781068377       1986     0.004648898056005544      0.1105580125627679
WARNING: Pair style restartinfo set but has no restart support (src/pair.cpp:754)
WARNING: Pair style restartinfo set but has no restart support (src/pair.cpp:754)
        32                   0.0032                       0      -321.5632414294718          6436.272005889                       0      -1695563.781068377      -1695563.781068377       1986     0.004648898056005544      0.1105580125627679
        32                   0.0032                       0      -321.5632414294718          6436.272005889                       0      -1695563.781068377      -1695563.781068377       1986     0.004648898056005544      0.1105580125627679
WARNING: Pair style restartinfo set but has no restart support (src/pair.cpp:754)
WARNING: Pair style restartinfo set but has no restart support (src/pair.cpp:754)
        33                   0.0033                       0      -328.3154882533343       6634.909514604999                       0      -1695563.781732669      -1695563.781732669       1986      0.01281916405076956      0.1177041197647517
        33                   0.0033                       0      -328.3154882533343       6634.909514604999                       0      -1695563.781732669      -1695563.781732669       1986      0.01281916405076956      0.1177041197647517
WARNING: Pair style restartinfo set but has no restart support (src/pair.cpp:754)
WARNING: Pair style restartinfo set but has no restart support (src/pair.cpp:754)
        33                   0.0033                       0      -328.3154882533343          6637.088851386                       0      -1695563.781732669      -1695563.781732669       1986      0.01281916405076956      0.1177041197647517
        33                   0.0033                       0      -328.3154882533343          6637.088851386                       0      -1695563.781732669      -1695563.781732669       1986      0.01281916405076956      0.1177041197647517
WARNING: Pair style restartinfo set but has no restart support (src/pair.cpp:754)
WARNING: Pair style restartinfo set but has no restart support (src/pair.cpp:754)
        33                   0.0033                       0      -328.3154882533343          6636.667664304                       0      -1695563.781732669      -1695563.781732669       1986      0.01281916405076956      0.1177041197647517
        33                   0.0033                       0      -328.3154882533343          6636.667664304                       0      -1695563.781732669      -1695563.781732669       1986      0.01281916405076956      0.1177041197647517
WARNING: Pair style restartinfo set but has no restart support (src/pair.cpp:754)
WARNING: Pair style restartinfo set but has no restart support (src/pair.cpp:754)
        33                   0.0033                       0      -328.3154882533343          6637.755362775                       0      -1695563.781732669      -1695563.781732669       1986      0.01281916405076956      0.1177041197647517
        33                   0.0033                       0      -328.3154882533343          6637.755362775                       0      -1695563.781732669      -1695563.781732669       1986      0.01281916405076956      0.1177041197647517
WARNING: Pair style restartinfo set but has no restart support (src/pair.cpp:754)
WARNING: Pair style restartinfo set but has no restart support (src/pair.cpp:754)
        34                   0.0034                       0      -330.8612209139957          6838.946343973                       0      -1695563.782068792      -1695563.782068792       1986     0.004080229529963647     0.07102173542202307
        34                   0.0034                       0      -330.8612209139957          6838.946343973                       0      -1695563.782068792      -1695563.782068792       1986     0.004080229529963647     0.07102173542202307
WARNING: Pair style restartinfo set but has no restart support (src/pair.cpp:754)
WARNING: Pair style restartinfo set but has no restart support (src/pair.cpp:754)
        34                   0.0034                       0      -330.8612209139957       6837.509220168999                       0      -1695563.782068792      -1695563.782068792       1986     0.004080229529963647     0.07102173542202307
        34                   0.0034                       0      -330.8612209139957       6837.509220168999                       0      -1695563.782068792      -1695563.782068792       1986     0.004080229529963647     0.07102173542202307
WARNING: Pair style restartinfo set but has no restart support (src/pair.cpp:754)
WARNING: Pair style restartinfo set but has no restart support (src/pair.cpp:754)
        34                   0.0034                       0      -330.8612209139957            6839.8064964                       0      -1695563.782068792      -1695563.782068792       1986     0.004080229529963647     0.07102173542202307
        34                   0.0034                       0      -330.8612209139957            6839.8064964                       0      -1695563.782068792      -1695563.782068792       1986     0.004080229529963647     0.07102173542202307
WARNING: Pair style restartinfo set but has no restart support (src/pair.cpp:754)
WARNING: Pair style restartinfo set but has no restart support (src/pair.cpp:754)
        34                   0.0034                       0      -330.8612209139957            6839.4681228                       0      -1695563.782068792      -1695563.782068792       1986     0.004080229529963647     0.07102173542202307
        34                   0.0034                       0      -330.8612209139957            6839.4681228                       0      -1695563.782068792      -1695563.782068792       1986     0.004080229529963647     0.07102173542202307
WARNING: Pair style restartinfo set but has no restart support (src/pair.cpp:754)
WARNING: Pair style restartinfo set but has no restart support (src/pair.cpp:754)
        35                   0.0035                       0      -331.2851406417241       7041.376991925999                       0      -1695563.782324495      -1695563.782324495       1986     0.007275896226432234     0.08271763887628193
        35                   0.0035                       0      -331.2851406417241       7041.376991925999                       0      -1695563.782324495      -1695563.782324495       1986     0.007275896226432234     0.08271763887628193
WARNING: Pair style restartinfo set but has no restart support (src/pair.cpp:754)
WARNING: Pair style restartinfo set but has no restart support (src/pair.cpp:754)
        35                   0.0035                       0      -331.2851406417241          7040.542415919                       0      -1695563.782324495      -1695563.782324495       1986     0.007275896226432234     0.08271763887628193
        35                   0.0035                       0      -331.2851406417241          7040.542415919                       0      -1695563.782324495      -1695563.782324495       1986     0.007275896226432234     0.08271763887628193
WARNING: Pair style restartinfo set but has no restart support (src/pair.cpp:754)
WARNING: Pair style restartinfo set but has no restart support (src/pair.cpp:754)
        35                   0.0035                       0      -331.2851406417241          7042.110743974                       0      -1695563.782324495      -1695563.782324495       1986     0.007275896226432234     0.08271763887628193
        35                   0.0035                       0      -331.2851406417241          7042.110743974                       0      -1695563.782324495      -1695563.782324495       1986     0.007275896226432234     0.08271763887628193
WARNING: Pair style restartinfo set but has no restart support (src/pair.cpp:754)
WARNING: Pair style restartinfo set but has no restart support (src/pair.cpp:754)
        35                   0.0035                       0      -331.2851406417241          7042.369931793                       0      -1695563.782324495      -1695563.782324495       1986     0.007275896226432234     0.08271763887628193
        35                   0.0035                       0      -331.2851406417241          7042.369931793                       0      -1695563.782324495      -1695563.782324495       1986     0.007275896226432234     0.08271763887628193
WARNING: Pair style restartinfo set but has no restart support (src/pair.cpp:754)
WARNING: Pair style restartinfo set but has no restart support (src/pair.cpp:754)
        36                   0.0036                       0      -333.3863118777763          7242.812608757                       0      -1695563.782534915      -1695563.782534915       1986      0.00613860455469456     0.06682808579602212
        36                   0.0036                       0      -333.3863118777763          7242.812608757                       0      -1695563.782534915      -1695563.782534915       1986      0.00613860455469456     0.06682808579602212
WARNING: Pair style restartinfo set but has no restart support (src/pair.cpp:754)
WARNING: Pair style restartinfo set but has no restart support (src/pair.cpp:754)
        36                   0.0036                       0      -333.3863118777763          7243.700071563                       0      -1695563.782534915      -1695563.782534915       1986      0.00613860455469456     0.06682808579602212
        36                   0.0036                       0      -333.3863118777763          7243.700071563                       0      -1695563.782534915      -1695563.782534915       1986      0.00613860455469456     0.06682808579602212
WARNING: Pair style restartinfo set but has no restart support (src/pair.cpp:754)
WARNING: Pair style restartinfo set but has no restart support (src/pair.cpp:754)
        36                   0.0036                       0      -333.3863118777763          7242.725046558                       0      -1695563.782534915      -1695563.782534915       1986      0.00613860455469456     0.06682808579602212
        36                   0.0036                       0      -333.3863118777763          7242.725046558                       0      -1695563.782534915      -1695563.782534915       1986      0.00613860455469456     0.06682808579602212
WARNING: Pair style restartinfo set but has no restart support (src/pair.cpp:754)
WARNING: Pair style restartinfo set but has no restart support (src/pair.cpp:754)
        36                   0.0036                       0      -333.3863118777763          7244.339784416                       0      -1695563.782534915      -1695563.782534915       1986      0.00613860455469456     0.06682808579602212
        36                   0.0036                       0      -333.3863118777763          7244.339784416                       0      -1695563.782534915      -1695563.782534915       1986      0.00613860455469456     0.06682808579602212
WARNING: Pair style restartinfo set but has no restart support (src/pair.cpp:754)
WARNING: Pair style restartinfo set but has no restart support (src/pair.cpp:754)
        37                   0.0037                       0      -339.7900856082148       7445.070247993999                       0      -1695563.782760879      -1695563.782760879       1986     0.004068209074743089     0.07153727797235508
        37                   0.0037                       0      -339.7900856082148       7445.070247993999                       0      -1695563.782760879      -1695563.782760879       1986     0.004068209074743089     0.07153727797235508
WARNING: Pair style restartinfo set but has no restart support (src/pair.cpp:754)
WARNING: Pair style restartinfo set but has no restart support (src/pair.cpp:754)
        37                   0.0037                       0      -339.7900856082148          7445.633965802                       0      -1695563.782760879      -1695563.782760879       1986     0.004068209074743089     0.07153727797235508
        37                   0.0037                       0      -339.7900856082148          7445.633965802                       0      -1695563.782760879      -1695563.782760879       1986     0.004068209074743089     0.07153727797235508
WARNING: Pair style restartinfo set but has no restart support (src/pair.cpp:754)
WARNING: Pair style restartinfo set but has no restart support (src/pair.cpp:754)
        37                   0.0037                       0      -339.7900856082148          7444.807827652                       0      -1695563.782760879      -1695563.782760879       1986     0.004068209074743089     0.07153727797235508
        37                   0.0037                       0      -339.7900856082148          7444.807827652                       0      -1695563.782760879      -1695563.782760879       1986     0.004068209074743089     0.07153727797235508
WARNING: Pair style restartinfo set but has no restart support (src/pair.cpp:754)
WARNING: Pair style restartinfo set but has no restart support (src/pair.cpp:754)
        37                   0.0037                       0      -339.7900856082148          7446.393382291                       0      -1695563.782760879      -1695563.782760879       1986     0.004068209074743089     0.07153727797235508
        37                   0.0037                       0      -339.7900856082148          7446.393382291                       0      -1695563.782760879      -1695563.782760879       1986     0.004068209074743089     0.07153727797235508
WARNING: Pair style restartinfo set but has no restart support (src/pair.cpp:754)
WARNING: Pair style restartinfo set but has no restart support (src/pair.cpp:754)
        38                   0.0038                       0      -344.4477266975446       7646.566589784999                       0      -1695563.782950123      -1695563.782950123       1986     0.005607443906450306     0.07030417319052164
        38                   0.0038                       0      -344.4477266975446       7646.566589784999                       0      -1695563.782950123      -1695563.782950123       1986     0.005607443906450306     0.07030417319052164
WARNING: Pair style restartinfo set but has no restart support (src/pair.cpp:754)
WARNING: Pair style restartinfo set but has no restart support (src/pair.cpp:754)
        38                   0.0038                       0      -344.4477266975446          7647.145281975                       0      -1695563.782950123      -1695563.782950123       1986     0.005607443906450306     0.07030417319052164
        38                   0.0038                       0      -344.4477266975446          7647.145281975                       0      -1695563.782950123      -1695563.782950123       1986     0.005607443906450306     0.07030417319052164
WARNING: Pair style restartinfo set but has no restart support (src/pair.cpp:754)
WARNING: Pair style restartinfo set but has no restart support (src/pair.cpp:754)
        38                   0.0038                       0      -344.4477266975446          7646.674365794                       0      -1695563.782950123      -1695563.782950123       1986     0.005607443906450306     0.07030417319052164
        38                   0.0038                       0      -344.4477266975446          7646.674365794                       0      -1695563.782950123      -1695563.782950123       1986     0.005607443906450306     0.07030417319052164
WARNING: Pair style restartinfo set but has no restart support (src/pair.cpp:754)
WARNING: Pair style restartinfo set but has no restart support (src/pair.cpp:754)
        38                   0.0038                       0      -344.4477266975446          7648.422028327                       0      -1695563.782950123      -1695563.782950123       1986     0.005607443906450306     0.07030417319052164
        38                   0.0038                       0      -344.4477266975446          7648.422028327                       0      -1695563.782950123      -1695563.782950123       1986     0.005607443906450306     0.07030417319052164
WARNING: Pair style restartinfo set but has no restart support (src/pair.cpp:754)
WARNING: Pair style restartinfo set but has no restart support (src/pair.cpp:754)
        39                   0.0039                       0      -346.9387538718722       7848.380600818999                       0      -1695563.783172856      -1695563.783172856       1986     0.004452762584227343     0.06779608842186288
        39                   0.0039                       0      -346.9387538718722       7848.380600818999                       0      -1695563.783172856      -1695563.783172856       1986     0.004452762584227343     0.06779608842186288
WARNING: Pair style restartinfo set but has no restart support (src/pair.cpp:754)
WARNING: Pair style restartinfo set but has no restart support (src/pair.cpp:754)
        39                   0.0039                       0      -346.9387538718722          7849.442462489                       0      -1695563.783172856      -1695563.783172856       1986     0.004452762584227343     0.06779608842186288
        39                   0.0039                       0      -346.9387538718722          7849.442462489                       0      -1695563.783172856      -1695563.783172856       1986     0.004452762584227343     0.06779608842186288
WARNING: Pair style restartinfo set but has no restart support (src/pair.cpp:754)
WARNING: Pair style restartinfo set but has no restart support (src/pair.cpp:754)
        39                   0.0039                       0      -346.9387538718722          7848.684356176                       0      -1695563.783172856      -1695563.783172856       1986     0.004452762584227343     0.06779608842186288
        39                   0.0039                       0      -346.9387538718722          7848.684356176                       0      -1695563.783172856      -1695563.783172856       1986     0.004452762584227343     0.06779608842186288
WARNING: Pair style restartinfo set but has no restart support (src/pair.cpp:754)
WARNING: Pair style restartinfo set but has no restart support (src/pair.cpp:754)
        39                   0.0039                       0      -346.9387538718722          7850.150022338                       0      -1695563.783172856      -1695563.783172856       1986     0.004452762584227343     0.06779608842186288
        39                   0.0039                       0      -346.9387538718722          7850.150022338                       0      -1695563.783172856      -1695563.783172856       1986     0.004452762584227343     0.06779608842186288
WARNING: Pair style restartinfo set but has no restart support (src/pair.cpp:754)
WARNING: Pair style restartinfo set but has no restart support (src/pair.cpp:754)
        40                    0.004                       0      -348.4469687454373          8050.731772659                       0      -1695563.783290958      -1695563.783290958       1986     0.002412756203775648     0.03869320017065005
        40                    0.004                       0      -348.4469687454373          8050.731772659                       0      -1695563.783290958      -1695563.783290958       1986     0.002412756203775648     0.03869320017065005
WARNING: Pair style restartinfo set but has no restart support (src/pair.cpp:754)
WARNING: Pair style restartinfo set but has no restart support (src/pair.cpp:754)
        40                    0.004                       0      -348.4469687454373       8051.624267722999                       0      -1695563.783290958      -1695563.783290958       1986     0.002412756203775648     0.03869320017065005
        40                    0.004                       0      -348.4469687454373       8051.624267722999                       0      -1695563.783290958      -1695563.783290958       1986     0.002412756203775648     0.03869320017065005
WARNING: Pair style restartinfo set but has no restart support (src/pair.cpp:754)
WARNING: Pair style restartinfo set but has no restart support (src/pair.cpp:754)
        40                    0.004                       0      -348.4469687454373          8050.646533142                       0      -1695563.783290958      -1695563.783290958       1986     0.002412756203775648     0.03869320017065005
        40                    0.004                       0      -348.4469687454373          8050.646533142                       0      -1695563.783290958      -1695563.783290958       1986     0.002412756203775648     0.03869320017065005
WARNING: Pair style restartinfo set but has no restart support (src/pair.cpp:754)
WARNING: Pair style restartinfo set but has no restart support (src/pair.cpp:754)
        40                    0.004                       0      -348.4469687454373       8052.131625018999                       0      -1695563.783290958      -1695563.783290958       1986     0.002412756203775648     0.03869320017065005
        40                    0.004                       0      -348.4469687454373       8052.131625018999                       0      -1695563.783290958      -1695563.783290958       1986     0.002412756203775648     0.03869320017065005
WARNING: Pair style restartinfo set but has no restart support (src/pair.cpp:754)
WARNING: Pair style restartinfo set but has no restart support (src/pair.cpp:754)
        41                   0.0041                       0      -350.9632287441645           8253.09430208                       0      -1695563.783348467      -1695563.783348467       1986     0.003195886594356983     0.04057020756823953
        41                   0.0041                       0      -350.9632287441645           8253.09430208                       0      -1695563.783348467      -1695563.783348467       1986     0.003195886594356983     0.04057020756823953
WARNING: Pair style restartinfo set but has no restart support (src/pair.cpp:754)
WARNING: Pair style restartinfo set but has no restart support (src/pair.cpp:754)
        41                   0.0041                       0      -350.9632287441645       8253.628377477002                       0      -1695563.783348467      -1695563.783348467       1986     0.003195886594356983     0.04057020756823953
        41                   0.0041                       0      -350.9632287441645       8253.628377477002                       0      -1695563.783348467      -1695563.783348467       1986     0.003195886594356983     0.04057020756823953
WARNING: Pair style restartinfo set but has no restart support (src/pair.cpp:754)
WARNING: Pair style restartinfo set but has no restart support (src/pair.cpp:754)
        41                   0.0041                       0      -350.9632287441645          8252.672197557                       0      -1695563.783348467      -1695563.783348467       1986     0.003195886594356983     0.04057020756823953
        41                   0.0041                       0      -350.9632287441645          8252.672197557                       0      -1695563.783348467      -1695563.783348467       1986     0.003195886594356983     0.04057020756823953
WARNING: Pair style restartinfo set but has no restart support (src/pair.cpp:754)
WARNING: Pair style restartinfo set but has no restart support (src/pair.cpp:754)
        41                   0.0041                       0      -350.9632287441645          8254.006494226                       0      -1695563.783348467      -1695563.783348467       1986     0.003195886594356983     0.04057020756823953
        41                   0.0041                       0      -350.9632287441645          8254.006494226                       0      -1695563.783348467      -1695563.783348467       1986     0.003195886594356983     0.04057020756823953
WARNING: Pair style restartinfo set but has no restart support (src/pair.cpp:754)
WARNING: Pair style restartinfo set but has no restart support (src/pair.cpp:754)
        42     0.004200000000000001                       0      -353.8673653705094          8454.999127006                       0      -1695563.783409386      -1695563.783409386       1986     0.002647957620788097     0.03033800969030487
        42     0.004200000000000001                       0      -353.8673653705094          8454.999127006                       0      -1695563.783409386      -1695563.783409386       1986     0.002647957620788097     0.03033800969030487
WARNING: Pair style restartinfo set but has no restart support (src/pair.cpp:754)
WARNING: Pair style restartinfo set but has no restart support (src/pair.cpp:754)
        42     0.004200000000000001                       0      -353.8673653705094       8456.064086111001                       0      -1695563.783409386      -1695563.783409386       1986     0.002647957620788097     0.03033800969030487
        42     0.004200000000000001                       0      -353.8673653705094       8456.064086111001                       0      -1695563.783409386      -1695563.783409386       1986     0.002647957620788097     0.03033800969030487
WARNING: Pair style restartinfo set but has no restart support (src/pair.cpp:754)
WARNING: Pair style restartinfo set but has no restart support (src/pair.cpp:754)
        42     0.004200000000000001                       0      -353.8673653705094          8454.827926246                       0      -1695563.783409386      -1695563.783409386       1986     0.002647957620788097     0.03033800969030487
        42     0.004200000000000001                       0      -353.8673653705094          8454.827926246                       0      -1695563.783409386      -1695563.783409386       1986     0.002647957620788097     0.03033800969030487
WARNING: Pair style restartinfo set but has no restart support (src/pair.cpp:754)
WARNING: Pair style restartinfo set but has no restart support (src/pair.cpp:754)
        42     0.004200000000000001                       0      -353.8673653705094       8456.243910544999                       0      -1695563.783409386      -1695563.783409386       1986     0.002647957620788097     0.03033800969030487
        42     0.004200000000000001                       0      -353.8673653705094       8456.243910544999                       0      -1695563.783409386      -1695563.783409386       1986     0.002647957620788097     0.03033800969030487
WARNING: Pair style restartinfo set but has no restart support (src/pair.cpp:754)
WARNING: Pair style restartinfo set but has no restart support (src/pair.cpp:754)
        43                   0.0043                       0      -354.0100192629483          8657.422347344                       0      -1695563.783447317      -1695563.783447317       1986     0.002923814050907321       0.036462669119213
        43                   0.0043                       0      -354.0100192629483          8657.422347344                       0      -1695563.783447317      -1695563.783447317       1986     0.002923814050907321       0.036462669119213
WARNING: Pair style restartinfo set but has no restart support (src/pair.cpp:754)
WARNING: Pair style restartinfo set but has no restart support (src/pair.cpp:754)
        43                   0.0043                       0      -354.0100192629483          8656.821993336                       0      -1695563.783447317      -1695563.783447317       1986     0.002923814050907321       0.036462669119213
        43                   0.0043                       0      -354.0100192629483          8656.821993336                       0      -1695563.783447317      -1695563.783447317       1986     0.002923814050907321       0.036462669119213
WARNING: Pair style restartinfo set but has no restart support (src/pair.cpp:754)
WARNING: Pair style restartinfo set but has no restart support (src/pair.cpp:754)
        43                   0.0043                       0      -354.0100192629483          8658.151481584                       0      -1695563.783447317      -1695563.783447317       1986     0.002923814050907321       0.036462669119213
        43                   0.0043                       0      -354.0100192629483          8658.151481584                       0      -1695563.783447317      -1695563.783447317       1986     0.002923814050907321       0.036462669119213
WARNING: Pair style restartinfo set but has no restart support (src/pair.cpp:754)
WARNING: Pair style restartinfo set but has no restart support (src/pair.cpp:754)
        43                   0.0043                       0      -354.0100192629483          8658.963442963                       0      -1695563.783447317      -1695563.783447317       1986     0.002923814050907321       0.036462669119213
        43                   0.0043                       0      -354.0100192629483          8658.963442963                       0      -1695563.783447317      -1695563.783447317       1986     0.002923814050907321       0.036462669119213
WARNING: Pair style restartinfo set but has no restart support (src/pair.cpp:754)
WARNING: Pair style restartinfo set but has no restart support (src/pair.cpp:754)
        44                   0.0044                       0      -354.0193411598817       8857.494584255999                       0      -1695563.783511304      -1695563.783511304       1986     0.002056199310474105     0.03339577106666416
        44                   0.0044                       0      -354.0193411598817       8857.494584255999                       0      -1695563.783511304      -1695563.783511304       1986     0.002056199310474105     0.03339577106666416
WARNING: Pair style restartinfo set but has no restart support (src/pair.cpp:754)
WARNING: Pair style restartinfo set but has no restart support (src/pair.cpp:754)
        44                   0.0044                       0      -354.0193411598817       8858.973034582001                       0      -1695563.783511304      -1695563.783511304       1986     0.002056199310474105     0.03339577106666416
        44                   0.0044                       0      -354.0193411598817       8858.973034582001                       0      -1695563.783511304      -1695563.783511304       1986     0.002056199310474105     0.03339577106666416
WARNING: Pair style restartinfo set but has no restart support (src/pair.cpp:754)
WARNING: Pair style restartinfo set but has no restart support (src/pair.cpp:754)
        44                   0.0044                       0      -354.0193411598817          8859.958366658                       0      -1695563.783511304      -1695563.783511304       1986     0.002056199310474105     0.03339577106666416
        44                   0.0044                       0      -354.0193411598817          8859.958366658                       0      -1695563.783511304      -1695563.783511304       1986     0.002056199310474105     0.03339577106666416
WARNING: Pair style restartinfo set but has no restart support (src/pair.cpp:754)
WARNING: Pair style restartinfo set but has no restart support (src/pair.cpp:754)
        44                   0.0044                       0      -354.0193411598817           8860.99733552                       0      -1695563.783511304      -1695563.783511304       1986     0.002056199310474105     0.03339577106666416
        44                   0.0044                       0      -354.0193411598817           8860.99733552                       0      -1695563.783511304      -1695563.783511304       1986     0.002056199310474105     0.03339577106666416
WARNING: Pair style restartinfo set but has no restart support (src/pair.cpp:754)
WARNING: Pair style restartinfo set but has no restart support (src/pair.cpp:754)
        45     0.004500000000000001                       0      -356.4838889132706       9059.760244568999                       0      -1695563.783550912      -1695563.783550912       1986     0.002573553407328578     0.03240940302442133
        45     0.004500000000000001                       0      -356.4838889132706       9059.760244568999                       0      -1695563.783550912      -1695563.783550912       1986     0.002573553407328578     0.03240940302442133
WARNING: Pair style restartinfo set but has no restart support (src/pair.cpp:754)
WARNING: Pair style restartinfo set but has no restart support (src/pair.cpp:754)
        45     0.004500000000000001                       0      -356.4838889132706          9061.518039236                       0      -1695563.783550912      -1695563.783550912       1986     0.002573553407328578     0.03240940302442133
        45     0.004500000000000001                       0      -356.4838889132706          9061.518039236                       0      -1695563.783550912      -1695563.783550912       1986     0.002573553407328578     0.03240940302442133
WARNING: Pair style restartinfo set but has no restart support (src/pair.cpp:754)
WARNING: Pair style restartinfo set but has no restart support (src/pair.cpp:754)
        45     0.004500000000000001                       0      -356.4838889132706       9062.565856692001                       0      -1695563.783550912      -1695563.783550912       1986     0.002573553407328578     0.03240940302442133
        45     0.004500000000000001                       0      -356.4838889132706       9062.565856692001                       0      -1695563.783550912      -1695563.783550912       1986     0.002573553407328578     0.03240940302442133
WARNING: Pair style restartinfo set but has no restart support (src/pair.cpp:754)
WARNING: Pair style restartinfo set but has no restart support (src/pair.cpp:754)
        45     0.004500000000000001                       0      -356.4838889132706       9063.284924645001                       0      -1695563.783550912      -1695563.783550912       1986     0.002573553407328578     0.03240940302442133
        45     0.004500000000000001                       0      -356.4838889132706       9063.284924645001                       0      -1695563.783550912      -1695563.783550912       1986     0.002573553407328578     0.03240940302442133
WARNING: Pair style restartinfo set but has no restart support (src/pair.cpp:754)
WARNING: Pair style restartinfo set but has no restart support (src/pair.cpp:754)
        46                   0.0046                       0       -359.918350090998       9261.885838488999                       0      -1695563.783590439      -1695563.783590439       1986     0.001498878371761875     0.02586868463676264
        46                   0.0046                       0       -359.918350090998       9261.885838488999                       0      -1695563.783590439      -1695563.783590439       1986     0.001498878371761875     0.02586868463676264
WARNING: Pair style restartinfo set but has no restart support (src/pair.cpp:754)
WARNING: Pair style restartinfo set but has no restart support (src/pair.cpp:754)
        46                   0.0046                       0       -359.918350090998          9263.252949091                       0      -1695563.783590439      -1695563.783590439       1986     0.001498878371761875     0.02586868463676264
        46                   0.0046                       0       -359.918350090998          9263.252949091                       0      -1695563.783590439      -1695563.783590439       1986     0.001498878371761875     0.02586868463676264
WARNING: Pair style restartinfo set but has no restart support (src/pair.cpp:754)
WARNING: Pair style restartinfo set but has no restart support (src/pair.cpp:754)
        46                   0.0046                       0       -359.918350090998          9264.466187574                       0      -1695563.783590439      -1695563.783590439       1986     0.001498878371761875     0.02586868463676264
        46                   0.0046                       0       -359.918350090998          9264.466187574                       0      -1695563.783590439      -1695563.783590439       1986     0.001498878371761875     0.02586868463676264
WARNING: Pair style restartinfo set but has no restart support (src/pair.cpp:754)
WARNING: Pair style restartinfo set but has no restart support (src/pair.cpp:754)
        46                   0.0046                       0       -359.918350090998       9264.855413446001                       0      -1695563.783590439      -1695563.783590439       1986     0.001498878371761875     0.02586868463676264
        46                   0.0046                       0       -359.918350090998       9264.855413446001                       0      -1695563.783590439      -1695563.783590439       1986     0.001498878371761875     0.02586868463676264
WARNING: Pair style restartinfo set but has no restart support (src/pair.cpp:754)
WARNING: Pair style restartinfo set but has no restart support (src/pair.cpp:754)
        47                   0.0047                       0      -360.1663733637938          9463.584535815                       0      -1695563.783614496      -1695563.783614496       1986     0.002312758747159919     0.02543744449584334
        47                   0.0047                       0      -360.1663733637938          9463.584535815                       0      -1695563.783614496      -1695563.783614496       1986     0.002312758747159919     0.02543744449584334
WARNING: Pair style restartinfo set but has no restart support (src/pair.cpp:754)
WARNING: Pair style restartinfo set but has no restart support (src/pair.cpp:754)
        47                   0.0047                       0      -360.1663733637938          9465.214752021                       0      -1695563.783614496      -1695563.783614496       1986     0.002312758747159919     0.02543744449584334
        47                   0.0047                       0      -360.1663733637938          9465.214752021                       0      -1695563.783614496      -1695563.783614496       1986     0.002312758747159919     0.02543744449584334
WARNING: Pair style restartinfo set but has no restart support (src/pair.cpp:754)
WARNING: Pair style restartinfo set but has no restart support (src/pair.cpp:754)
        47                   0.0047                       0      -360.1663733637938       9465.991035762001                       0      -1695563.783614496      -1695563.783614496       1986     0.002312758747159919     0.02543744449584334
        47                   0.0047                       0      -360.1663733637938       9465.991035762001                       0      -1695563.783614496      -1695563.783614496       1986     0.002312758747159919     0.02543744449584334
WARNING: Pair style restartinfo set but has no restart support (src/pair.cpp:754)
WARNING: Pair style restartinfo set but has no restart support (src/pair.cpp:754)
        47                   0.0047                       0      -360.1663733637938          9466.522529288                       0      -1695563.783614496      -1695563.783614496       1986     0.002312758747159919     0.02543744449584334
        47                   0.0047                       0      -360.1663733637938          9466.522529288                       0      -1695563.783614496      -1695563.783614496       1986     0.002312758747159919     0.02543744449584334
WARNING: Pair style restartinfo set but has no restart support (src/pair.cpp:754)
WARNING: Pair style restartinfo set but has no restart support (src/pair.cpp:754)
        48                   0.0048                       0      -359.1603649860969          9665.562196314                       0      -1695563.783642494      -1695563.783642494       1986     0.001673186787006114     0.02175399004375938
        48                   0.0048                       0      -359.1603649860969          9665.562196314                       0      -1695563.783642494      -1695563.783642494       1986     0.001673186787006114     0.02175399004375938
WARNING: Pair style restartinfo set but has no restart support (src/pair.cpp:754)
WARNING: Pair style restartinfo set but has no restart support (src/pair.cpp:754)
        48                   0.0048                       0      -359.1603649860969       9667.624767520001                       0      -1695563.783642494      -1695563.783642494       1986     0.001673186787006114     0.02175399004375938
        48                   0.0048                       0      -359.1603649860969       9667.624767520001                       0      -1695563.783642494      -1695563.783642494       1986     0.001673186787006114     0.02175399004375938
WARNING: Pair style restartinfo set but has no restart support (src/pair.cpp:754)
WARNING: Pair style restartinfo set but has no restart support (src/pair.cpp:754)
        48                   0.0048                       0      -359.1603649860969       9667.675832970999                       0      -1695563.783642494      -1695563.783642494       1986     0.001673186787006114     0.02175399004375938
        48                   0.0048                       0      -359.1603649860969       9667.675832970999                       0      -1695563.783642494      -1695563.783642494       1986     0.001673186787006114     0.02175399004375938
WARNING: Pair style restartinfo set but has no restart support (src/pair.cpp:754)
WARNING: Pair style restartinfo set but has no restart support (src/pair.cpp:754)
        48                   0.0048                       0      -359.1603649860969       9668.438705789002                       0      -1695563.783642494      -1695563.783642494       1986     0.001673186787006114     0.02175399004375938
        48                   0.0048                       0      -359.1603649860969       9668.438705789002                       0      -1695563.783642494      -1695563.783642494       1986     0.001673186787006114     0.02175399004375938
WARNING: Pair style restartinfo set but has no restart support (src/pair.cpp:754)
WARNING: Pair style restartinfo set but has no restart support (src/pair.cpp:754)
        49                   0.0049                       0      -359.8836284647529       9869.792955058001                       0      -1695563.783656804      -1695563.783656804       1986     0.001275115518327724     0.01969152660628453
        49                   0.0049                       0      -359.8836284647529       9869.792955058001                       0      -1695563.783656804      -1695563.783656804       1986     0.001275115518327724     0.01969152660628453
WARNING: Pair style restartinfo set but has no restart support (src/pair.cpp:754)
WARNING: Pair style restartinfo set but has no restart support (src/pair.cpp:754)
        49                   0.0049                       0      -359.8836284647529       9868.325499181999                       0      -1695563.783656804      -1695563.783656804       1986     0.001275115518327724     0.01969152660628453
        49                   0.0049                       0      -359.8836284647529       9868.325499181999                       0      -1695563.783656804      -1695563.783656804       1986     0.001275115518327724     0.01969152660628453
WARNING: Pair style restartinfo set but has no restart support (src/pair.cpp:754)
WARNING: Pair style restartinfo set but has no restart support (src/pair.cpp:754)
WARNING: Pair style restartinfo set but has no restart support (src/pair.cpp:754)
WARNING: Pair style restartinfo set but has no restart support (src/pair.cpp:754)
        49                   0.0049                       0      -359.8836284647529          9870.211784273                       0      -1695563.783656804      -1695563.783656804       1986     0.001275115518327724     0.01969152660628453
        49                   0.0049                       0      -359.8836284647529          9870.211784273                       0      -1695563.783656804      -1695563.783656804       1986     0.001275115518327724     0.01969152660628453
        49                   0.0049                       0      -359.8836284647529       9870.676157519001                       0      -1695563.783656804      -1695563.783656804       1986     0.001275115518327724     0.01969152660628453
        49                   0.0049                       0      -359.8836284647529       9870.676157519001                       0      -1695563.783656804      -1695563.783656804       1986     0.001275115518327724     0.01969152660628453
WARNING: Pair style restartinfo set but has no restart support (src/pair.cpp:754)
WARNING: Pair style restartinfo set but has no restart support (src/pair.cpp:754)
        50                    0.005                       0      -362.4377344054483         10071.442977608                       0      -1695563.783676655      -1695563.783676655       1986     0.001554464769965146     0.01973643850586668
        50                    0.005                       0      -362.4377344054483         10071.442977608                       0      -1695563.783676655      -1695563.783676655       1986     0.001554464769965146     0.01973643850586668
WARNING: Pair style restartinfo set but has no restart support (src/pair.cpp:754)
WARNING: Pair style restartinfo set but has no restart support (src/pair.cpp:754)
        50                    0.005                       0      -362.4377344054483          10071.03844266                       0      -1695563.783676655      -1695563.783676655       1986     0.001554464769965146     0.01973643850586668
        50                    0.005                       0      -362.4377344054483          10071.03844266                       0      -1695563.783676655      -1695563.783676655       1986     0.001554464769965146     0.01973643850586668
WARNING: Pair style restartinfo set but has no restart support (src/pair.cpp:754)
WARNING: Pair style restartinfo set but has no restart support (src/pair.cpp:754)
        50                    0.005                       0      -362.4377344054483         10070.397852476                       0      -1695563.783676655      -1695563.783676655       1986     0.001554464769965146     0.01973643850586668
        50                    0.005                       0      -362.4377344054483         10070.397852476                       0      -1695563.783676655      -1695563.783676655       1986     0.001554464769965146     0.01973643850586668
WARNING: Pair style restartinfo set but has no restart support (src/pair.cpp:754)
WARNING: Pair style restartinfo set but has no restart support (src/pair.cpp:754)
        50                    0.005                       0      -362.4377344054483         10072.874125633                       0      -1695563.783676655      -1695563.783676655       1986     0.001554464769965146     0.01973643850586668
        50                    0.005                       0      -362.4377344054483         10072.874125633                       0      -1695563.783676655      -1695563.783676655       1986     0.001554464769965146     0.01973643850586668
WARNING: Pair style restartinfo set but has no restart support (src/pair.cpp:754)
WARNING: Pair style restartinfo set but has no restart support (src/pair.cpp:754)
        51                   0.0051                       0      -362.6484683962836         10273.643756819                       0      -1695563.783689402      -1695563.783689402       1986     0.001188838205597018     0.01796748542515341
        51                   0.0051                       0      -362.6484683962836         10273.643756819                       0      -1695563.783689402      -1695563.783689402       1986     0.001188838205597018     0.01796748542515341
WARNING: Pair style restartinfo set but has no restart support (src/pair.cpp:754)
WARNING: Pair style restartinfo set but has no restart support (src/pair.cpp:754)
        51                   0.0051                       0      -362.6484683962836         10273.143015889                       0      -1695563.783689402      -1695563.783689402       1986     0.001188838205597018     0.01796748542515341
        51                   0.0051                       0      -362.6484683962836         10273.143015889                       0      -1695563.783689402      -1695563.783689402       1986     0.001188838205597018     0.01796748542515341
WARNING: Pair style restartinfo set but has no restart support (src/pair.cpp:754)
WARNING: Pair style restartinfo set but has no restart support (src/pair.cpp:754)
        51                   0.0051                       0      -362.6484683962836         10272.738647418                       0      -1695563.783689402      -1695563.783689402       1986     0.001188838205597018     0.01796748542515341
        51                   0.0051                       0      -362.6484683962836         10272.738647418                       0      -1695563.783689402      -1695563.783689402       1986     0.001188838205597018     0.01796748542515341
WARNING: Pair style restartinfo set but has no restart support (src/pair.cpp:754)
WARNING: Pair style restartinfo set but has no restart support (src/pair.cpp:754)
        51                   0.0051                       0      -362.6484683962836         10274.547002269                       0      -1695563.783689402      -1695563.783689402       1986     0.001188838205597018     0.01796748542515341
        51                   0.0051                       0      -362.6484683962836         10274.547002269                       0      -1695563.783689402      -1695563.783689402       1986     0.001188838205597018     0.01796748542515341
WARNING: Pair style restartinfo set but has no restart support (src/pair.cpp:754)
WARNING: Pair style restartinfo set but has no restart support (src/pair.cpp:754)
        52     0.005200000000000001                       0      -360.6760982368954         10475.847739258                       0      -1695563.783708071      -1695563.783708071       1986     0.001665451281011801     0.02222427017751556
        52     0.005200000000000001                       0      -360.6760982368954         10475.847739258                       0      -1695563.783708071      -1695563.783708071       1986     0.001665451281011801     0.02222427017751556
WARNING: Pair style restartinfo set but has no restart support (src/pair.cpp:754)
WARNING: Pair style restartinfo set but has no restart support (src/pair.cpp:754)
        52     0.005200000000000001                       0      -360.6760982368954         10475.685145852                       0      -1695563.783708071      -1695563.783708071       1986     0.001665451281011801     0.02222427017751556
        52     0.005200000000000001                       0      -360.6760982368954         10475.685145852                       0      -1695563.783708071      -1695563.783708071       1986     0.001665451281011801     0.02222427017751556
WARNING: Pair style restartinfo set but has no restart support (src/pair.cpp:754)
WARNING: Pair style restartinfo set but has no restart support (src/pair.cpp:754)
        52     0.005200000000000001                       0      -360.6760982368954         10476.656938129                       0      -1695563.783708071      -1695563.783708071       1986     0.001665451281011801     0.02222427017751556
        52     0.005200000000000001                       0      -360.6760982368954         10476.656938129                       0      -1695563.783708071      -1695563.783708071       1986     0.001665451281011801     0.02222427017751556
WARNING: Pair style restartinfo set but has no restart support (src/pair.cpp:754)
WARNING: Pair style restartinfo set but has no restart support (src/pair.cpp:754)
        52     0.005200000000000001                       0      -360.6760982368954         10475.917525009                       0      -1695563.783708071      -1695563.783708071       1986     0.001665451281011801     0.02222427017751556
        52     0.005200000000000001                       0      -360.6760982368954         10475.917525009                       0      -1695563.783708071      -1695563.783708071       1986     0.001665451281011801     0.02222427017751556
WARNING: Pair style restartinfo set but has no restart support (src/pair.cpp:754)
WARNING: Pair style restartinfo set but has no restart support (src/pair.cpp:754)
        53                   0.0053                       0      -360.4866941248691         10677.833074306                       0      -1695563.783724699      -1695563.783724699       1986      0.00137105537198896     0.02037069619178175
        53                   0.0053                       0      -360.4866941248691         10677.833074306                       0      -1695563.783724699      -1695563.783724699       1986      0.00137105537198896     0.02037069619178175
WARNING: Pair style restartinfo set but has no restart support (src/pair.cpp:754)
WARNING: Pair style restartinfo set but has no restart support (src/pair.cpp:754)
        53                   0.0053                       0      -360.4866941248691         10677.673550718                       0      -1695563.783724699      -1695563.783724699       1986      0.00137105537198896     0.02037069619178175
        53                   0.0053                       0      -360.4866941248691         10677.673550718                       0      -1695563.783724699      -1695563.783724699       1986      0.00137105537198896     0.02037069619178175
WARNING: Pair style restartinfo set but has no restart support (src/pair.cpp:754)
WARNING: Pair style restartinfo set but has no restart support (src/pair.cpp:754)
        53                   0.0053                       0      -360.4866941248691         10678.348468767                       0      -1695563.783724699      -1695563.783724699       1986      0.00137105537198896     0.02037069619178175
        53                   0.0053                       0      -360.4866941248691         10678.348468767                       0      -1695563.783724699      -1695563.783724699       1986      0.00137105537198896     0.02037069619178175
WARNING: Pair style restartinfo set but has no restart support (src/pair.cpp:754)
WARNING: Pair style restartinfo set but has no restart support (src/pair.cpp:754)
        53                   0.0053                       0      -360.4866941248691         10678.319354805                       0      -1695563.783724699      -1695563.783724699       1986      0.00137105537198896     0.02037069619178175
        53                   0.0053                       0      -360.4866941248691         10678.319354805                       0      -1695563.783724699      -1695563.783724699       1986      0.00137105537198896     0.02037069619178175
WARNING: Pair style restartinfo set but has no restart support (src/pair.cpp:754)
WARNING: Pair style restartinfo set but has no restart support (src/pair.cpp:754)
        54                   0.0054                       0      -363.7166933682144         10879.300522133                       0      -1695563.783747421      -1695563.783747421       1986      0.00157879816775619     0.02195700993820127
        54                   0.0054                       0      -363.7166933682144         10879.300522133                       0      -1695563.783747421      -1695563.783747421       1986      0.00157879816775619     0.02195700993820127
WARNING: Pair style restartinfo set but has no restart support (src/pair.cpp:754)
WARNING: Pair style restartinfo set but has no restart support (src/pair.cpp:754)
        54                   0.0054                       0      -363.7166933682144         10880.311606982                       0      -1695563.783747421      -1695563.783747421       1986      0.00157879816775619     0.02195700993820127
        54                   0.0054                       0      -363.7166933682144         10880.311606982                       0      -1695563.783747421      -1695563.783747421       1986      0.00157879816775619     0.02195700993820127
WARNING: Pair style restartinfo set but has no restart support (src/pair.cpp:754)
WARNING: Pair style restartinfo set but has no restart support (src/pair.cpp:754)
        54                   0.0054                       0      -363.7166933682144         10880.720667274                       0      -1695563.783747421      -1695563.783747421       1986      0.00157879816775619     0.02195700993820127
        54                   0.0054                       0      -363.7166933682144         10880.720667274                       0      -1695563.783747421      -1695563.783747421       1986      0.00157879816775619     0.02195700993820127
WARNING: Pair style restartinfo set but has no restart support (src/pair.cpp:754)
WARNING: Pair style restartinfo set but has no restart support (src/pair.cpp:754)
        54                   0.0054                       0      -363.7166933682144         10881.079853673                       0      -1695563.783747421      -1695563.783747421       1986      0.00157879816775619     0.02195700993820127
        54                   0.0054                       0      -363.7166933682144         10881.079853673                       0      -1695563.783747421      -1695563.783747421       1986      0.00157879816775619     0.02195700993820127
WARNING: Pair style restartinfo set but has no restart support (src/pair.cpp:754)
WARNING: Pair style restartinfo set but has no restart support (src/pair.cpp:754)
        55     0.005500000000000001                       0      -364.5111495111766         11081.462596169                       0      -1695563.783762251      -1695563.783762251       1986     0.001198524330438282     0.01773973519623574
        55     0.005500000000000001                       0      -364.5111495111766         11081.462596169                       0      -1695563.783762251      -1695563.783762251       1986     0.001198524330438282     0.01773973519623574
WARNING: Pair style restartinfo set but has no restart support (src/pair.cpp:754)
WARNING: Pair style restartinfo set but has no restart support (src/pair.cpp:754)
        55     0.005500000000000001                       0      -364.5111495111766         11082.402316197                       0      -1695563.783762251      -1695563.783762251       1986     0.001198524330438282     0.01773973519623574
        55     0.005500000000000001                       0      -364.5111495111766         11082.402316197                       0      -1695563.783762251      -1695563.783762251       1986     0.001198524330438282     0.01773973519623574
WARNING: Pair style restartinfo set but has no restart support (src/pair.cpp:754)
WARNING: Pair style restartinfo set but has no restart support (src/pair.cpp:754)
        55     0.005500000000000001                       0      -364.5111495111766         11082.496294396                       0      -1695563.783762251      -1695563.783762251       1986     0.001198524330438282     0.01773973519623574
        55     0.005500000000000001                       0      -364.5111495111766         11082.496294396                       0      -1695563.783762251      -1695563.783762251       1986     0.001198524330438282     0.01773973519623574
WARNING: Pair style restartinfo set but has no restart support (src/pair.cpp:754)
WARNING: Pair style restartinfo set but has no restart support (src/pair.cpp:754)
        55     0.005500000000000001                       0      -364.5111495111766         11082.748841194                       0      -1695563.783762251      -1695563.783762251       1986     0.001198524330438282     0.01773973519623574
        55     0.005500000000000001                       0      -364.5111495111766         11082.748841194                       0      -1695563.783762251      -1695563.783762251       1986     0.001198524330438282     0.01773973519623574
WARNING: Pair style restartinfo set but has no restart support (src/pair.cpp:754)
WARNING: Pair style restartinfo set but has no restart support (src/pair.cpp:754)
        56                   0.0056                       0      -362.4786452410356         11283.029677536                       0      -1695563.783775339      -1695563.783775339       1986     0.001087834454256069     0.01656030357228676
        56                   0.0056                       0      -362.4786452410356         11283.029677536                       0      -1695563.783775339      -1695563.783775339       1986     0.001087834454256069     0.01656030357228676
WARNING: Pair style restartinfo set but has no restart support (src/pair.cpp:754)
WARNING: Pair style restartinfo set but has no restart support (src/pair.cpp:754)
        56                   0.0056                       0      -362.4786452410356         11283.909017424                       0      -1695563.783775339      -1695563.783775339       1986     0.001087834454256069     0.01656030357228676
        56                   0.0056                       0      -362.4786452410356         11283.909017424                       0      -1695563.783775339      -1695563.783775339       1986     0.001087834454256069     0.01656030357228676
WARNING: Pair style restartinfo set but has no restart support (src/pair.cpp:754)
WARNING: Pair style restartinfo set but has no restart support (src/pair.cpp:754)
        56                   0.0056                       0      -362.4786452410356         11284.440162109                       0      -1695563.783775339      -1695563.783775339       1986     0.001087834454256069     0.01656030357228676
        56                   0.0056                       0      -362.4786452410356         11284.440162109                       0      -1695563.783775339      -1695563.783775339       1986     0.001087834454256069     0.01656030357228676
WARNING: Pair style restartinfo set but has no restart support (src/pair.cpp:754)
WARNING: Pair style restartinfo set but has no restart support (src/pair.cpp:754)
        56                   0.0056                       0      -362.4786452410356         11284.767582703                       0      -1695563.783775339      -1695563.783775339       1986     0.001087834454256069     0.01656030357228676
        56                   0.0056                       0      -362.4786452410356         11284.767582703                       0      -1695563.783775339      -1695563.783775339       1986     0.001087834454256069     0.01656030357228676
WARNING: Pair style restartinfo set but has no restart support (src/pair.cpp:754)
WARNING: Pair style restartinfo set but has no restart support (src/pair.cpp:754)
        57                   0.0057                       0      -361.5983515880251         11484.071430463                       0      -1695563.783783142      -1695563.783783142       1986    0.0006826372719440919      0.0117322614454059
        57                   0.0057                       0      -361.5983515880251         11484.071430463                       0      -1695563.783783142      -1695563.783783142       1986    0.0006826372719440919      0.0117322614454059
WARNING: Pair style restartinfo set but has no restart support (src/pair.cpp:754)
WARNING: Pair style restartinfo set but has no restart support (src/pair.cpp:754)
        57                   0.0057                       0      -361.5983515880251         11485.102484087                       0      -1695563.783783142      -1695563.783783142       1986    0.0006826372719440919      0.0117322614454059
        57                   0.0057                       0      -361.5983515880251         11485.102484087                       0      -1695563.783783142      -1695563.783783142       1986    0.0006826372719440919      0.0117322614454059
WARNING: Pair style restartinfo set but has no restart support (src/pair.cpp:754)
WARNING: Pair style restartinfo set but has no restart support (src/pair.cpp:754)
        57                   0.0057                       0      -361.5983515880251         11486.428535948                       0      -1695563.783783142      -1695563.783783142       1986    0.0006826372719440919      0.0117322614454059
        57                   0.0057                       0      -361.5983515880251         11486.428535948                       0      -1695563.783783142      -1695563.783783142       1986    0.0006826372719440919      0.0117322614454059
WARNING: Pair style restartinfo set but has no restart support (src/pair.cpp:754)
WARNING: Pair style restartinfo set but has no restart support (src/pair.cpp:754)
        57                   0.0057                       0      -361.5983515880251         11486.701200323                       0      -1695563.783783142      -1695563.783783142       1986    0.0006826372719440919      0.0117322614454059
        57                   0.0057                       0      -361.5983515880251         11486.701200323                       0      -1695563.783783142      -1695563.783783142       1986    0.0006826372719440919      0.0117322614454059
WARNING: Pair style restartinfo set but has no restart support (src/pair.cpp:754)
WARNING: Pair style restartinfo set but has no restart support (src/pair.cpp:754)
        58                   0.0058                       0      -363.0127599918339         11685.324300858                       0       -1695563.78379017       -1695563.78379017       1986     0.001075829149646483     0.01397567330396712
        58                   0.0058                       0      -363.0127599918339         11685.324300858                       0       -1695563.78379017       -1695563.78379017       1986     0.001075829149646483     0.01397567330396712
WARNING: Pair style restartinfo set but has no restart support (src/pair.cpp:754)
WARNING: Pair style restartinfo set but has no restart support (src/pair.cpp:754)
        58                   0.0058                       0      -363.0127599918339         11686.194139585                       0       -1695563.78379017       -1695563.78379017       1986     0.001075829149646483     0.01397567330396712
        58                   0.0058                       0      -363.0127599918339         11686.194139585                       0       -1695563.78379017       -1695563.78379017       1986     0.001075829149646483     0.01397567330396712
WARNING: Pair style restartinfo set but has no restart support (src/pair.cpp:754)
WARNING: Pair style restartinfo set but has no restart support (src/pair.cpp:754)
        58                   0.0058                       0      -363.0127599918339         11688.029210444                       0       -1695563.78379017       -1695563.78379017       1986     0.001075829149646483     0.01397567330396712
        58                   0.0058                       0      -363.0127599918339         11688.029210444                       0       -1695563.78379017       -1695563.78379017       1986     0.001075829149646483     0.01397567330396712
WARNING: Pair style restartinfo set but has no restart support (src/pair.cpp:754)
WARNING: Pair style restartinfo set but has no restart support (src/pair.cpp:754)
        58                   0.0058                       0      -363.0127599918339         11688.380356264                       0       -1695563.78379017       -1695563.78379017       1986     0.001075829149646483     0.01397567330396712
        58                   0.0058                       0      -363.0127599918339         11688.380356264                       0       -1695563.78379017       -1695563.78379017       1986     0.001075829149646483     0.01397567330396712
WARNING: Pair style restartinfo set but has no restart support (src/pair.cpp:754)
WARNING: Pair style restartinfo set but has no restart support (src/pair.cpp:754)
        59                   0.0059                       0      -363.9381461209077         11886.869734388                       0      -1695563.783796628      -1695563.783796628       1986    0.0007125357985319977     0.01100670764091525
        59                   0.0059                       0      -363.9381461209077         11886.869734388                       0      -1695563.783796628      -1695563.783796628       1986    0.0007125357985319977     0.01100670764091525
WARNING: Pair style restartinfo set but has no restart support (src/pair.cpp:754)
WARNING: Pair style restartinfo set but has no restart support (src/pair.cpp:754)
        59                   0.0059                       0      -363.9381461209077         11887.768408363                       0      -1695563.783796628      -1695563.783796628       1986    0.0007125357985319977     0.01100670764091525
        59                   0.0059                       0      -363.9381461209077         11887.768408363                       0      -1695563.783796628      -1695563.783796628       1986    0.0007125357985319977     0.01100670764091525
WARNING: Pair style restartinfo set but has no restart support (src/pair.cpp:754)
WARNING: Pair style restartinfo set but has no restart support (src/pair.cpp:754)
        59                   0.0059                       0      -363.9381461209077         11889.740913306                       0      -1695563.783796628      -1695563.783796628       1986    0.0007125357985319977     0.01100670764091525
        59                   0.0059                       0      -363.9381461209077         11889.740913306                       0      -1695563.783796628      -1695563.783796628       1986    0.0007125357985319977     0.01100670764091525
WARNING: Pair style restartinfo set but has no restart support (src/pair.cpp:754)
WARNING: Pair style restartinfo set but has no restart support (src/pair.cpp:754)
        59                   0.0059                       0      -363.9381461209077         11890.123617908                       0      -1695563.783796628      -1695563.783796628       1986    0.0007125357985319977     0.01100670764091525
        59                   0.0059                       0      -363.9381461209077         11890.123617908                       0      -1695563.783796628      -1695563.783796628       1986    0.0007125357985319977     0.01100670764091525
WARNING: Pair style restartinfo set but has no restart support (src/pair.cpp:754)
WARNING: Pair style restartinfo set but has no restart support (src/pair.cpp:754)
        60                    0.006                       0      -362.4119190663143         12088.555552566                       0      -1695563.783802497      -1695563.783802497       1986     0.001059545225116875     0.01341829264352695
        60                    0.006                       0      -362.4119190663143         12088.555552566                       0      -1695563.783802497      -1695563.783802497       1986     0.001059545225116875     0.01341829264352695
WARNING: Pair style restartinfo set but has no restart support (src/pair.cpp:754)
WARNING: Pair style restartinfo set but has no restart support (src/pair.cpp:754)
        60                    0.006                       0      -362.4119190663143         12089.574760415                       0      -1695563.783802497      -1695563.783802497       1986     0.001059545225116875     0.01341829264352695
        60                    0.006                       0      -362.4119190663143         12089.574760415                       0      -1695563.783802497      -1695563.783802497       1986     0.001059545225116875     0.01341829264352695
WARNING: Pair style restartinfo set but has no restart support (src/pair.cpp:754)
WARNING: Pair style restartinfo set but has no restart support (src/pair.cpp:754)
        60                    0.006                       0      -362.4119190663143         12091.778317939                       0      -1695563.783802497      -1695563.783802497       1986     0.001059545225116875     0.01341829264352695
        60                    0.006                       0      -362.4119190663143         12091.778317939                       0      -1695563.783802497      -1695563.783802497       1986     0.001059545225116875     0.01341829264352695
WARNING: Pair style restartinfo set but has no restart support (src/pair.cpp:754)
WARNING: Pair style restartinfo set but has no restart support (src/pair.cpp:754)
        60                    0.006                       0      -362.4119190663143         12091.895824594                       0      -1695563.783802497      -1695563.783802497       1986     0.001059545225116875     0.01341829264352695
        60                    0.006                       0      -362.4119190663143         12091.895824594                       0      -1695563.783802497      -1695563.783802497       1986     0.001059545225116875     0.01341829264352695
WARNING: Pair style restartinfo set but has no restart support (src/pair.cpp:754)
WARNING: Pair style restartinfo set but has no restart support (src/pair.cpp:754)
        61                   0.0061                       0       -360.859911198377         12290.343682473                       0       -1695563.78380866       -1695563.78380866       1986     0.000829025477203536    0.009136968494181759
        61                   0.0061                       0       -360.859911198377         12290.343682473                       0       -1695563.78380866       -1695563.78380866       1986     0.000829025477203536    0.009136968494181759
WARNING: Pair style restartinfo set but has no restart support (src/pair.cpp:754)
WARNING: Pair style restartinfo set but has no restart support (src/pair.cpp:754)
        61                   0.0061                       0       -360.859911198377          12291.22380782                       0       -1695563.78380866       -1695563.78380866       1986     0.000829025477203536    0.009136968494181759
        61                   0.0061                       0       -360.859911198377          12291.22380782                       0       -1695563.78380866       -1695563.78380866       1986     0.000829025477203536    0.009136968494181759
WARNING: Pair style restartinfo set but has no restart support (src/pair.cpp:754)
WARNING: Pair style restartinfo set but has no restart support (src/pair.cpp:754)
        61                   0.0061                       0       -360.859911198377         12293.122659201                       0       -1695563.78380866       -1695563.78380866       1986     0.000829025477203536    0.009136968494181759
        61                   0.0061                       0       -360.859911198377         12293.122659201                       0       -1695563.78380866       -1695563.78380866       1986     0.000829025477203536    0.009136968494181759
WARNING: Pair style restartinfo set but has no restart support (src/pair.cpp:754)
WARNING: Pair style restartinfo set but has no restart support (src/pair.cpp:754)
        61                   0.0061                       0       -360.859911198377          12293.30581531                       0       -1695563.78380866       -1695563.78380866       1986     0.000829025477203536    0.009136968494181759
        61                   0.0061                       0       -360.859911198377          12293.30581531                       0       -1695563.78380866       -1695563.78380866       1986     0.000829025477203536    0.009136968494181759
WARNING: Pair style restartinfo set but has no restart support (src/pair.cpp:754)
WARNING: Pair style restartinfo set but has no restart support (src/pair.cpp:754)
        62     0.006200000000000001                       0       -362.028833223393         12492.328525045                       0      -1695563.783811823      -1695563.783811823       1986    0.0006619789200742825    0.009129022317109128
        62     0.006200000000000001                       0       -362.028833223393         12492.328525045                       0      -1695563.783811823      -1695563.783811823       1986    0.0006619789200742825    0.009129022317109128
WARNING: Pair style restartinfo set but has no restart support (src/pair.cpp:754)
WARNING: Pair style restartinfo set but has no restart support (src/pair.cpp:754)
        62     0.006200000000000001                       0       -362.028833223393         12493.234915428                       0      -1695563.783811823      -1695563.783811823       1986    0.0006619789200742825    0.009129022317109128
        62     0.006200000000000001                       0       -362.028833223393         12493.234915428                       0      -1695563.783811823      -1695563.783811823       1986    0.0006619789200742825    0.009129022317109128
WARNING: Pair style restartinfo set but has no restart support (src/pair.cpp:754)
WARNING: Pair style restartinfo set but has no restart support (src/pair.cpp:754)
        62     0.006200000000000001                       0       -362.028833223393         12495.288247626                       0      -1695563.783811823      -1695563.783811823       1986    0.0006619789200742825    0.009129022317109128
        62     0.006200000000000001                       0       -362.028833223393         12495.288247626                       0      -1695563.783811823      -1695563.783811823       1986    0.0006619789200742825    0.009129022317109128
WARNING: Pair style restartinfo set but has no restart support (src/pair.cpp:754)
WARNING: Pair style restartinfo set but has no restart support (src/pair.cpp:754)
        62     0.006200000000000001                       0       -362.028833223393         12495.009673117                       0      -1695563.783811823      -1695563.783811823       1986    0.0006619789200742825    0.009129022317109128
        62     0.006200000000000001                       0       -362.028833223393         12495.009673117                       0      -1695563.783811823      -1695563.783811823       1986    0.0006619789200742825    0.009129022317109128
WARNING: Pair style restartinfo set but has no restart support (src/pair.cpp:754)
WARNING: Pair style restartinfo set but has no restart support (src/pair.cpp:754)
        63                   0.0063                       0      -363.3163709206758         12694.347882306                       0       -1695563.78381485       -1695563.78381485       1986    0.0004945178711221014     0.00759704269521719
        63                   0.0063                       0      -363.3163709206758         12694.347882306                       0       -1695563.78381485       -1695563.78381485       1986    0.0004945178711221014     0.00759704269521719
WARNING: Pair style restartinfo set but has no restart support (src/pair.cpp:754)
WARNING: Pair style restartinfo set but has no restart support (src/pair.cpp:754)
        63                   0.0063                       0      -363.3163709206758         12695.134127594                       0       -1695563.78381485       -1695563.78381485       1986    0.0004945178711221014     0.00759704269521719
        63                   0.0063                       0      -363.3163709206758         12695.134127594                       0       -1695563.78381485       -1695563.78381485       1986    0.0004945178711221014     0.00759704269521719
WARNING: Pair style restartinfo set but has no restart support (src/pair.cpp:754)
WARNING: Pair style restartinfo set but has no restart support (src/pair.cpp:754)
        63                   0.0063                       0      -363.3163709206758         12696.722531868                       0       -1695563.78381485       -1695563.78381485       1986    0.0004945178711221014     0.00759704269521719
        63                   0.0063                       0      -363.3163709206758         12696.722531868                       0       -1695563.78381485       -1695563.78381485       1986    0.0004945178711221014     0.00759704269521719
WARNING: Pair style restartinfo set but has no restart support (src/pair.cpp:754)
WARNING: Pair style restartinfo set but has no restart support (src/pair.cpp:754)
        63                   0.0063                       0      -363.3163709206758         12696.190012623                       0       -1695563.78381485       -1695563.78381485       1986    0.0004945178711221014     0.00759704269521719
        63                   0.0063                       0      -363.3163709206758         12696.190012623                       0       -1695563.78381485       -1695563.78381485       1986    0.0004945178711221014     0.00759704269521719
WARNING: Pair style restartinfo set but has no restart support (src/pair.cpp:754)
WARNING: Pair style restartinfo set but has no restart support (src/pair.cpp:754)
        64                   0.0064                       0      -362.3931692388449         12895.746567195                       0      -1695563.783817126      -1695563.783817126       1986    0.0005897757907151607    0.008227600817837735
        64                   0.0064                       0      -362.3931692388449         12895.746567195                       0      -1695563.783817126      -1695563.783817126       1986    0.0005897757907151607    0.008227600817837735
WARNING: Pair style restartinfo set but has no restart support (src/pair.cpp:754)
WARNING: Pair style restartinfo set but has no restart support (src/pair.cpp:754)
        64                   0.0064                       0      -362.3931692388449         12897.242649171                       0      -1695563.783817126      -1695563.783817126       1986    0.0005897757907151607    0.008227600817837735
        64                   0.0064                       0      -362.3931692388449         12897.242649171                       0      -1695563.783817126      -1695563.783817126       1986    0.0005897757907151607    0.008227600817837735
WARNING: Pair style restartinfo set but has no restart support (src/pair.cpp:754)
WARNING: Pair style restartinfo set but has no restart support (src/pair.cpp:754)
        64                   0.0064                       0      -362.3931692388449         12898.117602089                       0      -1695563.783817126      -1695563.783817126       1986    0.0005897757907151607    0.008227600817837735
        64                   0.0064                       0      -362.3931692388449         12898.117602089                       0      -1695563.783817126      -1695563.783817126       1986    0.0005897757907151607    0.008227600817837735
WARNING: Pair style restartinfo set but has no restart support (src/pair.cpp:754)
WARNING: Pair style restartinfo set but has no restart support (src/pair.cpp:754)
        64                   0.0064                       0      -362.3931692388449          12897.71112001                       0      -1695563.783817126      -1695563.783817126       1986    0.0005897757907151607    0.008227600817837735
        64                   0.0064                       0      -362.3931692388449          12897.71112001                       0      -1695563.783817126      -1695563.783817126       1986    0.0005897757907151607    0.008227600817837735
WARNING: Pair style restartinfo set but has no restart support (src/pair.cpp:754)
WARNING: Pair style restartinfo set but has no restart support (src/pair.cpp:754)
        65     0.006500000000000001                       0      -360.2841817279682         13098.469891045                       0      -1695563.783820202      -1695563.783820202       1986    0.0005562573476040125    0.007898039429307316
        65     0.006500000000000001                       0      -360.2841817279682         13098.469891045                       0      -1695563.783820202      -1695563.783820202       1986    0.0005562573476040125    0.007898039429307316
WARNING: Pair style restartinfo set but has no restart support (src/pair.cpp:754)
WARNING: Pair style restartinfo set but has no restart support (src/pair.cpp:754)
        65     0.006500000000000001                       0      -360.2841817279682         13099.039991143                       0      -1695563.783820202      -1695563.783820202       1986    0.0005562573476040125    0.007898039429307316
        65     0.006500000000000001                       0      -360.2841817279682         13099.039991143                       0      -1695563.783820202      -1695563.783820202       1986    0.0005562573476040125    0.007898039429307316
WARNING: Pair style restartinfo set but has no restart support (src/pair.cpp:754)
WARNING: Pair style restartinfo set but has no restart support (src/pair.cpp:754)
        65     0.006500000000000001                       0      -360.2841817279682         13099.231331466                       0      -1695563.783820202      -1695563.783820202       1986    0.0005562573476040125    0.007898039429307316
        65     0.006500000000000001                       0      -360.2841817279682         13099.231331466                       0      -1695563.783820202      -1695563.783820202       1986    0.0005562573476040125    0.007898039429307316
WARNING: Pair style restartinfo set but has no restart support (src/pair.cpp:754)
WARNING: Pair style restartinfo set but has no restart support (src/pair.cpp:754)
        65     0.006500000000000001                       0      -360.2841817279682         13098.975526756                       0      -1695563.783820202      -1695563.783820202       1986    0.0005562573476040125    0.007898039429307316
        65     0.006500000000000001                       0      -360.2841817279682         13098.975526756                       0      -1695563.783820202      -1695563.783820202       1986    0.0005562573476040125    0.007898039429307316
WARNING: Pair style restartinfo set but has no restart support (src/pair.cpp:754)
WARNING: Pair style restartinfo set but has no restart support (src/pair.cpp:754)
        66                   0.0066                       0      -360.6459901324218         13300.364201402                       0      -1695563.783822989      -1695563.783822989       1986    0.0006124228943097811    0.008945542634575587
        66                   0.0066                       0      -360.6459901324218         13300.364201402                       0      -1695563.783822989      -1695563.783822989       1986    0.0006124228943097811    0.008945542634575587
WARNING: Pair style restartinfo set but has no restart support (src/pair.cpp:754)
WARNING: Pair style restartinfo set but has no restart support (src/pair.cpp:754)
        66                   0.0066                       0      -360.6459901324218         13300.671270105                       0      -1695563.783822989      -1695563.783822989       1986    0.0006124228943097811    0.008945542634575587
        66                   0.0066                       0      -360.6459901324218         13300.671270105                       0      -1695563.783822989      -1695563.783822989       1986    0.0006124228943097811    0.008945542634575587
WARNING: Pair style restartinfo set but has no restart support (src/pair.cpp:754)
WARNING: Pair style restartinfo set but has no restart support (src/pair.cpp:754)
        66                   0.0066                       0      -360.6459901324218         13300.847828255                       0      -1695563.783822989      -1695563.783822989       1986    0.0006124228943097811    0.008945542634575587
        66                   0.0066                       0      -360.6459901324218         13300.847828255                       0      -1695563.783822989      -1695563.783822989       1986    0.0006124228943097811    0.008945542634575587
WARNING: Pair style restartinfo set but has no restart support (src/pair.cpp:754)
WARNING: Pair style restartinfo set but has no restart support (src/pair.cpp:754)
        66                   0.0066                       0      -360.6459901324218         13300.432306935                       0      -1695563.783822989      -1695563.783822989       1986    0.0006124228943097811    0.008945542634575587
        66                   0.0066                       0      -360.6459901324218         13300.432306935                       0      -1695563.783822989      -1695563.783822989       1986    0.0006124228943097811    0.008945542634575587
WARNING: Pair style restartinfo set but has no restart support (src/pair.cpp:754)
WARNING: Pair style restartinfo set but has no restart support (src/pair.cpp:754)
        67                   0.0067                       0      -362.2394624849398         13501.851527523                       0      -1695563.783826051      -1695563.783826051       1986     0.000638331914272483    0.007100191462438247
        67                   0.0067                       0      -362.2394624849398         13501.851527523                       0      -1695563.783826051      -1695563.783826051       1986     0.000638331914272483    0.007100191462438247
WARNING: Pair style restartinfo set but has no restart support (src/pair.cpp:754)
WARNING: Pair style restartinfo set but has no restart support (src/pair.cpp:754)
        67                   0.0067                       0      -362.2394624849398         13502.687341603                       0      -1695563.783826051      -1695563.783826051       1986     0.000638331914272483    0.007100191462438247
        67                   0.0067                       0      -362.2394624849398         13502.687341603                       0      -1695563.783826051      -1695563.783826051       1986     0.000638331914272483    0.007100191462438247
WARNING: Pair style restartinfo set but has no restart support (src/pair.cpp:754)
WARNING: Pair style restartinfo set but has no restart support (src/pair.cpp:754)
        67                   0.0067                       0      -362.2394624849398         13503.190275997                       0      -1695563.783826051      -1695563.783826051       1986     0.000638331914272483    0.007100191462438247
        67                   0.0067                       0      -362.2394624849398         13503.190275997                       0      -1695563.783826051      -1695563.783826051       1986     0.000638331914272483    0.007100191462438247
WARNING: Pair style restartinfo set but has no restart support (src/pair.cpp:754)
WARNING: Pair style restartinfo set but has no restart support (src/pair.cpp:754)
        67                   0.0067                       0      -362.2394624849398         13502.967607781                       0      -1695563.783826051      -1695563.783826051       1986     0.000638331914272483    0.007100191462438247
        67                   0.0067                       0      -362.2394624849398         13502.967607781                       0      -1695563.783826051      -1695563.783826051       1986     0.000638331914272483    0.007100191462438247
WARNING: Pair style restartinfo set but has no restart support (src/pair.cpp:754)
WARNING: Pair style restartinfo set but has no restart support (src/pair.cpp:754)
        68                   0.0068                       0      -361.9728713998126         13703.655029722                       0      -1695563.783827551      -1695563.783827551       1986    0.0006654280968518243    0.005977825192330481
        68                   0.0068                       0      -361.9728713998126         13703.655029722                       0      -1695563.783827551      -1695563.783827551       1986    0.0006654280968518243    0.005977825192330481
WARNING: Pair style restartinfo set but has no restart support (src/pair.cpp:754)
WARNING: Pair style restartinfo set but has no restart support (src/pair.cpp:754)
        68                   0.0068                       0      -361.9728713998126         13704.686891146                       0      -1695563.783827551      -1695563.783827551       1986    0.0006654280968518243    0.005977825192330481
        68                   0.0068                       0      -361.9728713998126         13704.686891146                       0      -1695563.783827551      -1695563.783827551       1986    0.0006654280968518243    0.005977825192330481
WARNING: Pair style restartinfo set but has no restart support (src/pair.cpp:754)
WARNING: Pair style restartinfo set but has no restart support (src/pair.cpp:754)
        68                   0.0068                       0      -361.9728713998126         13705.007130527                       0      -1695563.783827551      -1695563.783827551       1986    0.0006654280968518243    0.005977825192330481
        68                   0.0068                       0      -361.9728713998126         13705.007130527                       0      -1695563.783827551      -1695563.783827551       1986    0.0006654280968518243    0.005977825192330481
WARNING: Pair style restartinfo set but has no restart support (src/pair.cpp:754)
WARNING: Pair style restartinfo set but has no restart support (src/pair.cpp:754)
        68                   0.0068                       0      -361.9728713998126         13705.142603888                       0      -1695563.783827551      -1695563.783827551       1986    0.0006654280968518243    0.005977825192330481
        68                   0.0068                       0      -361.9728713998126         13705.142603888                       0      -1695563.783827551      -1695563.783827551       1986    0.0006654280968518243    0.005977825192330481
WARNING: Pair style restartinfo set but has no restart support (src/pair.cpp:754)
WARNING: Pair style restartinfo set but has no restart support (src/pair.cpp:754)
        69     0.006900000000000001                       0      -360.5733611865646         13905.512947647                       0      -1695563.783828964      -1695563.783828964       1986     0.000282952074140123    0.004254358205563338
        69     0.006900000000000001                       0      -360.5733611865646         13905.512947647                       0      -1695563.783828964      -1695563.783828964       1986     0.000282952074140123    0.004254358205563338
WARNING: Pair style restartinfo set but has no restart support (src/pair.cpp:754)
WARNING: Pair style restartinfo set but has no restart support (src/pair.cpp:754)
        69     0.006900000000000001                       0      -360.5733611865646         13906.576952921                       0      -1695563.783828964      -1695563.783828964       1986     0.000282952074140123    0.004254358205563338
        69     0.006900000000000001                       0      -360.5733611865646         13906.576952921                       0      -1695563.783828964      -1695563.783828964       1986     0.000282952074140123    0.004254358205563338
WARNING: Pair style restartinfo set but has no restart support (src/pair.cpp:754)
WARNING: Pair style restartinfo set but has no restart support (src/pair.cpp:754)
        69     0.006900000000000001                       0      -360.5733611865646         13907.016955027                       0      -1695563.783828964      -1695563.783828964       1986     0.000282952074140123    0.004254358205563338
        69     0.006900000000000001                       0      -360.5733611865646         13907.016955027                       0      -1695563.783828964      -1695563.783828964       1986     0.000282952074140123    0.004254358205563338
WARNING: Pair style restartinfo set but has no restart support (src/pair.cpp:754)
WARNING: Pair style restartinfo set but has no restart support (src/pair.cpp:754)
        69     0.006900000000000001                       0      -360.5733611865646         13907.148424586                       0      -1695563.783828964      -1695563.783828964       1986     0.000282952074140123    0.004254358205563338
        69     0.006900000000000001                       0      -360.5733611865646         13907.148424586                       0      -1695563.783828964      -1695563.783828964       1986     0.000282952074140123    0.004254358205563338
WARNING: Pair style restartinfo set but has no restart support (src/pair.cpp:754)
WARNING: Pair style restartinfo set but has no restart support (src/pair.cpp:754)
        70                    0.007                       0      -360.6139404714554         14107.648436924                       0      -1695563.783829506      -1695563.783829506       1986    0.0002657093803925135    0.003822513260024206
        70                    0.007                       0      -360.6139404714554         14107.648436924                       0      -1695563.783829506      -1695563.783829506       1986    0.0002657093803925135    0.003822513260024206
WARNING: Pair style restartinfo set but has no restart support (src/pair.cpp:754)
WARNING: Pair style restartinfo set but has no restart support (src/pair.cpp:754)
        70                    0.007                       0      -360.6139404714554         14108.022705047                       0      -1695563.783829506      -1695563.783829506       1986    0.0002657093803925135    0.003822513260024206
        70                    0.007                       0      -360.6139404714554         14108.022705047                       0      -1695563.783829506      -1695563.783829506       1986    0.0002657093803925135    0.003822513260024206
WARNING: Pair style restartinfo set but has no restart support (src/pair.cpp:754)
WARNING: Pair style restartinfo set but has no restart support (src/pair.cpp:754)
        70                    0.007                       0      -360.6139404714554         14109.143782225                       0      -1695563.783829506      -1695563.783829506       1986    0.0002657093803925135    0.003822513260024206
        70                    0.007                       0      -360.6139404714554         14109.143782225                       0      -1695563.783829506      -1695563.783829506       1986    0.0002657093803925135    0.003822513260024206
WARNING: Pair style restartinfo set but has no restart support (src/pair.cpp:754)
WARNING: Pair style restartinfo set but has no restart support (src/pair.cpp:754)
        70                    0.007                       0      -360.6139404714554         14109.287627445                       0      -1695563.783829506      -1695563.783829506       1986    0.0002657093803925135    0.003822513260024206
        70                    0.007                       0      -360.6139404714554         14109.287627445                       0      -1695563.783829506      -1695563.783829506       1986    0.0002657093803925135    0.003822513260024206
WARNING: Pair style restartinfo set but has no restart support (src/pair.cpp:754)
WARNING: Pair style restartinfo set but has no restart support (src/pair.cpp:754)
        71                   0.0071                       0      -361.4842415481605         14309.878232889                       0      -1695563.783830219      -1695563.783830219       1986      0.00031657823719317    0.004004370491550486
        71                   0.0071                       0      -361.4842415481605         14309.878232889                       0      -1695563.783830219      -1695563.783830219       1986      0.00031657823719317    0.004004370491550486
WARNING: Pair style restartinfo set but has no restart support (src/pair.cpp:754)
WARNING: Pair style restartinfo set but has no restart support (src/pair.cpp:754)
        71                   0.0071                       0      -361.4842415481605         14310.810943411                       0      -1695563.783830219      -1695563.783830219       1986      0.00031657823719317    0.004004370491550486
        71                   0.0071                       0      -361.4842415481605         14310.810943411                       0      -1695563.783830219      -1695563.783830219       1986      0.00031657823719317    0.004004370491550486
WARNING: Pair style restartinfo set but has no restart support (src/pair.cpp:754)
WARNING: Pair style restartinfo set but has no restart support (src/pair.cpp:754)
        71                   0.0071                       0      -361.4842415481605         14311.657461046                       0      -1695563.783830219      -1695563.783830219       1986      0.00031657823719317    0.004004370491550486
        71                   0.0071                       0      -361.4842415481605         14311.657461046                       0      -1695563.783830219      -1695563.783830219       1986      0.00031657823719317    0.004004370491550486
WARNING: Pair style restartinfo set but has no restart support (src/pair.cpp:754)
WARNING: Pair style restartinfo set but has no restart support (src/pair.cpp:754)
        71                   0.0071                       0      -361.4842415481605         14311.505214752                       0      -1695563.783830219      -1695563.783830219       1986      0.00031657823719317    0.004004370491550486
        71                   0.0071                       0      -361.4842415481605         14311.505214752                       0      -1695563.783830219      -1695563.783830219       1986      0.00031657823719317    0.004004370491550486
WARNING: Pair style restartinfo set but has no restart support (src/pair.cpp:754)
WARNING: Pair style restartinfo set but has no restart support (src/pair.cpp:754)
        72     0.007200000000000001                       0      -361.6084491470938          14512.14902129                       0      -1695563.783830767      -1695563.783830767       1986    0.0002299992078600918    0.003738686281969609
        72     0.007200000000000001                       0      -361.6084491470938          14512.14902129                       0      -1695563.783830767      -1695563.783830767       1986    0.0002299992078600918    0.003738686281969609
WARNING: Pair style restartinfo set but has no restart support (src/pair.cpp:754)
WARNING: Pair style restartinfo set but has no restart support (src/pair.cpp:754)
        72     0.007200000000000001                       0      -361.6084491470938         14513.028534002                       0      -1695563.783830767      -1695563.783830767       1986    0.0002299992078600918    0.003738686281969609
        72     0.007200000000000001                       0      -361.6084491470938         14513.028534002                       0      -1695563.783830767      -1695563.783830767       1986    0.0002299992078600918    0.003738686281969609
WARNING: Pair style restartinfo set but has no restart support (src/pair.cpp:754)
WARNING: Pair style restartinfo set but has no restart support (src/pair.cpp:754)
        72     0.007200000000000001                       0      -361.6084491470938         14513.555906863                       0      -1695563.783830767      -1695563.783830767       1986    0.0002299992078600918    0.003738686281969609
        72     0.007200000000000001                       0      -361.6084491470938         14513.555906863                       0      -1695563.783830767      -1695563.783830767       1986    0.0002299992078600918    0.003738686281969609
WARNING: Pair style restartinfo set but has no restart support (src/pair.cpp:754)
WARNING: Pair style restartinfo set but has no restart support (src/pair.cpp:754)
        72     0.007200000000000001                       0      -361.6084491470938         14513.706352369                       0      -1695563.783830767      -1695563.783830767       1986    0.0002299992078600918    0.003738686281969609
        72     0.007200000000000001                       0      -361.6084491470938         14513.706352369                       0      -1695563.783830767      -1695563.783830767       1986    0.0002299992078600918    0.003738686281969609
WARNING: Pair style restartinfo set but has no restart support (src/pair.cpp:754)
WARNING: Pair style restartinfo set but has no restart support (src/pair.cpp:754)
        73                   0.0073                       0        -360.70499225829         14714.296233901                       0      -1695563.783831481      -1695563.783831481       1986    0.0002668739751247744    0.003782831187764938
        73                   0.0073                       0        -360.70499225829         14714.296233901                       0      -1695563.783831481      -1695563.783831481       1986    0.0002668739751247744    0.003782831187764938
WARNING: Pair style restartinfo set but has no restart support (src/pair.cpp:754)
WARNING: Pair style restartinfo set but has no restart support (src/pair.cpp:754)
        73                   0.0073                       0        -360.70499225829         14715.381125722                       0      -1695563.783831481      -1695563.783831481       1986    0.0002668739751247744    0.003782831187764938
        73                   0.0073                       0        -360.70499225829         14715.381125722                       0      -1695563.783831481      -1695563.783831481       1986    0.0002668739751247744    0.003782831187764938
WARNING: Pair style restartinfo set but has no restart support (src/pair.cpp:754)
WARNING: Pair style restartinfo set but has no restart support (src/pair.cpp:754)
        73                   0.0073                       0        -360.70499225829         14715.560412586                       0      -1695563.783831481      -1695563.783831481       1986    0.0002668739751247744    0.003782831187764938
        73                   0.0073                       0        -360.70499225829         14715.560412586                       0      -1695563.783831481      -1695563.783831481       1986    0.0002668739751247744    0.003782831187764938
WARNING: Pair style restartinfo set but has no restart support (src/pair.cpp:754)
WARNING: Pair style restartinfo set but has no restart support (src/pair.cpp:754)
        73                   0.0073                       0        -360.70499225829         14715.957560378                       0      -1695563.783831481      -1695563.783831481       1986    0.0002668739751247744    0.003782831187764938
        73                   0.0073                       0        -360.70499225829         14715.957560378                       0      -1695563.783831481      -1695563.783831481       1986    0.0002668739751247744    0.003782831187764938
WARNING: Pair style restartinfo set but has no restart support (src/pair.cpp:754)
WARNING: Pair style restartinfo set but has no restart support (src/pair.cpp:754)
        74                   0.0074                       0      -360.5327509941141         14916.483261757                       0      -1695563.783831922      -1695563.783831922       1986    0.0002024957483650239    0.003158670125953485
        74                   0.0074                       0      -360.5327509941141         14916.483261757                       0      -1695563.783831922      -1695563.783831922       1986    0.0002024957483650239    0.003158670125953485
WARNING: Pair style restartinfo set but has no restart support (src/pair.cpp:754)
WARNING: Pair style restartinfo set but has no restart support (src/pair.cpp:754)
        74                   0.0074                       0      -360.5327509941141         14917.510919046                       0      -1695563.783831922      -1695563.783831922       1986    0.0002024957483650239    0.003158670125953485
        74                   0.0074                       0      -360.5327509941141         14917.510919046                       0      -1695563.783831922      -1695563.783831922       1986    0.0002024957483650239    0.003158670125953485
WARNING: Pair style restartinfo set but has no restart support (src/pair.cpp:754)
WARNING: Pair style restartinfo set but has no restart support (src/pair.cpp:754)
        74                   0.0074                       0      -360.5327509941141          14917.76221012                       0      -1695563.783831922      -1695563.783831922       1986    0.0002024957483650239    0.003158670125953485
        74                   0.0074                       0      -360.5327509941141          14917.76221012                       0      -1695563.783831922      -1695563.783831922       1986    0.0002024957483650239    0.003158670125953485
WARNING: Pair style restartinfo set but has no restart support (src/pair.cpp:754)
WARNING: Pair style restartinfo set but has no restart support (src/pair.cpp:754)
        74                   0.0074                       0      -360.5327509941141         14918.171169517                       0      -1695563.783831922      -1695563.783831922       1986    0.0002024957483650239    0.003158670125953485
        74                   0.0074                       0      -360.5327509941141         14918.171169517                       0      -1695563.783831922      -1695563.783831922       1986    0.0002024957483650239    0.003158670125953485
WARNING: Pair style restartinfo set but has no restart support (src/pair.cpp:754)
WARNING: Pair style restartinfo set but has no restart support (src/pair.cpp:754)
        75     0.007500000000000001                       0      -361.2411602862239         15117.990187319                       0       -1695563.78383237       -1695563.78383237       1986    0.0002413080859844417    0.003056866287189359
        75     0.007500000000000001                       0      -361.2411602862239         15117.990187319                       0       -1695563.78383237       -1695563.78383237       1986    0.0002413080859844417    0.003056866287189359
WARNING: Pair style restartinfo set but has no restart support (src/pair.cpp:754)
WARNING: Pair style restartinfo set but has no restart support (src/pair.cpp:754)
        75     0.007500000000000001                       0      -361.2411602862239         15119.226995785                       0       -1695563.78383237       -1695563.78383237       1986    0.0002413080859844417    0.003056866287189359
        75     0.007500000000000001                       0      -361.2411602862239         15119.226995785                       0       -1695563.78383237       -1695563.78383237       1986    0.0002413080859844417    0.003056866287189359
WARNING: Pair style restartinfo set but has no restart support (src/pair.cpp:754)
WARNING: Pair style restartinfo set but has no restart support (src/pair.cpp:754)
        75     0.007500000000000001                       0      -361.2411602862239         15119.431951002                       0       -1695563.78383237       -1695563.78383237       1986    0.0002413080859844417    0.003056866287189359
        75     0.007500000000000001                       0      -361.2411602862239         15119.431951002                       0       -1695563.78383237       -1695563.78383237       1986    0.0002413080859844417    0.003056866287189359
WARNING: Pair style restartinfo set but has no restart support (src/pair.cpp:754)
WARNING: Pair style restartinfo set but has no restart support (src/pair.cpp:754)
        75     0.007500000000000001                       0      -361.2411602862239         15119.472106592                       0       -1695563.78383237       -1695563.78383237       1986    0.0002413080859844417    0.003056866287189359
        75     0.007500000000000001                       0      -361.2411602862239         15119.472106592                       0       -1695563.78383237       -1695563.78383237       1986    0.0002413080859844417    0.003056866287189359
WARNING: Pair style restartinfo set but has no restart support (src/pair.cpp:754)
WARNING: Pair style restartinfo set but has no restart support (src/pair.cpp:754)
        76                   0.0076                       0      -361.5353463795017          15320.12532977                       0      -1695563.783832659      -1695563.783832659       1986    0.0001724805912767906    0.002720176480033732
        76                   0.0076                       0      -361.5353463795017          15320.12532977                       0      -1695563.783832659      -1695563.783832659       1986    0.0001724805912767906    0.002720176480033732
WARNING: Pair style restartinfo set but has no restart support (src/pair.cpp:754)
WARNING: Pair style restartinfo set but has no restart support (src/pair.cpp:754)
        76                   0.0076                       0      -361.5353463795017          15321.13036671                       0      -1695563.783832659      -1695563.783832659       1986    0.0001724805912767906    0.002720176480033732
        76                   0.0076                       0      -361.5353463795017          15321.13036671                       0      -1695563.783832659      -1695563.783832659       1986    0.0001724805912767906    0.002720176480033732
WARNING: Pair style restartinfo set but has no restart support (src/pair.cpp:754)
WARNING: Pair style restartinfo set but has no restart support (src/pair.cpp:754)
        76                   0.0076                       0      -361.5353463795017         15321.265412234                       0      -1695563.783832659      -1695563.783832659       1986    0.0001724805912767906    0.002720176480033732
        76                   0.0076                       0      -361.5353463795017         15321.265412234                       0      -1695563.783832659      -1695563.783832659       1986    0.0001724805912767906    0.002720176480033732
WARNING: Pair style restartinfo set but has no restart support (src/pair.cpp:754)
WARNING: Pair style restartinfo set but has no restart support (src/pair.cpp:754)
        76                   0.0076                       0      -361.5353463795017         15321.230034231                       0      -1695563.783832659      -1695563.783832659       1986    0.0001724805912767906    0.002720176480033732
        76                   0.0076                       0      -361.5353463795017         15321.230034231                       0      -1695563.783832659      -1695563.783832659       1986    0.0001724805912767906    0.002720176480033732
WARNING: Pair style restartinfo set but has no restart support (src/pair.cpp:754)
WARNING: Pair style restartinfo set but has no restart support (src/pair.cpp:754)
        77                   0.0077                       0      -361.0750912942394         15522.549879857                       0      -1695563.783833137      -1695563.783833137       1986    0.0002669959396108257    0.003403285454616418
        77                   0.0077                       0      -361.0750912942394         15522.549879857                       0      -1695563.783833137      -1695563.783833137       1986    0.0002669959396108257    0.003403285454616418
WARNING: Pair style restartinfo set but has no restart support (src/pair.cpp:754)
WARNING: Pair style restartinfo set but has no restart support (src/pair.cpp:754)
        77                   0.0077                       0      -361.0750912942394         15523.490104487                       0      -1695563.783833137      -1695563.783833137       1986    0.0002669959396108257    0.003403285454616418
        77                   0.0077                       0      -361.0750912942394         15523.490104487                       0      -1695563.783833137      -1695563.783833137       1986    0.0002669959396108257    0.003403285454616418
WARNING: Pair style restartinfo set but has no restart support (src/pair.cpp:754)
WARNING: Pair style restartinfo set but has no restart support (src/pair.cpp:754)
        77                   0.0077                       0      -361.0750912942394         15523.313475413                       0      -1695563.783833137      -1695563.783833137       1986    0.0002669959396108257    0.003403285454616418
        77                   0.0077                       0      -361.0750912942394         15523.313475413                       0      -1695563.783833137      -1695563.783833137       1986    0.0002669959396108257    0.003403285454616418
WARNING: Pair style restartinfo set but has no restart support (src/pair.cpp:754)
WARNING: Pair style restartinfo set but has no restart support (src/pair.cpp:754)
        77                   0.0077                       0      -361.0750912942394         15523.438951744                       0      -1695563.783833137      -1695563.783833137       1986    0.0002669959396108257    0.003403285454616418
        77                   0.0077                       0      -361.0750912942394         15523.438951744                       0      -1695563.783833137      -1695563.783833137       1986    0.0002669959396108257    0.003403285454616418
WARNING: Pair style restartinfo set but has no restart support (src/pair.cpp:754)
WARNING: Pair style restartinfo set but has no restart support (src/pair.cpp:754)
        78     0.007800000000000001                       0       -360.889016060772         15725.303376569                       0      -1695563.783833464      -1695563.783833464       1986    0.0001594102665266675    0.002264953958895209
        78     0.007800000000000001                       0       -360.889016060772         15725.303376569                       0      -1695563.783833464      -1695563.783833464       1986    0.0001594102665266675    0.002264953958895209
WARNING: Pair style restartinfo set but has no restart support (src/pair.cpp:754)
WARNING: Pair style restartinfo set but has no restart support (src/pair.cpp:754)
        78     0.007800000000000001                       0       -360.889016060772         15726.122975947                       0      -1695563.783833464      -1695563.783833464       1986    0.0001594102665266675    0.002264953958895209
        78     0.007800000000000001                       0       -360.889016060772         15726.122975947                       0      -1695563.783833464      -1695563.783833464       1986    0.0001594102665266675    0.002264953958895209
WARNING: Pair style restartinfo set but has no restart support (src/pair.cpp:754)
WARNING: Pair style restartinfo set but has no restart support (src/pair.cpp:754)
        78     0.007800000000000001                       0       -360.889016060772         15726.101061212                       0      -1695563.783833464      -1695563.783833464       1986    0.0001594102665266675    0.002264953958895209
        78     0.007800000000000001                       0       -360.889016060772         15726.101061212                       0      -1695563.783833464      -1695563.783833464       1986    0.0001594102665266675    0.002264953958895209
WARNING: Pair style restartinfo set but has no restart support (src/pair.cpp:754)
WARNING: Pair style restartinfo set but has no restart support (src/pair.cpp:754)
        78     0.007800000000000001                       0       -360.889016060772         15726.075096148                       0      -1695563.783833464      -1695563.783833464       1986    0.0001594102665266675    0.002264953958895209
        78     0.007800000000000001                       0       -360.889016060772         15726.075096148                       0      -1695563.783833464      -1695563.783833464       1986    0.0001594102665266675    0.002264953958895209
WARNING: Pair style restartinfo set but has no restart support (src/pair.cpp:754)
WARNING: Pair style restartinfo set but has no restart support (src/pair.cpp:754)
        79     0.007900000000000001                       0      -361.3374113318479          15927.00358148                       0      -1695563.783833679      -1695563.783833679       1986    0.0001770429201408785    0.002310924596055571
        79     0.007900000000000001                       0      -361.3374113318479          15927.00358148                       0      -1695563.783833679      -1695563.783833679       1986    0.0001770429201408785    0.002310924596055571
WARNING: Pair style restartinfo set but has no restart support (src/pair.cpp:754)
WARNING: Pair style restartinfo set but has no restart support (src/pair.cpp:754)
        79     0.007900000000000001                       0      -361.3374113318479         15927.694776043                       0      -1695563.783833679      -1695563.783833679       1986    0.0001770429201408785    0.002310924596055571
        79     0.007900000000000001                       0      -361.3374113318479         15927.694776043                       0      -1695563.783833679      -1695563.783833679       1986    0.0001770429201408785    0.002310924596055571
WARNING: Pair style restartinfo set but has no restart support (src/pair.cpp:754)
WARNING: Pair style restartinfo set but has no restart support (src/pair.cpp:754)
        79     0.007900000000000001                       0      -361.3374113318479         15928.080296953                       0      -1695563.783833679      -1695563.783833679       1986    0.0001770429201408785    0.002310924596055571
        79     0.007900000000000001                       0      -361.3374113318479         15928.080296953                       0      -1695563.783833679      -1695563.783833679       1986    0.0001770429201408785    0.002310924596055571
WARNING: Pair style restartinfo set but has no restart support (src/pair.cpp:754)
WARNING: Pair style restartinfo set but has no restart support (src/pair.cpp:754)
        79     0.007900000000000001                       0      -361.3374113318479         15928.139195347                       0      -1695563.783833679      -1695563.783833679       1986    0.0001770429201408785    0.002310924596055571
        79     0.007900000000000001                       0      -361.3374113318479         15928.139195347                       0      -1695563.783833679      -1695563.783833679       1986    0.0001770429201408785    0.002310924596055571
WARNING: Pair style restartinfo set but has no restart support (src/pair.cpp:754)
WARNING: Pair style restartinfo set but has no restart support (src/pair.cpp:754)
        80                    0.008                       0      -361.6679696935864         16128.515832942                       0      -1695563.783833842      -1695563.783833842       1986     9.27912149303849e-05    0.001721398379868698
        80                    0.008                       0      -361.6679696935864         16128.515832942                       0      -1695563.783833842      -1695563.783833842       1986     9.27912149303849e-05    0.001721398379868698
WARNING: Pair style restartinfo set but has no restart support (src/pair.cpp:754)
WARNING: Pair style restartinfo set but has no restart support (src/pair.cpp:754)
        80                    0.008                       0      -361.6679696935864         16129.267668558                       0      -1695563.783833842      -1695563.783833842       1986     9.27912149303849e-05    0.001721398379868698
        80                    0.008                       0      -361.6679696935864         16129.267668558                       0      -1695563.783833842      -1695563.783833842       1986     9.27912149303849e-05    0.001721398379868698
WARNING: Pair style restartinfo set but has no restart support (src/pair.cpp:754)
WARNING: Pair style restartinfo set but has no restart support (src/pair.cpp:754)
        80                    0.008                       0      -361.6679696935864         16130.033845728                       0      -1695563.783833842      -1695563.783833842       1986     9.27912149303849e-05    0.001721398379868698
        80                    0.008                       0      -361.6679696935864         16130.033845728                       0      -1695563.783833842      -1695563.783833842       1986     9.27912149303849e-05    0.001721398379868698
WARNING: Pair style restartinfo set but has no restart support (src/pair.cpp:754)
WARNING: Pair style restartinfo set but has no restart support (src/pair.cpp:754)
        80                    0.008                       0      -361.6679696935864         16130.161330473                       0      -1695563.783833842      -1695563.783833842       1986     9.27912149303849e-05    0.001721398379868698
        80                    0.008                       0      -361.6679696935864         16130.161330473                       0      -1695563.783833842      -1695563.783833842       1986     9.27912149303849e-05    0.001721398379868698
WARNING: Pair style restartinfo set but has no restart support (src/pair.cpp:754)
WARNING: Pair style restartinfo set but has no restart support (src/pair.cpp:754)
        81                   0.0081                       0      -361.4415519742614         16330.614013711                       0      -1695563.783833969      -1695563.783833969       1986    0.0001250886764021519     0.00170229756744231
        81                   0.0081                       0      -361.4415519742614         16330.614013711                       0      -1695563.783833969      -1695563.783833969       1986    0.0001250886764021519     0.00170229756744231
WARNING: Pair style restartinfo set but has no restart support (src/pair.cpp:754)
WARNING: Pair style restartinfo set but has no restart support (src/pair.cpp:754)
        81                   0.0081                       0      -361.4415519742614         16331.090858639                       0      -1695563.783833969      -1695563.783833969       1986    0.0001250886764021519     0.00170229756744231
        81                   0.0081                       0      -361.4415519742614         16331.090858639                       0      -1695563.783833969      -1695563.783833969       1986    0.0001250886764021519     0.00170229756744231
WARNING: Pair style restartinfo set but has no restart support (src/pair.cpp:754)
WARNING: Pair style restartinfo set but has no restart support (src/pair.cpp:754)
        81                   0.0081                       0      -361.4415519742614         16332.287966174                       0      -1695563.783833969      -1695563.783833969       1986    0.0001250886764021519     0.00170229756744231
        81                   0.0081                       0      -361.4415519742614         16332.287966174                       0      -1695563.783833969      -1695563.783833969       1986    0.0001250886764021519     0.00170229756744231
WARNING: Pair style restartinfo set but has no restart support (src/pair.cpp:754)
WARNING: Pair style restartinfo set but has no restart support (src/pair.cpp:754)
        81                   0.0081                       0      -361.4415519742614         16332.064648223                       0      -1695563.783833969      -1695563.783833969       1986    0.0001250886764021519     0.00170229756744231
        81                   0.0081                       0      -361.4415519742614         16332.064648223                       0      -1695563.783833969      -1695563.783833969       1986    0.0001250886764021519     0.00170229756744231
WARNING: Pair style restartinfo set but has no restart support (src/pair.cpp:754)
WARNING: Pair style restartinfo set but has no restart support (src/pair.cpp:754)
        82     0.008200000000000001                       0      -361.2219311337682         16531.541346975                       0      -1695563.783834063      -1695563.783834063       1986    0.0001081954674457728    0.001374776037105406
        82     0.008200000000000001                       0      -361.2219311337682         16531.541346975                       0      -1695563.783834063      -1695563.783834063       1986    0.0001081954674457728    0.001374776037105406
WARNING: Pair style restartinfo set but has no restart support (src/pair.cpp:754)
WARNING: Pair style restartinfo set but has no restart support (src/pair.cpp:754)
        82     0.008200000000000001                       0      -361.2219311337682         16531.369807047                       0      -1695563.783834063      -1695563.783834063       1986    0.0001081954674457728    0.001374776037105406
        82     0.008200000000000001                       0      -361.2219311337682         16531.369807047                       0      -1695563.783834063      -1695563.783834063       1986    0.0001081954674457728    0.001374776037105406
WARNING: Pair style restartinfo set but has no restart support (src/pair.cpp:754)
WARNING: Pair style restartinfo set but has no restart support (src/pair.cpp:754)
        82     0.008200000000000001                       0      -361.2219311337682         16533.891250324                       0      -1695563.783834063      -1695563.783834063       1986    0.0001081954674457728    0.001374776037105406
        82     0.008200000000000001                       0      -361.2219311337682         16533.891250324                       0      -1695563.783834063      -1695563.783834063       1986    0.0001081954674457728    0.001374776037105406
WARNING: Pair style restartinfo set but has no restart support (src/pair.cpp:754)
WARNING: Pair style restartinfo set but has no restart support (src/pair.cpp:754)
        82     0.008200000000000001                       0      -361.2219311337682         16533.067464599                       0      -1695563.783834063      -1695563.783834063       1986    0.0001081954674457728    0.001374776037105406
        82     0.008200000000000001                       0      -361.2219311337682         16533.067464599                       0      -1695563.783834063      -1695563.783834063       1986    0.0001081954674457728    0.001374776037105406
WARNING: Pair style restartinfo set but has no restart support (src/pair.cpp:754)
WARNING: Pair style restartinfo set but has no restart support (src/pair.cpp:754)
        83                   0.0083                       0      -361.4107947043859         16732.959001327                       0      -1695563.783834146      -1695563.783834146       1986    0.0001175532089860432    0.001503785561395009
        83                   0.0083                       0      -361.4107947043859         16732.959001327                       0      -1695563.783834146      -1695563.783834146       1986    0.0001175532089860432    0.001503785561395009
WARNING: Pair style restartinfo set but has no restart support (src/pair.cpp:754)
WARNING: Pair style restartinfo set but has no restart support (src/pair.cpp:754)
        83                   0.0083                       0      -361.4107947043859          16733.48996483                       0      -1695563.783834146      -1695563.783834146       1986    0.0001175532089860432    0.001503785561395009
        83                   0.0083                       0      -361.4107947043859          16733.48996483                       0      -1695563.783834146      -1695563.783834146       1986    0.0001175532089860432    0.001503785561395009
WARNING: Pair style restartinfo set but has no restart support (src/pair.cpp:754)
WARNING: Pair style restartinfo set but has no restart support (src/pair.cpp:754)
        83                   0.0083                       0      -361.4107947043859         16733.703122535                       0      -1695563.783834146      -1695563.783834146       1986    0.0001175532089860432    0.001503785561395009
        83                   0.0083                       0      -361.4107947043859         16733.703122535                       0      -1695563.783834146      -1695563.783834146       1986    0.0001175532089860432    0.001503785561395009
WARNING: Pair style restartinfo set but has no restart support (src/pair.cpp:754)
WARNING: Pair style restartinfo set but has no restart support (src/pair.cpp:754)
        83                   0.0083                       0      -361.4107947043859         16734.768414279                       0      -1695563.783834146      -1695563.783834146       1986    0.0001175532089860432    0.001503785561395009
        83                   0.0083                       0      -361.4107947043859         16734.768414279                       0      -1695563.783834146      -1695563.783834146       1986    0.0001175532089860432    0.001503785561395009
WARNING: Pair style restartinfo set but has no restart support (src/pair.cpp:754)
WARNING: Pair style restartinfo set but has no restart support (src/pair.cpp:754)
        84     0.008400000000000001                       0      -361.6648000336734         16934.660481807                       0      -1695563.783834216      -1695563.783834216       1986    5.867464029706525e-05    0.001043672017860491
        84     0.008400000000000001                       0      -361.6648000336734         16934.660481807                       0      -1695563.783834216      -1695563.783834216       1986    5.867464029706525e-05    0.001043672017860491
WARNING: Pair style restartinfo set but has no restart support (src/pair.cpp:754)
WARNING: Pair style restartinfo set but has no restart support (src/pair.cpp:754)
        84     0.008400000000000001                       0      -361.6648000336734         16935.644894746                       0      -1695563.783834216      -1695563.783834216       1986    5.867464029706525e-05    0.001043672017860491
        84     0.008400000000000001                       0      -361.6648000336734         16935.644894746                       0      -1695563.783834216      -1695563.783834216       1986    5.867464029706525e-05    0.001043672017860491
WARNING: Pair style restartinfo set but has no restart support (src/pair.cpp:754)
WARNING: Pair style restartinfo set but has no restart support (src/pair.cpp:754)
        84     0.008400000000000001                       0      -361.6648000336734         16934.847833408                       0      -1695563.783834216      -1695563.783834216       1986    5.867464029706525e-05    0.001043672017860491
        84     0.008400000000000001                       0      -361.6648000336734         16934.847833408                       0      -1695563.783834216      -1695563.783834216       1986    5.867464029706525e-05    0.001043672017860491
WARNING: Pair style restartinfo set but has no restart support (src/pair.cpp:754)
WARNING: Pair style restartinfo set but has no restart support (src/pair.cpp:754)
        84     0.008400000000000001                       0      -361.6648000336734         16936.460677214                       0      -1695563.783834216      -1695563.783834216       1986    5.867464029706525e-05    0.001043672017860491
        84     0.008400000000000001                       0      -361.6648000336734         16936.460677214                       0      -1695563.783834216      -1695563.783834216       1986    5.867464029706525e-05    0.001043672017860491
WARNING: Pair style restartinfo set but has no restart support (src/pair.cpp:754)
WARNING: Pair style restartinfo set but has no restart support (src/pair.cpp:754)
        85     0.008500000000000001                       0      -361.6440210702893         17137.087816879                       0      -1695563.783834267      -1695563.783834267       1986    9.291721686421059e-05    0.001201562606729314
        85     0.008500000000000001                       0      -361.6440210702893         17137.087816879                       0      -1695563.783834267      -1695563.783834267       1986    9.291721686421059e-05    0.001201562606729314
WARNING: Pair style restartinfo set but has no restart support (src/pair.cpp:754)
WARNING: Pair style restartinfo set but has no restart support (src/pair.cpp:754)
        85     0.008500000000000001                       0      -361.6440210702893         17138.099849344                       0      -1695563.783834267      -1695563.783834267       1986    9.291721686421059e-05    0.001201562606729314
        85     0.008500000000000001                       0      -361.6440210702893         17138.099849344                       0      -1695563.783834267      -1695563.783834267       1986    9.291721686421059e-05    0.001201562606729314
WARNING: Pair style restartinfo set but has no restart support (src/pair.cpp:754)
WARNING: Pair style restartinfo set but has no restart support (src/pair.cpp:754)
        85     0.008500000000000001                       0      -361.6440210702893         17137.099141396                       0      -1695563.783834267      -1695563.783834267       1986    9.291721686421059e-05    0.001201562606729314
        85     0.008500000000000001                       0      -361.6440210702893         17137.099141396                       0      -1695563.783834267      -1695563.783834267       1986    9.291721686421059e-05    0.001201562606729314
WARNING: Pair style restartinfo set but has no restart support (src/pair.cpp:754)
WARNING: Pair style restartinfo set but has no restart support (src/pair.cpp:754)
        85     0.008500000000000001                       0      -361.6440210702893         17138.467645167                       0      -1695563.783834267      -1695563.783834267       1986    9.291721686421059e-05    0.001201562606729314
        85     0.008500000000000001                       0      -361.6440210702893         17138.467645167                       0      -1695563.783834267      -1695563.783834267       1986    9.291721686421059e-05    0.001201562606729314
WARNING: Pair style restartinfo set but has no restart support (src/pair.cpp:754)
WARNING: Pair style restartinfo set but has no restart support (src/pair.cpp:754)
        86                   0.0086                       0      -361.5112976772492         17339.302957675                       0       -1695563.78383433       -1695563.78383433       1986    6.212941866278756e-05     0.00102894080921429
        86                   0.0086                       0      -361.5112976772492         17339.302957675                       0       -1695563.78383433       -1695563.78383433       1986    6.212941866278756e-05     0.00102894080921429
WARNING: Pair style restartinfo set but has no restart support (src/pair.cpp:754)
WARNING: Pair style restartinfo set but has no restart support (src/pair.cpp:754)
        86                   0.0086                       0      -361.5112976772492         17340.299671935                       0       -1695563.78383433       -1695563.78383433       1986    6.212941866278756e-05     0.00102894080921429
        86                   0.0086                       0      -361.5112976772492         17340.299671935                       0       -1695563.78383433       -1695563.78383433       1986    6.212941866278756e-05     0.00102894080921429
WARNING: Pair style restartinfo set but has no restart support (src/pair.cpp:754)
WARNING: Pair style restartinfo set but has no restart support (src/pair.cpp:754)
        86                   0.0086                       0      -361.5112976772492          17339.02628496                       0       -1695563.78383433       -1695563.78383433       1986    6.212941866278756e-05     0.00102894080921429
        86                   0.0086                       0      -361.5112976772492          17339.02628496                       0       -1695563.78383433       -1695563.78383433       1986    6.212941866278756e-05     0.00102894080921429
WARNING: Pair style restartinfo set but has no restart support (src/pair.cpp:754)
WARNING: Pair style restartinfo set but has no restart support (src/pair.cpp:754)
        86                   0.0086                       0      -361.5112976772492         17340.711064473                       0       -1695563.78383433       -1695563.78383433       1986    6.212941866278756e-05     0.00102894080921429
        86                   0.0086                       0      -361.5112976772492         17340.711064473                       0       -1695563.78383433       -1695563.78383433       1986    6.212941866278756e-05     0.00102894080921429
WARNING: Pair style restartinfo set but has no restart support (src/pair.cpp:754)
WARNING: Pair style restartinfo set but has no restart support (src/pair.cpp:754)
        87     0.008700000000000001                       0      -361.5855229193874         17642.826096273                       0      -1695563.783834363      -1695563.783834363       1986     5.79335267122949e-05   0.0009439250145927512
        87     0.008700000000000001                       0      -361.5855229193874         17642.826096273                       0      -1695563.783834363      -1695563.783834363       1986     5.79335267122949e-05   0.0009439250145927512
Loop time of 17642.8 on 12 procs for 87 steps with 1986 atoms

Loop time of 17642.8 on 12 procs for 87 steps with 1986 atoms

659.1% CPU use with 1 MPI tasks x 12 OpenMP threads
659.1% CPU use with 1 MPI tasks x 12 OpenMP threads

Minimization stats:
  Stopping criterion = force tolerance
  Energy initial, next-to-last, final = 
     -1695537.83966424  -1695563.78383433  -1695563.78383436
  Force two-norm initial, final = 36.094385 0.00094392501
  Force max component initial, final = 1.3855787 5.7933527e-05
  Final line search alpha, max atom move = 1 5.7933527e-05
  Iterations, force evaluations = 87 174

Minimization stats:
  Stopping criterion = force tolerance
  Energy initial, next-to-last, final = 
     -1695537.83966424  -1695563.78383433  -1695563.78383436
  Force two-norm initial, final = 36.094385 0.00094392501
  Force max component initial, final = 1.3855787 5.7933527e-05
  Final line search alpha, max atom move = 1 5.7933527e-05
  Iterations, force evaluations = 87 174

MPI task timing breakdown:
Section |  min time  |  avg time  |  max time  |%varavg| %total
---------------------------------------------------------------

MPI task timing breakdown:
Section |  min time  |  avg time  |  max time  |%varavg| %total
---------------------------------------------------------------
Pair    | 17628      | 17628      | 17628      |   0.0 | 99.92
Pair    | 17628      | 17628      | 17628      |   0.0 | 99.92
Neigh   | 13.92      | 13.92      | 13.92      |   0.0 |  0.08
Neigh   | 13.92      | 13.92      | 13.92      |   0.0 |  0.08
Comm    | 0.038318   | 0.038318   | 0.038318   |   0.0 |  0.00
Comm    | 0.038318   | 0.038318   | 0.038318   |   0.0 |  0.00
Output  | 0.37887    | 0.37887    | 0.37887    |   0.0 |  0.00
Output  | 0.37887    | 0.37887    | 0.37887    |   0.0 |  0.00
Modify  | 0          | 0          | 0          |   0.0 |  0.00
Modify  | 0          | 0          | 0          |   0.0 |  0.00
Other   |            | 0.03378    |            |       |  0.00
Other   |            | 0.03378    |            |       |  0.00

Nlocal:           1986 ave        1986 max        1986 min
Histogram: 1 0 0 0 0 0 0 0 0 0
Nghost:           9720 ave        9720 max        9720 min
Histogram: 1 0 0 0 0 0 0 0 0 0
Neighs:              0 ave           0 max           0 min
Histogram: 1 0 0 0 0 0 0 0 0 0
FullNghs:  1.28608e+06 ave 1.28608e+06 max 1.28608e+06 min
Histogram: 1 0 0 0 0 0 0 0 0 0

Nlocal:           1986 ave        1986 max        1986 min
Histogram: 1 0 0 0 0 0 0 0 0 0
Nghost:           9720 ave        9720 max        9720 min
Histogram: 1 0 0 0 0 0 0 0 0 0
Neighs:              0 ave           0 max           0 min
Histogram: 1 0 0 0 0 0 0 0 0 0
FullNghs:  1.28608e+06 ave 1.28608e+06 max 1.28608e+06 min
Histogram: 1 0 0 0 0 0 0 0 0 0


Total # of neighbors = 1286084
Ave neighs/atom = 647.57503
Neighbor list builds = 175
Dangerous builds = 0
Total # of neighbors = 1286084
Ave neighs/atom = 647.57503
Neighbor list builds = 175
Dangerous builds = 0
write_dump all xyz /home/theory/phrrpq/bilayer_relaxations/MoS2_MoS2/AP/10/MoS2_MoS2_AP_10.xyz modify sort id pbc yes element Mo S

Total wall time: 4:57:08
Total wall time: 4:57:08
WARNING: Pair style restartinfo set but has no restart support (src/pair.cpp:754)
WARNING: Pair style restartinfo set but has no restart support (src/pair.cpp:754)
        87     0.008700000000000001                       0      -361.5855229193874         17641.480777329                       0      -1695563.783834363      -1695563.783834363       1986     5.79335267122949e-05   0.0009439250145927512
        87     0.008700000000000001                       0      -361.5855229193874         17641.480777329                       0      -1695563.783834363      -1695563.783834363       1986     5.79335267122949e-05   0.0009439250145927512
Loop time of 17641.5 on 12 procs for 87 steps with 1986 atoms

Loop time of 17641.5 on 12 procs for 87 steps with 1986 atoms

658.4% CPU use with 1 MPI tasks x 12 OpenMP threads
658.4% CPU use with 1 MPI tasks x 12 OpenMP threads

Minimization stats:
  Stopping criterion = force tolerance
  Energy initial, next-to-last, final = 
     -1695537.83966424  -1695563.78383433  -1695563.78383436
  Force two-norm initial, final = 36.094385 0.00094392501
  Force max component initial, final = 1.3855787 5.7933527e-05
  Final line search alpha, max atom move = 1 5.7933527e-05
  Iterations, force evaluations = 87 174

Minimization stats:
  Stopping criterion = force tolerance
  Energy initial, next-to-last, final = 
     -1695537.83966424  -1695563.78383433  -1695563.78383436
  Force two-norm initial, final = 36.094385 0.00094392501
  Force max component initial, final = 1.3855787 5.7933527e-05
  Final line search alpha, max atom move = 1 5.7933527e-05
  Iterations, force evaluations = 87 174

MPI task timing breakdown:
Section |  min time  |  avg time  |  max time  |%varavg| %total
---------------------------------------------------------------

MPI task timing breakdown:
Section |  min time  |  avg time  |  max time  |%varavg| %total
---------------------------------------------------------------
Pair    | 17627      | 17627      | 17627      |   0.0 | 99.92
Pair    | 17627      | 17627      | 17627      |   0.0 | 99.92
Neigh   | 13.929     | 13.929     | 13.929     |   0.0 |  0.08
Neigh   | 13.929     | 13.929     | 13.929     |   0.0 |  0.08
Comm    | 0.039076   | 0.039076   | 0.039076   |   0.0 |  0.00
Comm    | 0.039076   | 0.039076   | 0.039076   |   0.0 |  0.00
Output  | 0.21871    | 0.21871    | 0.21871    |   0.0 |  0.00
Output  | 0.21871    | 0.21871    | 0.21871    |   0.0 |  0.00
Modify  | 0          | 0          | 0          |   0.0 |  0.00
Modify  | 0          | 0          | 0          |   0.0 |  0.00
Other   |            | 0.1013     |            |       |  0.00
Other   |            | 0.1013     |            |       |  0.00

Nlocal:           1986 ave        1986 max        1986 min
Histogram: 1 0 0 0 0 0 0 0 0 0
Nghost:           9720 ave        9720 max        9720 min
Histogram: 1 0 0 0 0 0 0 0 0 0
Neighs:              0 ave           0 max           0 min
Histogram: 1 0 0 0 0 0 0 0 0 0
FullNghs:  1.28608e+06 ave 1.28608e+06 max 1.28608e+06 min
Histogram: 1 0 0 0 0 0 0 0 0 0

Nlocal:           1986 ave        1986 max        1986 min
Histogram: 1 0 0 0 0 0 0 0 0 0
Nghost:           9720 ave        9720 max        9720 min
Histogram: 1 0 0 0 0 0 0 0 0 0
Neighs:              0 ave           0 max           0 min
Histogram: 1 0 0 0 0 0 0 0 0 0
FullNghs:  1.28608e+06 ave 1.28608e+06 max 1.28608e+06 min
Histogram: 1 0 0 0 0 0 0 0 0 0


Total # of neighbors = 1286084
Ave neighs/atom = 647.57503
Neighbor list builds = 175
Dangerous builds = 0
Total # of neighbors = 1286084
Ave neighs/atom = 647.57503
Neighbor list builds = 175
Dangerous builds = 0
write_dump all xyz /home/theory/phrrpq/bilayer_relaxations/MoS2_MoS2/AP/10/MoS2_MoS2_AP_10.xyz modify sort id pbc yes element Mo S

Total wall time: 4:57:08
Total wall time: 4:57:08
WARNING: Pair style restartinfo set but has no restart support (src/pair.cpp:754)
WARNING: Pair style restartinfo set but has no restart support (src/pair.cpp:754)
        87     0.008700000000000001                       0      -361.5855229193874         17643.934891335                       0      -1695563.783834363      -1695563.783834363       1986     5.79335267122949e-05   0.0009439250145927512
        87     0.008700000000000001                       0      -361.5855229193874         17643.934891335                       0      -1695563.783834363      -1695563.783834363       1986     5.79335267122949e-05   0.0009439250145927512
Loop time of 17643.9 on 12 procs for 87 steps with 1986 atoms

Loop time of 17643.9 on 12 procs for 87 steps with 1986 atoms

656.2% CPU use with 1 MPI tasks x 12 OpenMP threads
656.2% CPU use with 1 MPI tasks x 12 OpenMP threads

Minimization stats:
  Stopping criterion = force tolerance
  Energy initial, next-to-last, final = 
     -1695537.83966424  -1695563.78383433  -1695563.78383436
  Force two-norm initial, final = 36.094385 0.00094392501
  Force max component initial, final = 1.3855787 5.7933527e-05
  Final line search alpha, max atom move = 1 5.7933527e-05
  Iterations, force evaluations = 87 174

Minimization stats:
  Stopping criterion = force tolerance
  Energy initial, next-to-last, final = 
     -1695537.83966424  -1695563.78383433  -1695563.78383436
  Force two-norm initial, final = 36.094385 0.00094392501
  Force max component initial, final = 1.3855787 5.7933527e-05
  Final line search alpha, max atom move = 1 5.7933527e-05
  Iterations, force evaluations = 87 174

MPI task timing breakdown:
Section |  min time  |  avg time  |  max time  |%varavg| %total
---------------------------------------------------------------

MPI task timing breakdown:
Section |  min time  |  avg time  |  max time  |%varavg| %total
---------------------------------------------------------------
Pair    | 17629      | 17629      | 17629      |   0.0 | 99.92
Pair    | 17629      | 17629      | 17629      |   0.0 | 99.92
Neigh   | 13.961     | 13.961     | 13.961     |   0.0 |  0.08
Neigh   | 13.961     | 13.961     | 13.961     |   0.0 |  0.08
Comm    | 0.038465   | 0.038465   | 0.038465   |   0.0 |  0.00
Comm    | 0.038465   | 0.038465   | 0.038465   |   0.0 |  0.00
Output  | 0.88788    | 0.88788    | 0.88788    |   0.0 |  0.01
Output  | 0.88788    | 0.88788    | 0.88788    |   0.0 |  0.01
Modify  | 0          | 0          | 0          |   0.0 |  0.00
Modify  | 0          | 0          | 0          |   0.0 |  0.00
Other   |            | 0.05915    |            |       |  0.00
Other   |            | 0.05915    |            |       |  0.00

Nlocal:           1986 ave        1986 max        1986 min
Histogram: 1 0 0 0 0 0 0 0 0 0
Nghost:           9720 ave        9720 max        9720 min
Histogram: 1 0 0 0 0 0 0 0 0 0
Neighs:              0 ave           0 max           0 min
Histogram: 1 0 0 0 0 0 0 0 0 0
FullNghs:  1.28608e+06 ave 1.28608e+06 max 1.28608e+06 min
Histogram: 1 0 0 0 0 0 0 0 0 0

Nlocal:           1986 ave        1986 max        1986 min
Histogram: 1 0 0 0 0 0 0 0 0 0
Nghost:           9720 ave        9720 max        9720 min
Histogram: 1 0 0 0 0 0 0 0 0 0
Neighs:              0 ave           0 max           0 min
Histogram: 1 0 0 0 0 0 0 0 0 0
FullNghs:  1.28608e+06 ave 1.28608e+06 max 1.28608e+06 min
Histogram: 1 0 0 0 0 0 0 0 0 0


Total # of neighbors = 1286084
Ave neighs/atom = 647.57503
Neighbor list builds = 175
Dangerous builds = 0
Total # of neighbors = 1286084
Ave neighs/atom = 647.57503
Neighbor list builds = 175
Dangerous builds = 0
write_dump all xyz /home/theory/phrrpq/bilayer_relaxations/MoS2_MoS2/AP/10/MoS2_MoS2_AP_10.xyz modify sort id pbc yes element Mo S

WARNING: Pair style restartinfo set but has no restart support (src/pair.cpp:754)
WARNING: Pair style restartinfo set but has no restart support (src/pair.cpp:754)
        87     0.008700000000000001                       0      -361.5855229193874         17643.507475252                       0      -1695563.783834363      -1695563.783834363       1986     5.79335267122949e-05   0.0009439250145927512
        87     0.008700000000000001                       0      -361.5855229193874         17643.507475252                       0      -1695563.783834363      -1695563.783834363       1986     5.79335267122949e-05   0.0009439250145927512
Loop time of 17643.5 on 12 procs for 87 steps with 1986 atoms

Loop time of 17643.5 on 12 procs for 87 steps with 1986 atoms

656.3% CPU use with 1 MPI tasks x 12 OpenMP threads
656.3% CPU use with 1 MPI tasks x 12 OpenMP threads

Minimization stats:
  Stopping criterion = force tolerance
  Energy initial, next-to-last, final = 
     -1695537.83966424  -1695563.78383433  -1695563.78383436
  Force two-norm initial, final = 36.094385 0.00094392501
  Force max component initial, final = 1.3855787 5.7933527e-05
  Final line search alpha, max atom move = 1 5.7933527e-05
  Iterations, force evaluations = 87 174

Minimization stats:
  Stopping criterion = force tolerance
  Energy initial, next-to-last, final = 
     -1695537.83966424  -1695563.78383433  -1695563.78383436
  Force two-norm initial, final = 36.094385 0.00094392501
  Force max component initial, final = 1.3855787 5.7933527e-05
  Final line search alpha, max atom move = 1 5.7933527e-05
  Iterations, force evaluations = 87 174

MPI task timing breakdown:
Section |  min time  |  avg time  |  max time  |%varavg| %total
---------------------------------------------------------------

MPI task timing breakdown:
Section |  min time  |  avg time  |  max time  |%varavg| %total
---------------------------------------------------------------
Pair    | 17629      | 17629      | 17629      |   0.0 | 99.92
Pair    | 17629      | 17629      | 17629      |   0.0 | 99.92
Neigh   | 13.945     | 13.945     | 13.945     |   0.0 |  0.08
Neigh   | 13.945     | 13.945     | 13.945     |   0.0 |  0.08
Comm    | 0.037724   | 0.037724   | 0.037724   |   0.0 |  0.00
Comm    | 0.037724   | 0.037724   | 0.037724   |   0.0 |  0.00
Output  | 0.606      | 0.606      | 0.606      |   0.0 |  0.00
Output  | 0.606      | 0.606      | 0.606      |   0.0 |  0.00
Modify  | 0          | 0          | 0          |   0.0 |  0.00
Modify  | 0          | 0          | 0          |   0.0 |  0.00
Other   |            | 0.0368     |            |       |  0.00
Other   |            | 0.0368     |            |       |  0.00

Nlocal:           1986 ave        1986 max        1986 min
Histogram: 1 0 0 0 0 0 0 0 0 0
Nghost:           9720 ave        9720 max        9720 min
Histogram: 1 0 0 0 0 0 0 0 0 0
Neighs:              0 ave           0 max           0 min
Histogram: 1 0 0 0 0 0 0 0 0 0
FullNghs:  1.28608e+06 ave 1.28608e+06 max 1.28608e+06 min
Histogram: 1 0 0 0 0 0 0 0 0 0

Nlocal:           1986 ave        1986 max        1986 min
Histogram: 1 0 0 0 0 0 0 0 0 0
Nghost:           9720 ave        9720 max        9720 min
Histogram: 1 0 0 0 0 0 0 0 0 0
Neighs:              0 ave           0 max           0 min
Histogram: 1 0 0 0 0 0 0 0 0 0
FullNghs:  1.28608e+06 ave 1.28608e+06 max 1.28608e+06 min
Histogram: 1 0 0 0 0 0 0 0 0 0


Total # of neighbors = 1286084
Ave neighs/atom = 647.57503
Neighbor list builds = 175
Dangerous builds = 0
Total # of neighbors = 1286084
Ave neighs/atom = 647.57503
Neighbor list builds = 175
Dangerous builds = 0
write_dump all xyz /home/theory/phrrpq/bilayer_relaxations/MoS2_MoS2/AP/10/MoS2_MoS2_AP_10.xyz modify sort id pbc yes element Mo S

Total wall time: 4:57:09
Total wall time: 4:57:09
Total wall time: 4:57:09
Total wall time: 4:57:09
