OMP_THREADS: 12
MPI: 1
NTASKS-PER-NODE: 4
CPUS_PER_TASK: 12
LAMMPS (28 Mar 2023 - Development)
  using 12 OpenMP thread(s) per MPI task
  using 12 OpenMP thread(s) per MPI task
Reading data file ...
  triclinic box = (0 0 0) to (8.4362528 7.3060092 30) with tilt (4.2181264 0 0)
WARNING: Triclinic box skew is large. LAMMPS will run inefficiently. (src/domain.cpp:220)
  1 by 1 by 4 MPI processor grid
  reading atoms ...
  42 atoms
  read_data CPU = 0.033 seconds
CUDA unavailable, setting device type to torch::kCPU.
CUDA unavailable, setting device type to torch::kCPU.
CUDA unavailable, setting device type to torch::kCPU.
CUDA unavailable, setting device type to torch::kCPU.
Loading MACE model from "/home/theory/phrrpq/bilayer_relaxations/MoWSSe_bi_radius_8_reduced_all_1_swa_800_run-123_swa.model-lammps.pt" ... finished.
Loading MACE model from "/home/theory/phrrpq/bilayer_relaxations/MoWSSe_bi_radius_8_reduced_all_1_swa_800_run-123_swa.model-lammps.pt" ... finished.
  - The torch_float_dtype is: Double
  - The r_max is: 8.
  - The model has: 2 layers.
  - The model atomic numbers are: 16 34 42 74.
  - The pair_coeff atomic numbers are: 42 16 74 16.
  - The torch_float_dtype is: Double
  - The r_max is: 8.
  - The model has: 2 layers.
  - The model atomic numbers are: 16 34 42 74.
  - The pair_coeff atomic numbers are: 42 16 74 16.
Generated 0 of 3 mixed pair_coeff terms from geometric mixing rule
Loading MACE model from "/home/theory/phrrpq/bilayer_relaxations/MoWSSe_bi_radius_8_reduced_all_1_swa_800_run-123_swa.model-lammps.pt" ... finished.
  - The torch_float_dtype is: Double
  - The r_max is: 8.
  - The model has: 2 layers.
  - The model atomic numbers are: 16 34 42 74.
  - The pair_coeff atomic numbers are: 42 16 74 16.
Loading MACE model from "/home/theory/phrrpq/bilayer_relaxations/MoWSSe_bi_radius_8_reduced_all_1_swa_800_run-123_swa.model-lammps.pt" ... finished.
  - The torch_float_dtype is: Double
  - The r_max is: 8.
  - The model has: 2 layers.
  - The model atomic numbers are: 16 34 42 74.
  - The pair_coeff atomic numbers are: 42 16 74 16.
Neighbor list info ...
  update: every = 1 steps, delay = 0 steps, check = yes
  max neighbors/atom: 2000, page size: 100000
  master list distance cutoff = 18
  ghost atom cutoff = 18
  binsize = 9, bins = 2 1 4
  1 neighbor lists, perpetual/occasional/extra = 1 0 0
  (1) pair mace, perpetual
      attributes: full, newton on, ghost
      pair build: full/bin/ghost
      stencil: full/ghost/bin/3d
      bin: standard
Setting up Verlet run ...
  Unit style    : metal
  Current step  : 0
  Time step     : 0.0001
Per MPI rank memory allocation (min/avg/max) = 15.33 | 16.4 | 18.01 Mbytes
   Step          Time           Temp          Press           CPU           KinEng         PotEng         TotEng        Atoms         Fmax          Fnorm     
         0                        0                       0        16475.8694088283                       0                       0      -37742.04405322993      -37742.04405322993         42        5.074971216484828       24.09350934906822
Loop time of 2.62175e-06 on 48 procs for 0 steps with 42 atoms

95.4% CPU use with 4 MPI tasks x 12 OpenMP threads

MPI task timing breakdown:
Section |  min time  |  avg time  |  max time  |%varavg| %total
---------------------------------------------------------------
Pair    | 0          | 0          | 0          |   0.0 |  0.00
Neigh   | 0          | 0          | 0          |   0.0 |  0.00
Comm    | 0          | 0          | 0          |   0.0 |  0.00
Output  | 0          | 0          | 0          |   0.0 |  0.00
Modify  | 0          | 0          | 0          |   0.0 |  0.00
Other   |            | 2.622e-06  |            |       |100.00

Nlocal:           10.5 ave          28 max           0 min
Histogram: 1 0 2 0 0 0 0 0 0 1
Nghost:         2239.5 ave        3000 max        1472 min
Histogram: 1 0 0 0 0 2 0 0 0 1
Neighs:              0 ave           0 max           0 min
Histogram: 4 0 0 0 0 0 0 0 0 0
FullNghs:         6736 ave       18298 max           0 min
Histogram: 1 0 2 0 0 0 0 0 0 1

Total # of neighbors = 26944
Ave neighs/atom = 641.52381
Neighbor list builds = 0
Dangerous builds = 0
BEGIN LAMMPS STANDALONE MINIMIZATION; ii = 1; OMP = 12; MPI = 4
minimize 0.0 1e-3 1000 100000
Generated 0 of 3 mixed pair_coeff terms from geometric mixing rule
Generated 0 of 3 mixed pair_coeff terms from geometric mixing rule
Setting up cg style minimization ...
  Unit style    : metal
  Current step  : 0
Per MPI rank memory allocation (min/avg/max) = 16.45 | 17.53 | 19.14 Mbytes
Per MPI rank memory allocation (min/avg/max) = 16.45 | 17.53 | 19.14 Mbytes
   Step          Time           Temp          Press           CPU           KinEng         PotEng         TotEng        Atoms         Fmax          Fnorm     
   Step          Time           Temp          Press           CPU           KinEng         PotEng         TotEng        Atoms         Fmax          Fnorm     
         0                        0                       0        16475.8694088283                       0                       0      -37742.04405322993      -37742.04405322993         42        5.074971216484828       24.09350934906823
         0                        0                       0        16475.8694088283                       0                       0      -37742.04405322993      -37742.04405322993         42        5.074971216484828       24.09350934906823
WARNING: Pair style restartinfo set but has no restart support (src/pair.cpp:754)
WARNING: Pair style restartinfo set but has no restart support (src/pair.cpp:754)
         1                   0.0001                       0      -1799.843849470022       37.07975520699999                       0      -37751.53289127413      -37751.53289127413         42        4.046480179659347        16.6712139867921
         1                   0.0001                       0      -1799.843849470022       37.07975520699999                       0      -37751.53289127413      -37751.53289127413         42        4.046480179659347        16.6712139867921
WARNING: Pair style restartinfo set but has no restart support (src/pair.cpp:754)
WARNING: Pair style restartinfo set but has no restart support (src/pair.cpp:754)
         2                   0.0002                       0       -9482.57469392962            73.518922088                       0      -37756.73425674684      -37756.73425674684         42         2.09159795408013       8.540240207067839
         2                   0.0002                       0       -9482.57469392962            73.518922088                       0      -37756.73425674684      -37756.73425674684         42         2.09159795408013       8.540240207067839
WARNING: Pair style restartinfo set but has no restart support (src/pair.cpp:754)
WARNING: Pair style restartinfo set but has no restart support (src/pair.cpp:754)
         3                   0.0003                       0      -5477.616229968983            144.81776456                       0      -37758.31569625773      -37758.31569625773         42       0.4654571843003793       1.697666783275861
         3                   0.0003                       0      -5477.616229968983            144.81776456                       0      -37758.31569625773      -37758.31569625773         42       0.4654571843003793       1.697666783275861
WARNING: Pair style restartinfo set but has no restart support (src/pair.cpp:754)
WARNING: Pair style restartinfo set but has no restart support (src/pair.cpp:754)
         4                   0.0004                       0      -1020.024208416239           216.035227116                       0      -37758.39176399994      -37758.39176399994         42       0.0337302936181489      0.1294615511848485
         4                   0.0004                       0      -1020.024208416239           216.035227116                       0      -37758.39176399994      -37758.39176399994         42       0.0337302936181489      0.1294615511848485
WARNING: Pair style restartinfo set but has no restart support (src/pair.cpp:754)
WARNING: Pair style restartinfo set but has no restart support (src/pair.cpp:754)
         5                   0.0005                       0      -765.8694284455464           287.452651864                       0      -37758.39221494819      -37758.39221494819         42      0.01174775519120465     0.05444651773839262
         5                   0.0005                       0      -765.8694284455464           287.452651864                       0      -37758.39221494819      -37758.39221494819         42      0.01174775519120465     0.05444651773839262
WARNING: Pair style restartinfo set but has no restart support (src/pair.cpp:754)
WARNING: Pair style restartinfo set but has no restart support (src/pair.cpp:754)
         6    0.0006000000000000001                       0       -725.539553075288           358.590282093                       0      -37758.39231751167      -37758.39231751167         42      0.01674717300919954     0.04872719806666129
         6    0.0006000000000000001                       0       -725.539553075288           358.590282093                       0      -37758.39231751167      -37758.39231751167         42      0.01674717300919954     0.04872719806666129
WARNING: Pair style restartinfo set but has no restart support (src/pair.cpp:754)
WARNING: Pair style restartinfo set but has no restart support (src/pair.cpp:754)
         7                   0.0007                       0      -750.4765240879517           429.699713536                       0      -37758.39239335777      -37758.39239335777         42     0.008936197406205285     0.03488672792119027
         7                   0.0007                       0      -750.4765240879517           429.699713536                       0      -37758.39239335777      -37758.39239335777         42     0.008936197406205285     0.03488672792119027
WARNING: Pair style restartinfo set but has no restart support (src/pair.cpp:754)
WARNING: Pair style restartinfo set but has no restart support (src/pair.cpp:754)
         8                   0.0008                       0      -777.2651513064437       500.9185042029999                       0      -37758.39241604189      -37758.39241604189         42     0.002678383100848711    0.009088031527288811
         8                   0.0008                       0      -777.2651513064437       500.9185042029999                       0      -37758.39241604189      -37758.39241604189         42     0.002678383100848711    0.009088031527288811
WARNING: Pair style restartinfo set but has no restart support (src/pair.cpp:754)
WARNING: Pair style restartinfo set but has no restart support (src/pair.cpp:754)
         9    0.0009000000000000001                       0      -783.3115495490958           572.218045175                       0      -37758.39241966246      -37758.39241966246         42     0.002804305600796173    0.009150152203325742
         9    0.0009000000000000001                       0      -783.3115495490958           572.218045175                       0      -37758.39241966246      -37758.39241966246         42     0.002804305600796173    0.009150152203325742
WARNING: Pair style restartinfo set but has no restart support (src/pair.cpp:754)
WARNING: Pair style restartinfo set but has no restart support (src/pair.cpp:754)
        10                    0.001                       0      -781.6981081671372           643.610398455                       0      -37758.39242282046      -37758.39242282046         42     0.002160385309015518    0.008221069994013595
        10                    0.001                       0      -781.6981081671372           643.610398455                       0      -37758.39242282046      -37758.39242282046         42     0.002160385309015518    0.008221069994013595
WARNING: Pair style restartinfo set but has no restart support (src/pair.cpp:754)
WARNING: Pair style restartinfo set but has no restart support (src/pair.cpp:754)
        11                   0.0011                       0      -775.2992605819306       714.8702350570001                       0      -37758.39242662289      -37758.39242662289         42     0.002954840409215616     0.01204055193382527
        11                   0.0011                       0      -775.2992605819306       714.8702350570001                       0      -37758.39242662289      -37758.39242662289         42     0.002954840409215616     0.01204055193382527
WARNING: Pair style restartinfo set but has no restart support (src/pair.cpp:754)
WARNING: Pair style restartinfo set but has no restart support (src/pair.cpp:754)
        12                   0.0012                       0      -776.9498444395418       786.0531603200001                       0      -37758.39243544412      -37758.39243544412         42     0.004160809468832115     0.01563098233021493
        12                   0.0012                       0      -776.9498444395418       786.0531603200001                       0      -37758.39243544412      -37758.39243544412         42     0.004160809468832115     0.01563098233021493
WARNING: Pair style restartinfo set but has no restart support (src/pair.cpp:754)
WARNING: Pair style restartinfo set but has no restart support (src/pair.cpp:754)
        13                   0.0013                       0      -810.1690938070576           857.391271692                       0      -37758.39245109418      -37758.39245109418         42     0.003005194514661594     0.01320631285783441
        13                   0.0013                       0      -810.1690938070576           857.391271692                       0      -37758.39245109418      -37758.39245109418         42     0.003005194514661594     0.01320631285783441
WARNING: Pair style restartinfo set but has no restart support (src/pair.cpp:754)
WARNING: Pair style restartinfo set but has no restart support (src/pair.cpp:754)
        14                   0.0014                       0      -810.7119631103792       928.5794062780001                       0      -37758.39246235393      -37758.39246235393         42     0.004446334039648256     0.01722275008261517
        14                   0.0014                       0      -810.7119631103792       928.5794062780001                       0      -37758.39246235393      -37758.39246235393         42     0.004446334039648256     0.01722275008261517
WARNING: Pair style restartinfo set but has no restart support (src/pair.cpp:754)
WARNING: Pair style restartinfo set but has no restart support (src/pair.cpp:754)
        15                   0.0015                       0      -810.0924827876627       999.8047810320001                       0      -37758.39247116183      -37758.39247116183         42     0.003373542215523211     0.01277643827656258
        15                   0.0015                       0      -810.0924827876627       999.8047810320001                       0      -37758.39247116183      -37758.39247116183         42     0.003373542215523211     0.01277643827656258
WARNING: Pair style restartinfo set but has no restart support (src/pair.cpp:754)
WARNING: Pair style restartinfo set but has no restart support (src/pair.cpp:754)
        16                   0.0016                       0      -815.9710237092052          1071.047145836                       0      -37758.39247486664      -37758.39247486664         42     0.001797354267986108    0.006743433155092838
        16                   0.0016                       0      -815.9710237092052          1071.047145836                       0      -37758.39247486664      -37758.39247486664         42     0.001797354267986108    0.006743433155092838
WARNING: Pair style restartinfo set but has no restart support (src/pair.cpp:754)
WARNING: Pair style restartinfo set but has no restart support (src/pair.cpp:754)
        17                   0.0017                       0      -824.2457321009284          1142.247857689                       0      -37758.39247634468      -37758.39247634468         42    0.0005424054535222624    0.002253228812151589
        17                   0.0017                       0      -824.2457321009284          1142.247857689                       0      -37758.39247634468      -37758.39247634468         42    0.0005424054535222624    0.002253228812151589
WARNING: Pair style restartinfo set but has no restart support (src/pair.cpp:754)
WARNING: Pair style restartinfo set but has no restart support (src/pair.cpp:754)
        18                   0.0018                       0      -822.3439798490579          1213.508691725                       0      -37758.39247653125      -37758.39247653125         42    0.0004262532405597529    0.001560159860550847
        18                   0.0018                       0      -822.3439798490579          1213.508691725                       0      -37758.39247653125      -37758.39247653125         42    0.0004262532405597529    0.001560159860550847
WARNING: Pair style restartinfo set but has no restart support (src/pair.cpp:754)
WARNING: Pair style restartinfo set but has no restart support (src/pair.cpp:754)
        19                   0.0019                       0      -820.9138928671124          1284.727241943                       0      -37758.39247663679      -37758.39247663679         42    0.0004696298175078599    0.001636816193717424
        19                   0.0019                       0      -820.9138928671124          1284.727241943                       0      -37758.39247663679      -37758.39247663679         42    0.0004696298175078599    0.001636816193717424
WARNING: Pair style restartinfo set but has no restart support (src/pair.cpp:754)
WARNING: Pair style restartinfo set but has no restart support (src/pair.cpp:754)
        20                    0.002                       0      -821.4930116816688          1355.954364082                       0      -37758.39247677237      -37758.39247677237         42    0.0005029795014189244    0.001989675520564128
        20                    0.002                       0      -821.4930116816688          1355.954364082                       0      -37758.39247677237      -37758.39247677237         42    0.0005029795014189244    0.001989675520564128
WARNING: Pair style restartinfo set but has no restart support (src/pair.cpp:754)
WARNING: Pair style restartinfo set but has no restart support (src/pair.cpp:754)
        21                   0.0021                       0       -823.126533460562          1427.095853531                       0      -37758.39247691461      -37758.39247691461         42    0.0006914858309114719    0.002118701204328997
        21                   0.0021                       0       -823.126533460562          1427.095853531                       0      -37758.39247691461      -37758.39247691461         42    0.0006914858309114719    0.002118701204328997
WARNING: Pair style restartinfo set but has no restart support (src/pair.cpp:754)
WARNING: Pair style restartinfo set but has no restart support (src/pair.cpp:754)
        22                   0.0022                       0      -825.0155151376035          1498.290791123                       0      -37758.39247730839      -37758.39247730839         42    0.0008888107480866658    0.003449141225118765
        22                   0.0022                       0      -825.0155151376035          1498.290791123                       0      -37758.39247730839      -37758.39247730839         42    0.0008888107480866658    0.003449141225118765
WARNING: Pair style restartinfo set but has no restart support (src/pair.cpp:754)
WARNING: Pair style restartinfo set but has no restart support (src/pair.cpp:754)
        23                   0.0023                       0      -820.7686967851713           1569.56192943                       0      -37758.39247830317      -37758.39247830317         42     0.001567688722981868    0.006706029620492249
        23                   0.0023                       0      -820.7686967851713           1569.56192943                       0      -37758.39247830317      -37758.39247830317         42     0.001567688722981868    0.006706029620492249
WARNING: Pair style restartinfo set but has no restart support (src/pair.cpp:754)
WARNING: Pair style restartinfo set but has no restart support (src/pair.cpp:754)
        24                   0.0024                       0      -800.7809508959232          1640.803100627                       0      -37758.39248426604      -37758.39248426604         42     0.004272715495040011     0.01807568324412081
        24                   0.0024                       0      -800.7809508959232          1640.803100627                       0      -37758.39248426604      -37758.39248426604         42     0.004272715495040011     0.01807568324412081
WARNING: Pair style restartinfo set but has no restart support (src/pair.cpp:754)
WARNING: Pair style restartinfo set but has no restart support (src/pair.cpp:754)
        25                   0.0025                       0      -770.0848627101537          1712.045786861                       0      -37758.39251652699      -37758.39251652699         42     0.008077366274107756     0.02873281086140546
        25                   0.0025                       0      -770.0848627101537          1712.045786861                       0      -37758.39251652699      -37758.39251652699         42     0.008077366274107756     0.02873281086140546
WARNING: Pair style restartinfo set but has no restart support (src/pair.cpp:754)
WARNING: Pair style restartinfo set but has no restart support (src/pair.cpp:754)
        26                   0.0026                       0       -872.870620254638          1783.739325886                       0      -37758.39262029967      -37758.39262029967         42     0.009301684855536054     0.04186311368286418
        26                   0.0026                       0       -872.870620254638          1783.739325886                       0      -37758.39262029967      -37758.39262029967         42     0.009301684855536054     0.04186311368286418
WARNING: Pair style restartinfo set but has no restart support (src/pair.cpp:754)
WARNING: Pair style restartinfo set but has no restart support (src/pair.cpp:754)
        27                   0.0027                       0      -858.0521332209922          1855.638752334                       0      -37758.39277846758      -37758.39277846758         42      0.01625677906117189     0.05760411424162924
        27                   0.0027                       0      -858.0521332209922          1855.638752334                       0      -37758.39277846758      -37758.39277846758         42      0.01625677906117189     0.05760411424162924
WARNING: Pair style restartinfo set but has no restart support (src/pair.cpp:754)
WARNING: Pair style restartinfo set but has no restart support (src/pair.cpp:754)
        28                   0.0028                       0      -774.9503958822088          1927.840080689                       0      -37758.39290714188      -37758.39290714188         42      0.01180431236684845     0.04811966438382151
        28                   0.0028                       0      -774.9503958822088          1927.840080689                       0      -37758.39290714188      -37758.39290714188         42      0.01180431236684845     0.04811966438382151
WARNING: Pair style restartinfo set but has no restart support (src/pair.cpp:754)
WARNING: Pair style restartinfo set but has no restart support (src/pair.cpp:754)
        29                   0.0029                       0      -742.9675010297436          2000.157598466                       0      -37758.39298434673      -37758.39298434673         42     0.009929746838051944      0.0380041991421088
        29                   0.0029                       0      -742.9675010297436          2000.157598466                       0      -37758.39298434673      -37758.39298434673         42     0.009929746838051944      0.0380041991421088
WARNING: Pair style restartinfo set but has no restart support (src/pair.cpp:754)
WARNING: Pair style restartinfo set but has no restart support (src/pair.cpp:754)
        30                    0.003                       0      -769.5084570685835          2072.304582927                       0      -37758.39303724386      -37758.39303724386         42     0.004820787184940431     0.01820083130521557
        30                    0.003                       0      -769.5084570685835          2072.304582927                       0      -37758.39303724386      -37758.39303724386         42     0.004820787184940431     0.01820083130521557
WARNING: Pair style restartinfo set but has no restart support (src/pair.cpp:754)
WARNING: Pair style restartinfo set but has no restart support (src/pair.cpp:754)
        31                   0.0031                       0      -780.6905651011338          2144.383870815                       0      -37758.39304636179      -37758.39304636179         42     0.004542147190462217     0.01457038645523595
        31                   0.0031                       0      -780.6905651011338          2144.383870815                       0      -37758.39304636179      -37758.39304636179         42     0.004542147190462217     0.01457038645523595
WARNING: Pair style restartinfo set but has no restart support (src/pair.cpp:754)
WARNING: Pair style restartinfo set but has no restart support (src/pair.cpp:754)
        32                   0.0032                       0       -780.225823324345          2216.505289041                       0      -37758.39305168743      -37758.39305168743         42     0.002295764363535325    0.008143665721708682
        32                   0.0032                       0       -780.225823324345          2216.505289041                       0      -37758.39305168743      -37758.39305168743         42     0.002295764363535325    0.008143665721708682
WARNING: Pair style restartinfo set but has no restart support (src/pair.cpp:754)
WARNING: Pair style restartinfo set but has no restart support (src/pair.cpp:754)
        33                   0.0033                       0      -769.7690100413213           2288.64428082                       0      -37758.39305446477      -37758.39305446477         42     0.003756894550121171     0.00905980881009482
        33                   0.0033                       0      -769.7690100413213           2288.64428082                       0      -37758.39305446477      -37758.39305446477         42     0.003756894550121171     0.00905980881009482
WARNING: Pair style restartinfo set but has no restart support (src/pair.cpp:754)
WARNING: Pair style restartinfo set but has no restart support (src/pair.cpp:754)
        34                   0.0034                       0       -761.354863372992          2360.771885692                       0      -37758.39305961873      -37758.39305961873         42     0.003575264113166229     0.01058474856275243
        34                   0.0034                       0       -761.354863372992          2360.771885692                       0      -37758.39305961873      -37758.39305961873         42     0.003575264113166229     0.01058474856275243
WARNING: Pair style restartinfo set but has no restart support (src/pair.cpp:754)
WARNING: Pair style restartinfo set but has no restart support (src/pair.cpp:754)
        35                   0.0035                       0      -781.4797524433864          2432.928840345                       0      -37758.39306519297      -37758.39306519297         42      0.00464183962847267     0.01420988055327716
        35                   0.0035                       0      -781.4797524433864          2432.928840345                       0      -37758.39306519297      -37758.39306519297         42      0.00464183962847267     0.01420988055327716
WARNING: Pair style restartinfo set but has no restart support (src/pair.cpp:754)
WARNING: Pair style restartinfo set but has no restart support (src/pair.cpp:754)
        36                   0.0036                       0      -812.0540274874743          2505.146888554                       0      -37758.39307430146      -37758.39307430146         42     0.004360614490844558     0.01577530470495682
        36                   0.0036                       0      -812.0540274874743          2505.146888554                       0      -37758.39307430146      -37758.39307430146         42     0.004360614490844558     0.01577530470495682
WARNING: Pair style restartinfo set but has no restart support (src/pair.cpp:754)
WARNING: Pair style restartinfo set but has no restart support (src/pair.cpp:754)
        37                   0.0037                       0      -800.7741563990633          2577.274232676                       0      -37758.39309309736      -37758.39309309736         42     0.004382380178924455     0.02005032380481335
        37                   0.0037                       0      -800.7741563990633          2577.274232676                       0      -37758.39309309736      -37758.39309309736         42     0.004382380178924455     0.02005032380481335
WARNING: Pair style restartinfo set but has no restart support (src/pair.cpp:754)
WARNING: Pair style restartinfo set but has no restart support (src/pair.cpp:754)
        38                   0.0038                       0      -793.2852395076267          2649.162901085                       0      -37758.39310595411      -37758.39310595411         42      0.00381232606671838     0.01520120468296811
        38                   0.0038                       0      -793.2852395076267          2649.162901085                       0      -37758.39310595411      -37758.39310595411         42      0.00381232606671838     0.01520120468296811
WARNING: Pair style restartinfo set but has no restart support (src/pair.cpp:754)
WARNING: Pair style restartinfo set but has no restart support (src/pair.cpp:754)
        39                   0.0039                       0      -810.1012562638342          2721.277874653                       0      -37758.39311238891      -37758.39311238891         42     0.002557776207874136    0.009685292534981047
        39                   0.0039                       0      -810.1012562638342          2721.277874653                       0      -37758.39311238891      -37758.39311238891         42     0.002557776207874136    0.009685292534981047
WARNING: Pair style restartinfo set but has no restart support (src/pair.cpp:754)
WARNING: Pair style restartinfo set but has no restart support (src/pair.cpp:754)
        40                    0.004                       0      -821.5070855156969          2793.356866062                       0      -37758.39311446415      -37758.39311446415         42     0.001302132477212541    0.004750795198998275
        40                    0.004                       0      -821.5070855156969          2793.356866062                       0      -37758.39311446415      -37758.39311446415         42     0.001302132477212541    0.004750795198998275
WARNING: Pair style restartinfo set but has no restart support (src/pair.cpp:754)
WARNING: Pair style restartinfo set but has no restart support (src/pair.cpp:754)
        41                   0.0041                       0      -823.3468059299025           2865.46949284                       0      -37758.39311551751      -37758.39311551751         42     0.001055113810403202    0.003743292749605318
        41                   0.0041                       0      -823.3468059299025           2865.46949284                       0      -37758.39311551751      -37758.39311551751         42     0.001055113810403202    0.003743292749605318
WARNING: Pair style restartinfo set but has no restart support (src/pair.cpp:754)
WARNING: Pair style restartinfo set but has no restart support (src/pair.cpp:754)
        42     0.004200000000000001                       0      -821.3952101827905          2937.594017551                       0      -37758.39311578295      -37758.39311578295         42    0.0004070984695671411    0.001647921760396323
        42     0.004200000000000001                       0      -821.3952101827905          2937.594017551                       0      -37758.39311578295      -37758.39311578295         42    0.0004070984695671411    0.001647921760396323
WARNING: Pair style restartinfo set but has no restart support (src/pair.cpp:754)
WARNING: Pair style restartinfo set but has no restart support (src/pair.cpp:754)
        43                   0.0043                       0      -819.5546884078066          3009.689865074                       0       -37758.3931158607       -37758.3931158607         42     0.000275239877346967     0.00105581626201265
        43                   0.0043                       0      -819.5546884078066          3009.689865074                       0       -37758.3931158607       -37758.3931158607         42     0.000275239877346967     0.00105581626201265
WARNING: Pair style restartinfo set but has no restart support (src/pair.cpp:754)
WARNING: Pair style restartinfo set but has no restart support (src/pair.cpp:754)
        44                   0.0044                       0        -819.55335390992          3117.696317129                       0      -37758.39311589463      -37758.39311589463         42    0.0001525367846842455   0.0006124245247769659
        44                   0.0044                       0        -819.55335390992          3117.696317129                       0      -37758.39311589463      -37758.39311589463         42    0.0001525367846842455   0.0006124245247769659
Loop time of 3117.7 on 48 procs for 44 steps with 42 atoms

Loop time of 3117.7 on 48 procs for 44 steps with 42 atoms

413.6% CPU use with 4 MPI tasks x 12 OpenMP threads
413.6% CPU use with 4 MPI tasks x 12 OpenMP threads

Minimization stats:
  Stopping criterion = force tolerance
  Energy initial, next-to-last, final = 
     -37742.0440532299  -37758.3931158607  -37758.3931158946
  Force two-norm initial, final = 24.093509 0.00061242452
  Force max component initial, final = 5.0749712 0.00015253678
  Final line search alpha, max atom move = 1 0.00015253678
  Iterations, force evaluations = 44 86

Minimization stats:
  Stopping criterion = force tolerance
  Energy initial, next-to-last, final = 
     -37742.0440532299  -37758.3931158607  -37758.3931158946
  Force two-norm initial, final = 24.093509 0.00061242452
  Force max component initial, final = 5.0749712 0.00015253678
  Final line search alpha, max atom move = 1 0.00015253678
  Iterations, force evaluations = 44 86

MPI task timing breakdown:
Section |  min time  |  avg time  |  max time  |%varavg| %total
---------------------------------------------------------------

MPI task timing breakdown:
Section |  min time  |  avg time  |  max time  |%varavg| %total
---------------------------------------------------------------
Pair    | 1635.3     | 2322.6     | 3116.2     |1093.4 | 74.50
Pair    | 1635.3     | 2322.6     | 3116.2     |1093.4 | 74.50
Neigh   | 0.62812    | 0.9766     | 1.4059     |  28.2 |  0.03
Neigh   | 0.62812    | 0.9766     | 1.4059     |  28.2 |  0.03
Comm    | 0.023456   | 794.08     | 1481.7     |1871.0 | 25.47
Comm    | 0.023456   | 794.08     | 1481.7     |1871.0 | 25.47
Output  | 0.06169    | 0.061757   | 0.06195    |   0.0 |  0.00
Output  | 0.06169    | 0.061757   | 0.06195    |   0.0 |  0.00
Modify  | 0          | 0          | 0          |   0.0 |  0.00
Modify  | 0          | 0          | 0          |   0.0 |  0.00
Other   |            | 0.006591   |            |       |  0.00
Other   |            | 0.006591   |            |       |  0.00

Nlocal:           10.5 ave          22 max           0 min
Histogram: 1 0 0 1 0 1 0 0 0 1
Nghost:         2230.5 ave        2988 max        1472 min
Histogram: 1 0 0 0 1 1 0 0 0 1
Neighs:              0 ave           0 max           0 min
Histogram: 4 0 0 0 0 0 0 0 0 0
FullNghs:       6736.5 ave       14413 max           0 min
Histogram: 1 0 0 1 0 1 0 0 0 1

Nlocal:           10.5 ave          22 max           0 min
Histogram: 1 0 0 1 0 1 0 0 0 1
Nghost:         2230.5 ave        2988 max        1472 min
Histogram: 1 0 0 0 1 1 0 0 0 1
Neighs:              0 ave           0 max           0 min
Histogram: 4 0 0 0 0 0 0 0 0 0
FullNghs:       6736.5 ave       14413 max           0 min
Histogram: 1 0 0 1 0 1 0 0 0 1


Total # of neighbors = 26946
Ave neighs/atom = 641.57143
Neighbor list builds = 87
Dangerous builds = 0
Total # of neighbors = 26946
Ave neighs/atom = 641.57143
Neighbor list builds = 87
Dangerous builds = 0
write_dump all xyz /home/theory/phrrpq/bilayer_relaxations/MoS2_WS2/P/1/MoS2_WS2_P_1.xyz modify sort id pbc yes element Mo W S

Total wall time: 0:53:14
Total wall time: 0:53:14
