Python 3.10.4
OMP_THREADS: 12
MPI: 1
NTASKS-PER-NODE: 4
CPUS_PER_TASK: 12
MPI startup(): PMI server not found. Please set I_MPI_PMI_LIBRARY variable if it is not a singleton case.
MPI startup(): PMI server not found. Please set I_MPI_PMI_LIBRARY variable if it is not a singleton case.
MPI startup(): PMI server not found. Please set I_MPI_PMI_LIBRARY variable if it is not a singleton case.
MPI startup(): PMI server not found. Please set I_MPI_PMI_LIBRARY variable if it is not a singleton case.
LAMMPS (28 Mar 2023 - Development)
LAMMPS (28 Mar 2023 - Development)
LAMMPS (28 Mar 2023 - Development)
LAMMPS (28 Mar 2023 - Development)
  using 12 OpenMP thread(s) per MPI task
  using 12 OpenMP thread(s) per MPI task
  using 12 OpenMP thread(s) per MPI task
  using 12 OpenMP thread(s) per MPI task
  using 12 OpenMP thread(s) per MPI task
  using 12 OpenMP thread(s) per MPI task
  using 12 OpenMP thread(s) per MPI task
  using 12 OpenMP thread(s) per MPI task
Reading data file ...
Reading data file ...
Reading data file ...
Reading data file ...
  triclinic box = (0 0 0) to (8.430172 7.3007431 30) with tilt (4.215086 0 0)
  triclinic box = (0 0 0) to (8.430172 7.3007431 30) with tilt (4.215086 0 0)
  triclinic box = (0 0 0) to (8.430172 7.3007431 30) with tilt (4.215086 0 0)
  triclinic box = (0 0 0) to (8.430172 7.3007431 30) with tilt (4.215086 0 0)
WARNING: Triclinic box skew is large. LAMMPS will run inefficiently. (src/domain.cpp:220)
WARNING: Triclinic box skew is large. LAMMPS will run inefficiently. (src/domain.cpp:220)
WARNING: Triclinic box skew is large. LAMMPS will run inefficiently. (src/domain.cpp:220)
WARNING: Triclinic box skew is large. LAMMPS will run inefficiently. (src/domain.cpp:220)
  1 by 1 by 1 MPI processor grid
  1 by 1 by 1 MPI processor grid
  1 by 1 by 1 MPI processor grid
  1 by 1 by 1 MPI processor grid
  reading atoms ...
  reading atoms ...
  reading atoms ...
  reading atoms ...
  42 atoms
  42 atoms
  42 atoms
  42 atoms
  read_data CPU = 0.003 seconds
  read_data CPU = 0.003 seconds
  read_data CPU = 0.003 seconds
  read_data CPU = 0.003 seconds
CUDA unavailable, setting device type to torch::kCPU.
CUDA unavailable, setting device type to torch::kCPU.
Loading MACE model from "/home/theory/phrrpq/bilayer_relaxations/MoWSSe_bi_radius_8_reduced_all_1_swa_800_run-123_swa.model-lammps.pt" ...CUDA unavailable, setting device type to torch::kCPU.
CUDA unavailable, setting device type to torch::kCPU.
Loading MACE model from "/home/theory/phrrpq/bilayer_relaxations/MoWSSe_bi_radius_8_reduced_all_1_swa_800_run-123_swa.model-lammps.pt" ...Loading MACE model from "/home/theory/phrrpq/bilayer_relaxations/MoWSSe_bi_radius_8_reduced_all_1_swa_800_run-123_swa.model-lammps.pt" ...Loading MACE model from "/home/theory/phrrpq/bilayer_relaxations/MoWSSe_bi_radius_8_reduced_all_1_swa_800_run-123_swa.model-lammps.pt" ... finished.
 finished.
 finished.
  - The torch_float_dtype is: Double
  - The torch_float_dtype is: Double
  - The r_max is:   - The r_max is: 8.
8.
  - The model has: 2 layers.
  - The model has: 2 layers.
 finished.
  - The torch_float_dtype is: Double
  - The r_max is: 8.
  - The model has: 2 layers.
  - The model atomic numbers are: 16 34   - The model atomic numbers are: 16 34 42 7442 74.
  - The pair_coeff atomic numbers are: .
  - The pair_coeff atomic numbers are: 42 16.
42 16.
  - The model atomic numbers are: 16 34 42 74.
  - The pair_coeff atomic numbers are: 42 16.
  - The torch_float_dtype is: Double
Generated 0 of 1 mixed pair_coeff terms from geometric mixing rule
Generated 0 of 1 mixed pair_coeff terms from geometric mixing rule
  - The r_max is: 8.
Generated 0 of 1 mixed pair_coeff terms from geometric mixing rule
  - The model has: 2 layers.
  - The model atomic numbers are: 16 34 42 74.
  - The pair_coeff atomic numbers are: 42 16.
Neighbor list info ...
  update: every = 1 steps, delay = 0 steps, check = yes
  max neighbors/atom: 2000, page size: 100000
  master list distance cutoff = 18
  ghost atom cutoff = 18
  binsize = 9, bins = 2 1 4
  1 neighbor lists, perpetual/occasional/extra = 1 0 0
  (1) pair mace, perpetual
      attributes: full, newton on, ghost
      pair build: full/bin/ghost
      stencil: full/ghost/bin/3d
      bin: standard
Neighbor list info ...
  update: every = 1 steps, delay = 0 steps, check = yes
  max neighbors/atom: 2000, page size: 100000
  master list distance cutoff = 18
  ghost atom cutoff = 18
  binsize = 9, bins = 2 1 4
  1 neighbor lists, perpetual/occasional/extra = 1 0 0
  (1) pair mace, perpetual
      attributes: full, newton on, ghost
      pair build: full/bin/ghost
      stencil: full/ghost/bin/3d
      bin: standard
Neighbor list info ...
  update: every = 1 steps, delay = 0 steps, check = yes
  max neighbors/atom: 2000, page size: 100000
  master list distance cutoff = 18
  ghost atom cutoff = 18
  binsize = 9, bins = 2 1 4
  1 neighbor lists, perpetual/occasional/extra = 1 0 0
  (1) pair mace, perpetual
      attributes: full, newton on, ghost
      pair build: full/bin/ghost
      stencil: full/ghost/bin/3d
      bin: standard
Setting up Verlet run ...
  Unit style    : metal
  Current step  : 0
  Time step     : 0.0001
Generated 0 of 1 mixed pair_coeff terms from geometric mixing rule
Neighbor list info ...
  update: every = 1 steps, delay = 0 steps, check = yes
  max neighbors/atom: 2000, page size: 100000
  master list distance cutoff = 18
  ghost atom cutoff = 18
  binsize = 9, bins = 2 1 4
  1 neighbor lists, perpetual/occasional/extra = 1 0 0
  (1) pair mace, perpetual
      attributes: full, newton on, ghost
      pair build: full/bin/ghost
      stencil: full/ghost/bin/3d
      bin: standard
Setting up Verlet run ...
  Unit style    : metal
  Current step  : 0
  Time step     : 0.0001
Setting up Verlet run ...
  Unit style    : metal
  Current step  : 0
  Time step     : 0.0001
Setting up Verlet run ...
  Unit style    : metal
  Current step  : 0
  Time step     : 0.0001
Per MPI rank memory allocation (min/avg/max) = 18.2 | 18.2 | 18.2 Mbytes
   Step          Time           Temp          Press           CPU           KinEng         PotEng         TotEng        Atoms         Fmax          Fnorm     
         0                        0                       0       12402.10225047358                       0                       0      -35842.47251722275      -35842.47251722275         42        4.606759090057672       22.14485613595538
Loop time of 7.68e-07 on 12 procs for 0 steps with 42 atoms

130.2% CPU use with 1 MPI tasks x 12 OpenMP threads

MPI task timing breakdown:
Section |  min time  |  avg time  |  max time  |%varavg| %total
---------------------------------------------------------------
Pair    | 0          | 0          | 0          |   0.0 |  0.00
Neigh   | 0          | 0          | 0          |   0.0 |  0.00
Comm    | 0          | 0          | 0          |   0.0 |  0.00
Output  | 0          | 0          | 0          |   0.0 |  0.00
Modify  | 0          | 0          | 0          |   0.0 |  0.00
Other   |            | 7.68e-07   |            |       |100.00

Nlocal:             42 ave          42 max          42 min
Histogram: 1 0 0 0 0 0 0 0 0 0
Nghost:           2958 ave        2958 max        2958 min
Histogram: 1 0 0 0 0 0 0 0 0 0
Neighs:              0 ave           0 max           0 min
Histogram: 1 0 0 0 0 0 0 0 0 0
FullNghs:        26976 ave       26976 max       26976 min
Histogram: 1 0 0 0 0 0 0 0 0 0

Total # of neighbors = 26976
Ave neighs/atom = 642.28571
Neighbor list builds = 0
Dangerous builds = 0
BEGIN LAMMPS STANDALONE MINIMIZATION; ii = 1; OMP = 12; MPI = 4
minimize 0.0 1e-3 1000 100000
Generated 0 of 1 mixed pair_coeff terms from geometric mixing rule
Generated 0 of 1 mixed pair_coeff terms from geometric mixing rule
Setting up cg style minimization ...
  Unit style    : metal
  Current step  : 0
Per MPI rank memory allocation (min/avg/max) = 18.2 | 18.2 | 18.2 Mbytes
   Step          Time           Temp          Press           CPU           KinEng         PotEng         TotEng        Atoms         Fmax          Fnorm     
         0                        0                       0       12402.10225047358                       0                       0      -35842.47251722275      -35842.47251722275         42        4.606759090057672       22.14485613595538
Loop time of 1.905e-06 on 12 procs for 0 steps with 42 atoms

105.0% CPU use with 1 MPI tasks x 12 OpenMP threads

MPI task timing breakdown:
Section |  min time  |  avg time  |  max time  |%varavg| %total
---------------------------------------------------------------
Pair    | 0          | 0          | 0          |   0.0 |  0.00
Neigh   | 0          | 0          | 0          |   0.0 |  0.00
Comm    | 0          | 0          | 0          |   0.0 |  0.00
Output  | 0          | 0          | 0          |   0.0 |  0.00
Modify  | 0          | 0          | 0          |   0.0 |  0.00
Other   |            | 1.905e-06  |            |       |100.00

Nlocal:             42 ave          42 max          42 min
Histogram: 1 0 0 0 0 0 0 0 0 0
Nghost:           2958 ave        2958 max        2958 min
Histogram: 1 0 0 0 0 0 0 0 0 0
Neighs:              0 ave           0 max           0 min
Histogram: 1 0 0 0 0 0 0 0 0 0
FullNghs:        26976 ave       26976 max       26976 min
Histogram: 1 0 0 0 0 0 0 0 0 0

Total # of neighbors = 26976
Ave neighs/atom = 642.28571
Neighbor list builds = 0
Dangerous builds = 0
BEGIN LAMMPS STANDALONE MINIMIZATION; ii = 1; OMP = 12; MPI = 4
minimize 0.0 1e-3 1000 100000
Generated 0 of 1 mixed pair_coeff terms from geometric mixing rule
Generated 0 of 1 mixed pair_coeff terms from geometric mixing rule
Setting up cg style minimization ...
  Unit style    : metal
  Current step  : 0
Per MPI rank memory allocation (min/avg/max) = 18.2 | 18.2 | 18.2 Mbytes
   Step          Time           Temp          Press           CPU           KinEng         PotEng         TotEng        Atoms         Fmax          Fnorm     
         0                        0                       0       12402.10225047358                       0                       0      -35842.47251722275      -35842.47251722275         42        4.606759090057672       22.14485613595538
Loop time of 1.074e-06 on 12 procs for 0 steps with 42 atoms

186.2% CPU use with 1 MPI tasks x 12 OpenMP threads

MPI task timing breakdown:
Section |  min time  |  avg time  |  max time  |%varavg| %total
---------------------------------------------------------------
Pair    | 0          | 0          | 0          |   0.0 |  0.00
Neigh   | 0          | 0          | 0          |   0.0 |  0.00
Comm    | 0          | 0          | 0          |   0.0 |  0.00
Output  | 0          | 0          | 0          |   0.0 |  0.00
Modify  | 0          | 0          | 0          |   0.0 |  0.00
Other   |            | 1.074e-06  |            |       |100.00

Nlocal:             42 ave          42 max          42 min
Histogram: 1 0 0 0 0 0 0 0 0 0
Nghost:           2958 ave        2958 max        2958 min
Histogram: 1 0 0 0 0 0 0 0 0 0
Neighs:              0 ave           0 max           0 min
Histogram: 1 0 0 0 0 0 0 0 0 0
FullNghs:        26976 ave       26976 max       26976 min
Histogram: 1 0 0 0 0 0 0 0 0 0

Total # of neighbors = 26976
Ave neighs/atom = 642.28571
Neighbor list builds = 0
Dangerous builds = 0
BEGIN LAMMPS STANDALONE MINIMIZATION; ii = 1; OMP = 12; MPI = 4
minimize 0.0 1e-3 1000 100000
Generated 0 of 1 mixed pair_coeff terms from geometric mixing rule
Generated 0 of 1 mixed pair_coeff terms from geometric mixing rule
Setting up cg style minimization ...
  Unit style    : metal
  Current step  : 0
Per MPI rank memory allocation (min/avg/max) = 18.2 | 18.2 | 18.2 Mbytes
   Step          Time           Temp          Press           CPU           KinEng         PotEng         TotEng        Atoms         Fmax          Fnorm     
         0                        0                       0       12402.10225047358                       0                       0      -35842.47251722275      -35842.47251722275         42        4.606759090057672       22.14485613595538
Loop time of 7.98e-07 on 12 procs for 0 steps with 42 atoms

125.3% CPU use with 1 MPI tasks x 12 OpenMP threads

MPI task timing breakdown:
Section |  min time  |  avg time  |  max time  |%varavg| %total
---------------------------------------------------------------
Pair    | 0          | 0          | 0          |   0.0 |  0.00
Neigh   | 0          | 0          | 0          |   0.0 |  0.00
Comm    | 0          | 0          | 0          |   0.0 |  0.00
Output  | 0          | 0          | 0          |   0.0 |  0.00
Modify  | 0          | 0          | 0          |   0.0 |  0.00
Other   |            | 7.98e-07   |            |       |100.00

Nlocal:             42 ave          42 max          42 min
Histogram: 1 0 0 0 0 0 0 0 0 0
Nghost:           2958 ave        2958 max        2958 min
Histogram: 1 0 0 0 0 0 0 0 0 0
Neighs:              0 ave           0 max           0 min
Histogram: 1 0 0 0 0 0 0 0 0 0
FullNghs:        26976 ave       26976 max       26976 min
Histogram: 1 0 0 0 0 0 0 0 0 0

Total # of neighbors = 26976
Ave neighs/atom = 642.28571
Neighbor list builds = 0
Dangerous builds = 0
BEGIN LAMMPS STANDALONE MINIMIZATION; ii = 1; OMP = 12; MPI = 4
minimize 0.0 1e-3 1000 100000
Generated 0 of 1 mixed pair_coeff terms from geometric mixing rule
Generated 0 of 1 mixed pair_coeff terms from geometric mixing rule
Setting up cg style minimization ...
  Unit style    : metal
  Current step  : 0
Per MPI rank memory allocation (min/avg/max) = 19.32 | 19.32 | 19.32 Mbytes
Per MPI rank memory allocation (min/avg/max) = 19.32 | 19.32 | 19.32 Mbytes
   Step          Time           Temp          Press           CPU           KinEng         PotEng         TotEng        Atoms         Fmax          Fnorm     
   Step          Time           Temp          Press           CPU           KinEng         PotEng         TotEng        Atoms         Fmax          Fnorm     
         0                        0                       0       12402.10225047359                       0                       0      -35842.47251722275      -35842.47251722275         42         4.60675909005767       22.14485613595538
         0                        0                       0       12402.10225047359                       0                       0      -35842.47251722275      -35842.47251722275         42         4.60675909005767       22.14485613595538
Per MPI rank memory allocation (min/avg/max) = 19.32 | 19.32 | 19.32 Mbytes
Per MPI rank memory allocation (min/avg/max) = 19.32 | 19.32 | 19.32 Mbytes
   Step          Time           Temp          Press           CPU           KinEng         PotEng         TotEng        Atoms         Fmax          Fnorm     
   Step          Time           Temp          Press           CPU           KinEng         PotEng         TotEng        Atoms         Fmax          Fnorm     
         0                        0                       0       12402.10225047359                       0                       0      -35842.47251722275      -35842.47251722275         42         4.60675909005767       22.14485613595538
         0                        0                       0       12402.10225047359                       0                       0      -35842.47251722275      -35842.47251722275         42         4.60675909005767       22.14485613595538
Per MPI rank memory allocation (min/avg/max) = 19.32 | 19.32 | 19.32 Mbytes
Per MPI rank memory allocation (min/avg/max) = 19.32 | 19.32 | 19.32 Mbytes
   Step          Time           Temp          Press           CPU           KinEng         PotEng         TotEng        Atoms         Fmax          Fnorm     
   Step          Time           Temp          Press           CPU           KinEng         PotEng         TotEng        Atoms         Fmax          Fnorm     
         0                        0                       0       12402.10225047359                       0                       0      -35842.47251722275      -35842.47251722275         42         4.60675909005767       22.14485613595538
         0                        0                       0       12402.10225047359                       0                       0      -35842.47251722275      -35842.47251722275         42         4.60675909005767       22.14485613595538
Per MPI rank memory allocation (min/avg/max) = 19.32 | 19.32 | 19.32 Mbytes
Per MPI rank memory allocation (min/avg/max) = 19.32 | 19.32 | 19.32 Mbytes
   Step          Time           Temp          Press           CPU           KinEng         PotEng         TotEng        Atoms         Fmax          Fnorm     
   Step          Time           Temp          Press           CPU           KinEng         PotEng         TotEng        Atoms         Fmax          Fnorm     
         0                        0                       0       12402.10225047359                       0                       0      -35842.47251722275      -35842.47251722275         42         4.60675909005767       22.14485613595538
         0                        0                       0       12402.10225047359                       0                       0      -35842.47251722275      -35842.47251722275         42         4.60675909005767       22.14485613595538
WARNING: Pair style restartinfo set but has no restart support (src/pair.cpp:754)
WARNING: Pair style restartinfo set but has no restart support (src/pair.cpp:754)
WARNING: Pair style restartinfo set but has no restart support (src/pair.cpp:754)
WARNING: Pair style restartinfo set but has no restart support (src/pair.cpp:754)
         1                   0.0001                       0      -2492.054473043689       26.76764297499999                       0      -35851.46600540488      -35851.46600540488         42        3.794504909177355       15.69503474647285
         1                   0.0001                       0      -2492.054473043689       26.76764297499999                       0      -35851.46600540488      -35851.46600540488         42        3.794504909177355       15.69503474647285
         1                   0.0001                       0      -2492.054473043689            26.723452612                       0      -35851.46600540488      -35851.46600540488         42        3.794504909177355       15.69503474647285
         1                   0.0001                       0      -2492.054473043689            26.723452612                       0      -35851.46600540488      -35851.46600540488         42        3.794504909177355       15.69503474647285
WARNING: Pair style restartinfo set but has no restart support (src/pair.cpp:754)
WARNING: Pair style restartinfo set but has no restart support (src/pair.cpp:754)
         1                   0.0001                       0      -2492.054473043689             26.93320131                       0      -35851.46600540488      -35851.46600540488         42        3.794504909177355       15.69503474647285
         1                   0.0001                       0      -2492.054473043689             26.93320131                       0      -35851.46600540488      -35851.46600540488         42        3.794504909177355       15.69503474647285
WARNING: Pair style restartinfo set but has no restart support (src/pair.cpp:754)
WARNING: Pair style restartinfo set but has no restart support (src/pair.cpp:754)
         1                   0.0001                       0      -2492.054473043689       26.99110601700001                       0      -35851.46600540488      -35851.46600540488         42        3.794504909177355       15.69503474647285
         1                   0.0001                       0      -2492.054473043689       26.99110601700001                       0      -35851.46600540488      -35851.46600540488         42        3.794504909177355       15.69503474647285
WARNING: Pair style restartinfo set but has no restart support (src/pair.cpp:754)
WARNING: Pair style restartinfo set but has no restart support (src/pair.cpp:754)
         2                   0.0002                       0      -8597.705870059006            52.718830029                       0      -35856.34350586571      -35856.34350586571         42        1.869019390672765       7.815480908499969
         2                   0.0002                       0      -8597.705870059006            52.718830029                       0      -35856.34350586571      -35856.34350586571         42        1.869019390672765       7.815480908499969
WARNING: Pair style restartinfo set but has no restart support (src/pair.cpp:754)
WARNING: Pair style restartinfo set but has no restart support (src/pair.cpp:754)
         2                   0.0002                       0      -8597.705870059006             52.88204506                       0      -35856.34350586571      -35856.34350586571         42        1.869019390672765       7.815480908499969
         2                   0.0002                       0      -8597.705870059006             52.88204506                       0      -35856.34350586571      -35856.34350586571         42        1.869019390672765       7.815480908499969
WARNING: Pair style restartinfo set but has no restart support (src/pair.cpp:754)
WARNING: Pair style restartinfo set but has no restart support (src/pair.cpp:754)
         2                   0.0002                       0      -8597.705870059006            53.449544864                       0      -35856.34350586571      -35856.34350586571         42        1.869019390672765       7.815480908499969
         2                   0.0002                       0      -8597.705870059006            53.449544864                       0      -35856.34350586571      -35856.34350586571         42        1.869019390672765       7.815480908499969
WARNING: Pair style restartinfo set but has no restart support (src/pair.cpp:754)
WARNING: Pair style restartinfo set but has no restart support (src/pair.cpp:754)
         2                   0.0002                       0      -8597.705870059006            53.640165783                       0      -35856.34350586571      -35856.34350586571         42        1.869019390672765       7.815480908499969
         2                   0.0002                       0      -8597.705870059006            53.640165783                       0      -35856.34350586571      -35856.34350586571         42        1.869019390672765       7.815480908499969
WARNING: Pair style restartinfo set but has no restart support (src/pair.cpp:754)
WARNING: Pair style restartinfo set but has no restart support (src/pair.cpp:754)
         3                   0.0003                       0      -4725.214611999165           108.930508521                       0      -35857.72444828314      -35857.72444828314         42       0.4299080181263987       1.533013696647338
         3                   0.0003                       0      -4725.214611999165           108.930508521                       0      -35857.72444828314      -35857.72444828314         42       0.4299080181263987       1.533013696647338
WARNING: Pair style restartinfo set but has no restart support (src/pair.cpp:754)
WARNING: Pair style restartinfo set but has no restart support (src/pair.cpp:754)
         3                   0.0003                       0      -4725.214611999165           109.242156839                       0      -35857.72444828314      -35857.72444828314         42       0.4299080181263987       1.533013696647338
         3                   0.0003                       0      -4725.214611999165           109.242156839                       0      -35857.72444828314      -35857.72444828314         42       0.4299080181263987       1.533013696647338
WARNING: Pair style restartinfo set but has no restart support (src/pair.cpp:754)
WARNING: Pair style restartinfo set but has no restart support (src/pair.cpp:754)
         3                   0.0003                       0      -4725.214611999165           110.405347143                       0      -35857.72444828314      -35857.72444828314         42       0.4299080181263987       1.533013696647338
         3                   0.0003                       0      -4725.214611999165           110.405347143                       0      -35857.72444828314      -35857.72444828314         42       0.4299080181263987       1.533013696647338
WARNING: Pair style restartinfo set but has no restart support (src/pair.cpp:754)
WARNING: Pair style restartinfo set but has no restart support (src/pair.cpp:754)
         3                   0.0003                       0      -4725.214611999165           110.632030095                       0      -35857.72444828314      -35857.72444828314         42       0.4299080181263987       1.533013696647338
         3                   0.0003                       0      -4725.214611999165           110.632030095                       0      -35857.72444828314      -35857.72444828314         42       0.4299080181263987       1.533013696647338
WARNING: Pair style restartinfo set but has no restart support (src/pair.cpp:754)
WARNING: Pair style restartinfo set but has no restart support (src/pair.cpp:754)
         4                   0.0004                       0      -920.0269813707835           159.717490305                       0      -35857.78963709049      -35857.78963709049         42      0.03647931879279041      0.1638582660978679
         4                   0.0004                       0      -920.0269813707835           159.717490305                       0      -35857.78963709049      -35857.78963709049         42      0.03647931879279041      0.1638582660978679
WARNING: Pair style restartinfo set but has no restart support (src/pair.cpp:754)
WARNING: Pair style restartinfo set but has no restart support (src/pair.cpp:754)
         4                   0.0004                       0      -920.0269813707835           160.055282245                       0      -35857.78963709049      -35857.78963709049         42      0.03647931879279041      0.1638582660978679
         4                   0.0004                       0      -920.0269813707835           160.055282245                       0      -35857.78963709049      -35857.78963709049         42      0.03647931879279041      0.1638582660978679
WARNING: Pair style restartinfo set but has no restart support (src/pair.cpp:754)
WARNING: Pair style restartinfo set but has no restart support (src/pair.cpp:754)
         4                   0.0004                       0      -920.0269813707835             161.8623149                       0      -35857.78963709049      -35857.78963709049         42      0.03647931879279041      0.1638582660978679
         4                   0.0004                       0      -920.0269813707835             161.8623149                       0      -35857.78963709049      -35857.78963709049         42      0.03647931879279041      0.1638582660978679
WARNING: Pair style restartinfo set but has no restart support (src/pair.cpp:754)
WARNING: Pair style restartinfo set but has no restart support (src/pair.cpp:754)
         4                   0.0004                       0      -920.0269813707835           162.152569665                       0      -35857.78963709049      -35857.78963709049         42      0.03647931879279041      0.1638582660978679
         4                   0.0004                       0      -920.0269813707835           162.152569665                       0      -35857.78963709049      -35857.78963709049         42      0.03647931879279041      0.1638582660978679
WARNING: Pair style restartinfo set but has no restart support (src/pair.cpp:754)
WARNING: Pair style restartinfo set but has no restart support (src/pair.cpp:754)
         5                   0.0005                       0      -703.8345471661413           210.546376639                       0      -35857.79026009393      -35857.79026009393         42      0.01438402990983711     0.05524626410787258
         5                   0.0005                       0      -703.8345471661413           210.546376639                       0      -35857.79026009393      -35857.79026009393         42      0.01438402990983711     0.05524626410787258
WARNING: Pair style restartinfo set but has no restart support (src/pair.cpp:754)
WARNING: Pair style restartinfo set but has no restart support (src/pair.cpp:754)
         5                   0.0005                       0      -703.8345471661413           210.848136345                       0      -35857.79026009393      -35857.79026009393         42      0.01438402990983711     0.05524626410787258
         5                   0.0005                       0      -703.8345471661413           210.848136345                       0      -35857.79026009393      -35857.79026009393         42      0.01438402990983711     0.05524626410787258
WARNING: Pair style restartinfo set but has no restart support (src/pair.cpp:754)
WARNING: Pair style restartinfo set but has no restart support (src/pair.cpp:754)
         5                   0.0005                       0      -703.8345471661413           213.334865923                       0      -35857.79026009393      -35857.79026009393         42      0.01438402990983711     0.05524626410787258
         5                   0.0005                       0      -703.8345471661413           213.334865923                       0      -35857.79026009393      -35857.79026009393         42      0.01438402990983711     0.05524626410787258
WARNING: Pair style restartinfo set but has no restart support (src/pair.cpp:754)
WARNING: Pair style restartinfo set but has no restart support (src/pair.cpp:754)
         5                   0.0005                       0      -703.8345471661413           213.594102144                       0      -35857.79026009393      -35857.79026009393         42      0.01438402990983711     0.05524626410787258
         5                   0.0005                       0      -703.8345471661413           213.594102144                       0      -35857.79026009393      -35857.79026009393         42      0.01438402990983711     0.05524626410787258
WARNING: Pair style restartinfo set but has no restart support (src/pair.cpp:754)
WARNING: Pair style restartinfo set but has no restart support (src/pair.cpp:754)
         6    0.0006000000000000001                       0      -615.5985846993913           261.308613083                       0      -35857.79037321556      -35857.79037321556         42      0.01197181852124761     0.04235660767020815
         6    0.0006000000000000001                       0      -615.5985846993913           261.308613083                       0      -35857.79037321556      -35857.79037321556         42      0.01197181852124761     0.04235660767020815
WARNING: Pair style restartinfo set but has no restart support (src/pair.cpp:754)
WARNING: Pair style restartinfo set but has no restart support (src/pair.cpp:754)
         6    0.0006000000000000001                       0      -615.5985846993913           261.631436827                       0      -35857.79037321556      -35857.79037321556         42      0.01197181852124761     0.04235660767020815
         6    0.0006000000000000001                       0      -615.5985846993913           261.631436827                       0      -35857.79037321556      -35857.79037321556         42      0.01197181852124761     0.04235660767020815
WARNING: Pair style restartinfo set but has no restart support (src/pair.cpp:754)
WARNING: Pair style restartinfo set but has no restart support (src/pair.cpp:754)
         6    0.0006000000000000001                       0      -615.5985846993913           264.610358903                       0      -35857.79037321556      -35857.79037321556         42      0.01197181852124761     0.04235660767020815
         6    0.0006000000000000001                       0      -615.5985846993913           264.610358903                       0      -35857.79037321556      -35857.79037321556         42      0.01197181852124761     0.04235660767020815
WARNING: Pair style restartinfo set but has no restart support (src/pair.cpp:754)
WARNING: Pair style restartinfo set but has no restart support (src/pair.cpp:754)
         6    0.0006000000000000001                       0      -615.5985846993913           264.863695758                       0      -35857.79037321556      -35857.79037321556         42      0.01197181852124761     0.04235660767020815
         6    0.0006000000000000001                       0      -615.5985846993913           264.863695758                       0      -35857.79037321556      -35857.79037321556         42      0.01197181852124761     0.04235660767020815
WARNING: Pair style restartinfo set but has no restart support (src/pair.cpp:754)
WARNING: Pair style restartinfo set but has no restart support (src/pair.cpp:754)
         7                   0.0007                       0      -607.3675525805401           312.156444132                       0      -35857.79043812882      -35857.79043812882         42      0.01223680644923538     0.03798166788163052
         7                   0.0007                       0      -607.3675525805401           312.156444132                       0      -35857.79043812882      -35857.79043812882         42      0.01223680644923538     0.03798166788163052
WARNING: Pair style restartinfo set but has no restart support (src/pair.cpp:754)
WARNING: Pair style restartinfo set but has no restart support (src/pair.cpp:754)
         7                   0.0007                       0      -607.3675525805401           312.645002417                       0      -35857.79043812882      -35857.79043812882         42      0.01223680644923538     0.03798166788163052
         7                   0.0007                       0      -607.3675525805401           312.645002417                       0      -35857.79043812882      -35857.79043812882         42      0.01223680644923538     0.03798166788163052
WARNING: Pair style restartinfo set but has no restart support (src/pair.cpp:754)
WARNING: Pair style restartinfo set but has no restart support (src/pair.cpp:754)
         7                   0.0007                       0      -607.3675525805401           316.097423573                       0      -35857.79043812882      -35857.79043812882         42      0.01223680644923538     0.03798166788163052
         7                   0.0007                       0      -607.3675525805401           316.097423573                       0      -35857.79043812882      -35857.79043812882         42      0.01223680644923538     0.03798166788163052
WARNING: Pair style restartinfo set but has no restart support (src/pair.cpp:754)
WARNING: Pair style restartinfo set but has no restart support (src/pair.cpp:754)
         7                   0.0007                       0      -607.3675525805401           316.353819714                       0      -35857.79043812882      -35857.79043812882         42      0.01223680644923538     0.03798166788163052
         7                   0.0007                       0      -607.3675525805401           316.353819714                       0      -35857.79043812882      -35857.79043812882         42      0.01223680644923538     0.03798166788163052
WARNING: Pair style restartinfo set but has no restart support (src/pair.cpp:754)
WARNING: Pair style restartinfo set but has no restart support (src/pair.cpp:754)
         8                   0.0008                       0      -642.1473180568262            363.07552012                       0      -35857.79047318637      -35857.79047318637         42     0.004289790442666926     0.01478839346101276
         8                   0.0008                       0      -642.1473180568262            363.07552012                       0      -35857.79047318637      -35857.79047318637         42     0.004289790442666926     0.01478839346101276
WARNING: Pair style restartinfo set but has no restart support (src/pair.cpp:754)
WARNING: Pair style restartinfo set but has no restart support (src/pair.cpp:754)
         8                   0.0008                       0      -642.1473180568262           363.586660331                       0      -35857.79047318637      -35857.79047318637         42     0.004289790442666926     0.01478839346101276
         8                   0.0008                       0      -642.1473180568262           363.586660331                       0      -35857.79047318637      -35857.79047318637         42     0.004289790442666926     0.01478839346101276
WARNING: Pair style restartinfo set but has no restart support (src/pair.cpp:754)
WARNING: Pair style restartinfo set but has no restart support (src/pair.cpp:754)
         8                   0.0008                       0      -642.1473180568262           367.494884793                       0      -35857.79047318637      -35857.79047318637         42     0.004289790442666926     0.01478839346101276
         8                   0.0008                       0      -642.1473180568262           367.494884793                       0      -35857.79047318637      -35857.79047318637         42     0.004289790442666926     0.01478839346101276
WARNING: Pair style restartinfo set but has no restart support (src/pair.cpp:754)
WARNING: Pair style restartinfo set but has no restart support (src/pair.cpp:754)
         8                   0.0008                       0      -642.1473180568262           367.790180716                       0      -35857.79047318637      -35857.79047318637         42     0.004289790442666926     0.01478839346101276
         8                   0.0008                       0      -642.1473180568262           367.790180716                       0      -35857.79047318637      -35857.79047318637         42     0.004289790442666926     0.01478839346101276
WARNING: Pair style restartinfo set but has no restart support (src/pair.cpp:754)
WARNING: Pair style restartinfo set but has no restart support (src/pair.cpp:754)
         9    0.0009000000000000001                       0      -662.6656249340684           413.990480726                       0      -35857.79048133092      -35857.79048133092         42     0.003543493318824976     0.01252071558297228
         9    0.0009000000000000001                       0      -662.6656249340684           413.990480726                       0      -35857.79048133092      -35857.79048133092         42     0.003543493318824976     0.01252071558297228
WARNING: Pair style restartinfo set but has no restart support (src/pair.cpp:754)
WARNING: Pair style restartinfo set but has no restart support (src/pair.cpp:754)
         9    0.0009000000000000001                       0      -662.6656249340684           414.527617432                       0      -35857.79048133092      -35857.79048133092         42     0.003543493318824976     0.01252071558297228
         9    0.0009000000000000001                       0      -662.6656249340684           414.527617432                       0      -35857.79048133092      -35857.79048133092         42     0.003543493318824976     0.01252071558297228
WARNING: Pair style restartinfo set but has no restart support (src/pair.cpp:754)
WARNING: Pair style restartinfo set but has no restart support (src/pair.cpp:754)
         9    0.0009000000000000001                       0      -662.6656249340684           418.909093374                       0      -35857.79048133092      -35857.79048133092         42     0.003543493318824976     0.01252071558297228
         9    0.0009000000000000001                       0      -662.6656249340684           418.909093374                       0      -35857.79048133092      -35857.79048133092         42     0.003543493318824976     0.01252071558297228
WARNING: Pair style restartinfo set but has no restart support (src/pair.cpp:754)
WARNING: Pair style restartinfo set but has no restart support (src/pair.cpp:754)
         9    0.0009000000000000001                       0      -662.6656249340684           419.294400688                       0      -35857.79048133092      -35857.79048133092         42     0.003543493318824976     0.01252071558297228
         9    0.0009000000000000001                       0      -662.6656249340684           419.294400688                       0      -35857.79048133092      -35857.79048133092         42     0.003543493318824976     0.01252071558297228
WARNING: Pair style restartinfo set but has no restart support (src/pair.cpp:754)
WARNING: Pair style restartinfo set but has no restart support (src/pair.cpp:754)
        10                    0.001                       0      -650.8050139093369       464.6775707419999                       0      -35857.79050251601      -35857.79050251601         42     0.008302540793747901     0.02087504863014553
        10                    0.001                       0      -650.8050139093369       464.6775707419999                       0      -35857.79050251601      -35857.79050251601         42     0.008302540793747901     0.02087504863014553
WARNING: Pair style restartinfo set but has no restart support (src/pair.cpp:754)
WARNING: Pair style restartinfo set but has no restart support (src/pair.cpp:754)
        10                    0.001                       0      -650.8050139093369           465.272957626                       0      -35857.79050251601      -35857.79050251601         42     0.008302540793747901     0.02087504863014553
        10                    0.001                       0      -650.8050139093369           465.272957626                       0      -35857.79050251601      -35857.79050251601         42     0.008302540793747901     0.02087504863014553
WARNING: Pair style restartinfo set but has no restart support (src/pair.cpp:754)
WARNING: Pair style restartinfo set but has no restart support (src/pair.cpp:754)
        10                    0.001                       0      -650.8050139093369           470.290220857                       0      -35857.79050251601      -35857.79050251601         42     0.008302540793747901     0.02087504863014553
        10                    0.001                       0      -650.8050139093369           470.290220857                       0      -35857.79050251601      -35857.79050251601         42     0.008302540793747901     0.02087504863014553
WARNING: Pair style restartinfo set but has no restart support (src/pair.cpp:754)
WARNING: Pair style restartinfo set but has no restart support (src/pair.cpp:754)
        10                    0.001                       0      -650.8050139093369           470.717244345                       0      -35857.79050251601      -35857.79050251601         42     0.008302540793747901     0.02087504863014553
        10                    0.001                       0      -650.8050139093369           470.717244345                       0      -35857.79050251601      -35857.79050251601         42     0.008302540793747901     0.02087504863014553
WARNING: Pair style restartinfo set but has no restart support (src/pair.cpp:754)
WARNING: Pair style restartinfo set but has no restart support (src/pair.cpp:754)
        11                   0.0011                       0      -615.7005276073518            515.60151603                       0      -35857.79052947481      -35857.79052947481         42     0.008875302365223648     0.02789842330976733
        11                   0.0011                       0      -615.7005276073518            515.60151603                       0      -35857.79052947481      -35857.79052947481         42     0.008875302365223648     0.02789842330976733
WARNING: Pair style restartinfo set but has no restart support (src/pair.cpp:754)
WARNING: Pair style restartinfo set but has no restart support (src/pair.cpp:754)
        11                   0.0011                       0      -615.7005276073518           516.083297278                       0      -35857.79052947481      -35857.79052947481         42     0.008875302365223648     0.02789842330976733
        11                   0.0011                       0      -615.7005276073518           516.083297278                       0      -35857.79052947481      -35857.79052947481         42     0.008875302365223648     0.02789842330976733
WARNING: Pair style restartinfo set but has no restart support (src/pair.cpp:754)
WARNING: Pair style restartinfo set but has no restart support (src/pair.cpp:754)
        11                   0.0011                       0      -615.7005276073518           521.834955409                       0      -35857.79052947481      -35857.79052947481         42     0.008875302365223648     0.02789842330976733
        11                   0.0011                       0      -615.7005276073518           521.834955409                       0      -35857.79052947481      -35857.79052947481         42     0.008875302365223648     0.02789842330976733
WARNING: Pair style restartinfo set but has no restart support (src/pair.cpp:754)
WARNING: Pair style restartinfo set but has no restart support (src/pair.cpp:754)
        11                   0.0011                       0      -615.7005276073518           522.275959569                       0      -35857.79052947481      -35857.79052947481         42     0.008875302365223648     0.02789842330976733
        11                   0.0011                       0      -615.7005276073518           522.275959569                       0      -35857.79052947481      -35857.79052947481         42     0.008875302365223648     0.02789842330976733
WARNING: Pair style restartinfo set but has no restart support (src/pair.cpp:754)
WARNING: Pair style restartinfo set but has no restart support (src/pair.cpp:754)
        12                   0.0012                       0      -578.8933174612445           566.427530673                       0      -35857.79059150051      -35857.79059150051         42     0.009134155173184106     0.03513501912649677
        12                   0.0012                       0      -578.8933174612445           566.427530673                       0      -35857.79059150051      -35857.79059150051         42     0.009134155173184106     0.03513501912649677
WARNING: Pair style restartinfo set but has no restart support (src/pair.cpp:754)
WARNING: Pair style restartinfo set but has no restart support (src/pair.cpp:754)
        12                   0.0012                       0      -578.8933174612445       567.0043382570001                       0      -35857.79059150051      -35857.79059150051         42     0.009134155173184106     0.03513501912649677
        12                   0.0012                       0      -578.8933174612445       567.0043382570001                       0      -35857.79059150051      -35857.79059150051         42     0.009134155173184106     0.03513501912649677
WARNING: Pair style restartinfo set but has no restart support (src/pair.cpp:754)
WARNING: Pair style restartinfo set but has no restart support (src/pair.cpp:754)
        12                   0.0012                       0      -578.8933174612445       573.3490493830001                       0      -35857.79059150051      -35857.79059150051         42     0.009134155173184106     0.03513501912649677
        12                   0.0012                       0      -578.8933174612445       573.3490493830001                       0      -35857.79059150051      -35857.79059150051         42     0.009134155173184106     0.03513501912649677
WARNING: Pair style restartinfo set but has no restart support (src/pair.cpp:754)
WARNING: Pair style restartinfo set but has no restart support (src/pair.cpp:754)
        12                   0.0012                       0      -578.8933174612445           573.564866567                       0      -35857.79059150051      -35857.79059150051         42     0.009134155173184106     0.03513501912649677
        12                   0.0012                       0      -578.8933174612445           573.564866567                       0      -35857.79059150051      -35857.79059150051         42     0.009134155173184106     0.03513501912649677
WARNING: Pair style restartinfo set but has no restart support (src/pair.cpp:754)
WARNING: Pair style restartinfo set but has no restart support (src/pair.cpp:754)
        13                   0.0013                       0       -583.401647651002           617.221401765                       0      -35857.79062292874      -35857.79062292874         42     0.006154847937790259     0.02262965238544615
        13                   0.0013                       0       -583.401647651002           617.221401765                       0      -35857.79062292874      -35857.79062292874         42     0.006154847937790259     0.02262965238544615
WARNING: Pair style restartinfo set but has no restart support (src/pair.cpp:754)
WARNING: Pair style restartinfo set but has no restart support (src/pair.cpp:754)
        13                   0.0013                       0       -583.401647651002           617.848749138                       0      -35857.79062292874      -35857.79062292874         42     0.006154847937790259     0.02262965238544615
        13                   0.0013                       0       -583.401647651002           617.848749138                       0      -35857.79062292874      -35857.79062292874         42     0.006154847937790259     0.02262965238544615
WARNING: Pair style restartinfo set but has no restart support (src/pair.cpp:754)
WARNING: Pair style restartinfo set but has no restart support (src/pair.cpp:754)
        13                   0.0013                       0       -583.401647651002           624.814727991                       0      -35857.79062292874      -35857.79062292874         42     0.006154847937790259     0.02262965238544615
        13                   0.0013                       0       -583.401647651002           624.814727991                       0      -35857.79062292874      -35857.79062292874         42     0.006154847937790259     0.02262965238544615
WARNING: Pair style restartinfo set but has no restart support (src/pair.cpp:754)
WARNING: Pair style restartinfo set but has no restart support (src/pair.cpp:754)
        13                   0.0013                       0       -583.401647651002           625.058120865                       0      -35857.79062292874      -35857.79062292874         42     0.006154847937790259     0.02262965238544615
        13                   0.0013                       0       -583.401647651002           625.058120865                       0      -35857.79062292874      -35857.79062292874         42     0.006154847937790259     0.02262965238544615
WARNING: Pair style restartinfo set but has no restart support (src/pair.cpp:754)
WARNING: Pair style restartinfo set but has no restart support (src/pair.cpp:754)
        14                   0.0014                       0      -596.5029679898322           668.150766023                       0      -35857.79064234366      -35857.79064234366         42     0.004400431379932995     0.01722239541035317
        14                   0.0014                       0      -596.5029679898322           668.150766023                       0      -35857.79064234366      -35857.79064234366         42     0.004400431379932995     0.01722239541035317
WARNING: Pair style restartinfo set but has no restart support (src/pair.cpp:754)
WARNING: Pair style restartinfo set but has no restart support (src/pair.cpp:754)
        14                   0.0014                       0      -596.5029679898322       668.7257310130001                       0      -35857.79064234366      -35857.79064234366         42     0.004400431379932995     0.01722239541035317
        14                   0.0014                       0      -596.5029679898322       668.7257310130001                       0      -35857.79064234366      -35857.79064234366         42     0.004400431379932995     0.01722239541035317
WARNING: Pair style restartinfo set but has no restart support (src/pair.cpp:754)
WARNING: Pair style restartinfo set but has no restart support (src/pair.cpp:754)
        14                   0.0014                       0      -596.5029679898322           676.143533146                       0      -35857.79064234366      -35857.79064234366         42     0.004400431379932995     0.01722239541035317
        14                   0.0014                       0      -596.5029679898322           676.143533146                       0      -35857.79064234366      -35857.79064234366         42     0.004400431379932995     0.01722239541035317
WARNING: Pair style restartinfo set but has no restart support (src/pair.cpp:754)
WARNING: Pair style restartinfo set but has no restart support (src/pair.cpp:754)
        14                   0.0014                       0      -596.5029679898322           676.584764193                       0      -35857.79064234366      -35857.79064234366         42     0.004400431379932995     0.01722239541035317
        14                   0.0014                       0      -596.5029679898322           676.584764193                       0      -35857.79064234366      -35857.79064234366         42     0.004400431379932995     0.01722239541035317
WARNING: Pair style restartinfo set but has no restart support (src/pair.cpp:754)
WARNING: Pair style restartinfo set but has no restart support (src/pair.cpp:754)
        15                   0.0015                       0      -579.5775499005362           718.992014454                       0      -35857.79065803626      -35857.79065803626         42     0.003076066894658433     0.01067123459882565
        15                   0.0015                       0      -579.5775499005362           718.992014454                       0      -35857.79065803626      -35857.79065803626         42     0.003076066894658433     0.01067123459882565
WARNING: Pair style restartinfo set but has no restart support (src/pair.cpp:754)
WARNING: Pair style restartinfo set but has no restart support (src/pair.cpp:754)
        15                   0.0015                       0      -579.5775499005362           719.625517874                       0      -35857.79065803626      -35857.79065803626         42     0.003076066894658433     0.01067123459882565
        15                   0.0015                       0      -579.5775499005362           719.625517874                       0      -35857.79065803626      -35857.79065803626         42     0.003076066894658433     0.01067123459882565
WARNING: Pair style restartinfo set but has no restart support (src/pair.cpp:754)
WARNING: Pair style restartinfo set but has no restart support (src/pair.cpp:754)
        15                   0.0015                       0      -579.5775499005362       727.6821572680001                       0      -35857.79065803626      -35857.79065803626         42     0.003076066894658433     0.01067123459882565
        15                   0.0015                       0      -579.5775499005362       727.6821572680001                       0      -35857.79065803626      -35857.79065803626         42     0.003076066894658433     0.01067123459882565
WARNING: Pair style restartinfo set but has no restart support (src/pair.cpp:754)
WARNING: Pair style restartinfo set but has no restart support (src/pair.cpp:754)
        15                   0.0015                       0      -579.5775499005362           728.047771499                       0      -35857.79065803626      -35857.79065803626         42     0.003076066894658433     0.01067123459882565
        15                   0.0015                       0      -579.5775499005362           728.047771499                       0      -35857.79065803626      -35857.79065803626         42     0.003076066894658433     0.01067123459882565
WARNING: Pair style restartinfo set but has no restart support (src/pair.cpp:754)
WARNING: Pair style restartinfo set but has no restart support (src/pair.cpp:754)
        16                   0.0016                       0      -570.6568408422344           769.608429143                       0      -35857.79066139647      -35857.79066139647         42     0.000862601457640403    0.004063088100478156
        16                   0.0016                       0      -570.6568408422344           769.608429143                       0      -35857.79066139647      -35857.79066139647         42     0.000862601457640403    0.004063088100478156
WARNING: Pair style restartinfo set but has no restart support (src/pair.cpp:754)
WARNING: Pair style restartinfo set but has no restart support (src/pair.cpp:754)
        16                   0.0016                       0      -570.6568408422344           770.333893349                       0      -35857.79066139647      -35857.79066139647         42     0.000862601457640403    0.004063088100478156
        16                   0.0016                       0      -570.6568408422344           770.333893349                       0      -35857.79066139647      -35857.79066139647         42     0.000862601457640403    0.004063088100478156
WARNING: Pair style restartinfo set but has no restart support (src/pair.cpp:754)
WARNING: Pair style restartinfo set but has no restart support (src/pair.cpp:754)
        16                   0.0016                       0      -570.6568408422344           779.105209578                       0      -35857.79066139647      -35857.79066139647         42     0.000862601457640403    0.004063088100478156
        16                   0.0016                       0      -570.6568408422344           779.105209578                       0      -35857.79066139647      -35857.79066139647         42     0.000862601457640403    0.004063088100478156
WARNING: Pair style restartinfo set but has no restart support (src/pair.cpp:754)
WARNING: Pair style restartinfo set but has no restart support (src/pair.cpp:754)
        16                   0.0016                       0      -570.6568408422344       779.5047210299999                       0      -35857.79066139647      -35857.79066139647         42     0.000862601457640403    0.004063088100478156
        16                   0.0016                       0      -570.6568408422344       779.5047210299999                       0      -35857.79066139647      -35857.79066139647         42     0.000862601457640403    0.004063088100478156
WARNING: Pair style restartinfo set but has no restart support (src/pair.cpp:754)
WARNING: Pair style restartinfo set but has no restart support (src/pair.cpp:754)
        17                   0.0017                       0       -571.906802688305       820.2294779499999                       0      -35857.79066188217      -35857.79066188217         42    0.0005722834638024294    0.002413189258492678
        17                   0.0017                       0       -571.906802688305       820.2294779499999                       0      -35857.79066188217      -35857.79066188217         42    0.0005722834638024294    0.002413189258492678
WARNING: Pair style restartinfo set but has no restart support (src/pair.cpp:754)
WARNING: Pair style restartinfo set but has no restart support (src/pair.cpp:754)
        17                   0.0017                       0       -571.906802688305           820.915546231                       0      -35857.79066188217      -35857.79066188217         42    0.0005722834638024294    0.002413189258492678
        17                   0.0017                       0       -571.906802688305           820.915546231                       0      -35857.79066188217      -35857.79066188217         42    0.0005722834638024294    0.002413189258492678
WARNING: Pair style restartinfo set but has no restart support (src/pair.cpp:754)
WARNING: Pair style restartinfo set but has no restart support (src/pair.cpp:754)
        17                   0.0017                       0       -571.906802688305           830.405072698                       0      -35857.79066188217      -35857.79066188217         42    0.0005722834638024294    0.002413189258492678
        17                   0.0017                       0       -571.906802688305           830.405072698                       0      -35857.79066188217      -35857.79066188217         42    0.0005722834638024294    0.002413189258492678
WARNING: Pair style restartinfo set but has no restart support (src/pair.cpp:754)
WARNING: Pair style restartinfo set but has no restart support (src/pair.cpp:754)
        17                   0.0017                       0       -571.906802688305       830.9297851179999                       0      -35857.79066188217      -35857.79066188217         42    0.0005722834638024294    0.002413189258492678
        17                   0.0017                       0       -571.906802688305       830.9297851179999                       0      -35857.79066188217      -35857.79066188217         42    0.0005722834638024294    0.002413189258492678
WARNING: Pair style restartinfo set but has no restart support (src/pair.cpp:754)
WARNING: Pair style restartinfo set but has no restart support (src/pair.cpp:754)
        18                   0.0018                       0      -572.7754119739562       896.4884708459999                       0      -35857.79066198595      -35857.79066198595         42    0.0002443299417728105   0.0009817876206795757
        18                   0.0018                       0      -572.7754119739562       896.4884708459999                       0      -35857.79066198595      -35857.79066198595         42    0.0002443299417728105   0.0009817876206795757
Loop time of 896.488 on 12 procs for 18 steps with 42 atoms

Loop time of 896.488 on 12 procs for 18 steps with 42 atoms

677.5% CPU use with 1 MPI tasks x 12 OpenMP threads
677.5% CPU use with 1 MPI tasks x 12 OpenMP threads

Minimization stats:
  Stopping criterion = force tolerance
  Energy initial, next-to-last, final = 
     -35842.4725172227  -35857.7906618822  -35857.7906619859
  Force two-norm initial, final = 22.144856 0.00098178762
  Force max component initial, final = 4.6067591 0.00024432994
  Final line search alpha, max atom move = 1 0.00024432994
  Iterations, force evaluations = 18 34

Minimization stats:
  Stopping criterion = force tolerance
  Energy initial, next-to-last, final = 
     -35842.4725172227  -35857.7906618822  -35857.7906619859
  Force two-norm initial, final = 22.144856 0.00098178762
  Force max component initial, final = 4.6067591 0.00024432994
  Final line search alpha, max atom move = 1 0.00024432994
  Iterations, force evaluations = 18 34

MPI task timing breakdown:
Section |  min time  |  avg time  |  max time  |%varavg| %total
---------------------------------------------------------------

MPI task timing breakdown:
Section |  min time  |  avg time  |  max time  |%varavg| %total
---------------------------------------------------------------
Pair    | 895.81     | 895.81     | 895.81     |   0.0 | 99.92
Pair    | 895.81     | 895.81     | 895.81     |   0.0 | 99.92
Neigh   | 0.56835    | 0.56835    | 0.56835    |   0.0 |  0.06
Neigh   | 0.56835    | 0.56835    | 0.56835    |   0.0 |  0.06
Comm    | 0.0025221  | 0.0025221  | 0.0025221  |   0.0 |  0.00
Comm    | 0.0025221  | 0.0025221  | 0.0025221  |   0.0 |  0.00
Output  | 0.099246   | 0.099246   | 0.099246   |   0.0 |  0.01
Output  | 0.099246   | 0.099246   | 0.099246   |   0.0 |  0.01
Modify  | 0          | 0          | 0          |   0.0 |  0.00
Modify  | 0          | 0          | 0          |   0.0 |  0.00
Other   |            | 0.01019    |            |       |  0.00
Other   |            | 0.01019    |            |       |  0.00

Nlocal:             42 ave          42 max          42 min
Histogram: 1 0 0 0 0 0 0 0 0 0
Nghost:           2946 ave        2946 max        2946 min
Histogram: 1 0 0 0 0 0 0 0 0 0
Neighs:              0 ave           0 max           0 min
Histogram: 1 0 0 0 0 0 0 0 0 0
FullNghs:        26996 ave       26996 max       26996 min
Histogram: 1 0 0 0 0 0 0 0 0 0

Nlocal:             42 ave          42 max          42 min
Histogram: 1 0 0 0 0 0 0 0 0 0
Nghost:           2946 ave        2946 max        2946 min
Histogram: 1 0 0 0 0 0 0 0 0 0
Neighs:              0 ave           0 max           0 min
Histogram: 1 0 0 0 0 0 0 0 0 0
FullNghs:        26996 ave       26996 max       26996 min
Histogram: 1 0 0 0 0 0 0 0 0 0


Total # of neighbors = 26996
Ave neighs/atom = 642.7619
Neighbor list builds = 35
Dangerous builds = 0
Total # of neighbors = 26996
Ave neighs/atom = 642.7619
Neighbor list builds = 35
Dangerous builds = 0
write_dump all xyz /home/theory/phrrpq/bilayer_relaxations/MoS2_MoS2/AP/1/MoS2_MoS2_AP_1.xyz modify sort id pbc yes element Mo S

Total wall time: 0:15:46
Total wall time: 0:15:46
WARNING: Pair style restartinfo set but has no restart support (src/pair.cpp:754)
WARNING: Pair style restartinfo set but has no restart support (src/pair.cpp:754)
        18                   0.0018                       0      -572.7754119739562           897.006170621                       0      -35857.79066198595      -35857.79066198595         42    0.0002443299417728105   0.0009817876206795757
        18                   0.0018                       0      -572.7754119739562           897.006170621                       0      -35857.79066198595      -35857.79066198595         42    0.0002443299417728105   0.0009817876206795757
Loop time of 897.006 on 12 procs for 18 steps with 42 atoms

Loop time of 897.006 on 12 procs for 18 steps with 42 atoms

672.3% CPU use with 1 MPI tasks x 12 OpenMP threads
672.3% CPU use with 1 MPI tasks x 12 OpenMP threads

Minimization stats:
  Stopping criterion = force tolerance
  Energy initial, next-to-last, final = 
     -35842.4725172227  -35857.7906618822  -35857.7906619859
  Force two-norm initial, final = 22.144856 0.00098178762
  Force max component initial, final = 4.6067591 0.00024432994
  Final line search alpha, max atom move = 1 0.00024432994
  Iterations, force evaluations = 18 34

Minimization stats:
  Stopping criterion = force tolerance
  Energy initial, next-to-last, final = 
     -35842.4725172227  -35857.7906618822  -35857.7906619859
  Force two-norm initial, final = 22.144856 0.00098178762
  Force max component initial, final = 4.6067591 0.00024432994
  Final line search alpha, max atom move = 1 0.00024432994
  Iterations, force evaluations = 18 34

MPI task timing breakdown:
Section |  min time  |  avg time  |  max time  |%varavg| %total
---------------------------------------------------------------

MPI task timing breakdown:
Section |  min time  |  avg time  |  max time  |%varavg| %total
---------------------------------------------------------------
Pair    | 896.33     | 896.33     | 896.33     |   0.0 | 99.92
Pair    | 896.33     | 896.33     | 896.33     |   0.0 | 99.92
Neigh   | 0.57713    | 0.57713    | 0.57713    |   0.0 |  0.06
Neigh   | 0.57713    | 0.57713    | 0.57713    |   0.0 |  0.06
Comm    | 0.0030456  | 0.0030456  | 0.0030456  |   0.0 |  0.00
Comm    | 0.0030456  | 0.0030456  | 0.0030456  |   0.0 |  0.00
Output  | 0.08993    | 0.08993    | 0.08993    |   0.0 |  0.01
Output  | 0.08993    | 0.08993    | 0.08993    |   0.0 |  0.01
Modify  | 0          | 0          | 0          |   0.0 |  0.00
Modify  | 0          | 0          | 0          |   0.0 |  0.00
Other   |            | 0.002748   |            |       |  0.00
Other   |            | 0.002748   |            |       |  0.00

Nlocal:             42 ave          42 max          42 min
Histogram: 1 0 0 0 0 0 0 0 0 0
Nghost:           2946 ave        2946 max        2946 min
Histogram: 1 0 0 0 0 0 0 0 0 0
Neighs:              0 ave           0 max           0 min
Histogram: 1 0 0 0 0 0 0 0 0 0
FullNghs:        26996 ave       26996 max       26996 min
Histogram: 1 0 0 0 0 0 0 0 0 0

Nlocal:             42 ave          42 max          42 min
Histogram: 1 0 0 0 0 0 0 0 0 0
Nghost:           2946 ave        2946 max        2946 min
Histogram: 1 0 0 0 0 0 0 0 0 0
Neighs:              0 ave           0 max           0 min
Histogram: 1 0 0 0 0 0 0 0 0 0
FullNghs:        26996 ave       26996 max       26996 min
Histogram: 1 0 0 0 0 0 0 0 0 0


Total # of neighbors = 26996
Ave neighs/atom = 642.7619
Neighbor list builds = 35
Dangerous builds = 0
Total # of neighbors = 26996
Ave neighs/atom = 642.7619
Neighbor list builds = 35
Dangerous builds = 0
write_dump all xyz /home/theory/phrrpq/bilayer_relaxations/MoS2_MoS2/AP/1/MoS2_MoS2_AP_1.xyz modify sort id pbc yes element Mo S

Total wall time: 0:15:47
Total wall time: 0:15:47
WARNING: Pair style restartinfo set but has no restart support (src/pair.cpp:754)
WARNING: Pair style restartinfo set but has no restart support (src/pair.cpp:754)
        18                   0.0018                       0      -572.7754119739562       907.5785189960001                       0      -35857.79066198595      -35857.79066198595         42    0.0002443299417728105   0.0009817876206795757
        18                   0.0018                       0      -572.7754119739562       907.5785189960001                       0      -35857.79066198595      -35857.79066198595         42    0.0002443299417728105   0.0009817876206795757
Loop time of 907.579 on 12 procs for 18 steps with 42 atoms

Loop time of 907.579 on 12 procs for 18 steps with 42 atoms

678.4% CPU use with 1 MPI tasks x 12 OpenMP threads
678.4% CPU use with 1 MPI tasks x 12 OpenMP threads

Minimization stats:
  Stopping criterion = force tolerance
  Energy initial, next-to-last, final = 
     -35842.4725172227  -35857.7906618822  -35857.7906619859
  Force two-norm initial, final = 22.144856 0.00098178762
  Force max component initial, final = 4.6067591 0.00024432994
  Final line search alpha, max atom move = 1 0.00024432994
  Iterations, force evaluations = 18 34

Minimization stats:
  Stopping criterion = force tolerance
  Energy initial, next-to-last, final = 
     -35842.4725172227  -35857.7906618822  -35857.7906619859
  Force two-norm initial, final = 22.144856 0.00098178762
  Force max component initial, final = 4.6067591 0.00024432994
  Final line search alpha, max atom move = 1 0.00024432994
  Iterations, force evaluations = 18 34

MPI task timing breakdown:
Section |  min time  |  avg time  |  max time  |%varavg| %total
---------------------------------------------------------------

MPI task timing breakdown:
Section |  min time  |  avg time  |  max time  |%varavg| %total
---------------------------------------------------------------
Pair    | 906.98     | 906.98     | 906.98     |   0.0 | 99.93
Pair    | 906.98     | 906.98     | 906.98     |   0.0 | 99.93
Neigh   | 0.56788    | 0.56788    | 0.56788    |   0.0 |  0.06
Neigh   | 0.56788    | 0.56788    | 0.56788    |   0.0 |  0.06
Comm    | 0.0024043  | 0.0024043  | 0.0024043  |   0.0 |  0.00
Comm    | 0.0024043  | 0.0024043  | 0.0024043  |   0.0 |  0.00
Output  | 0.024685   | 0.024685   | 0.024685   |   0.0 |  0.00
Output  | 0.024685   | 0.024685   | 0.024685   |   0.0 |  0.00
Modify  | 0          | 0          | 0          |   0.0 |  0.00
Modify  | 0          | 0          | 0          |   0.0 |  0.00
Other   |            | 0.00296    |            |       |  0.00
Other   |            | 0.00296    |            |       |  0.00

Nlocal:             42 ave          42 max          42 min
Histogram: 1 0 0 0 0 0 0 0 0 0
Nghost:           2946 ave        2946 max        2946 min
Histogram: 1 0 0 0 0 0 0 0 0 0
Neighs:              0 ave           0 max           0 min
Histogram: 1 0 0 0 0 0 0 0 0 0
FullNghs:        26996 ave       26996 max       26996 min
Histogram: 1 0 0 0 0 0 0 0 0 0

Nlocal:             42 ave          42 max          42 min
Histogram: 1 0 0 0 0 0 0 0 0 0
Nghost:           2946 ave        2946 max        2946 min
Histogram: 1 0 0 0 0 0 0 0 0 0
Neighs:              0 ave           0 max           0 min
Histogram: 1 0 0 0 0 0 0 0 0 0
FullNghs:        26996 ave       26996 max       26996 min
Histogram: 1 0 0 0 0 0 0 0 0 0


Total # of neighbors = 26996
Ave neighs/atom = 642.7619
Neighbor list builds = 35
Dangerous builds = 0
Total # of neighbors = 26996
Ave neighs/atom = 642.7619
Neighbor list builds = 35
Dangerous builds = 0
write_dump all xyz /home/theory/phrrpq/bilayer_relaxations/MoS2_MoS2/AP/1/MoS2_MoS2_AP_1.xyz modify sort id pbc yes element Mo S

Total wall time: 0:15:58
Total wall time: 0:15:58
WARNING: Pair style restartinfo set but has no restart support (src/pair.cpp:754)
WARNING: Pair style restartinfo set but has no restart support (src/pair.cpp:754)
        18                   0.0018                       0      -572.7754119739562           907.985644664                       0      -35857.79066198595      -35857.79066198595         42    0.0002443299417728105   0.0009817876206795757
        18                   0.0018                       0      -572.7754119739562           907.985644664                       0      -35857.79066198595      -35857.79066198595         42    0.0002443299417728105   0.0009817876206795757
Loop time of 907.986 on 12 procs for 18 steps with 42 atoms

Loop time of 907.986 on 12 procs for 18 steps with 42 atoms

674.3% CPU use with 1 MPI tasks x 12 OpenMP threads
674.3% CPU use with 1 MPI tasks x 12 OpenMP threads

Minimization stats:
  Stopping criterion = force tolerance
  Energy initial, next-to-last, final = 
     -35842.4725172227  -35857.7906618822  -35857.7906619859
  Force two-norm initial, final = 22.144856 0.00098178762
  Force max component initial, final = 4.6067591 0.00024432994
  Final line search alpha, max atom move = 1 0.00024432994
  Iterations, force evaluations = 18 34

Minimization stats:
  Stopping criterion = force tolerance
  Energy initial, next-to-last, final = 
     -35842.4725172227  -35857.7906618822  -35857.7906619859
  Force two-norm initial, final = 22.144856 0.00098178762
  Force max component initial, final = 4.6067591 0.00024432994
  Final line search alpha, max atom move = 1 0.00024432994
  Iterations, force evaluations = 18 34

MPI task timing breakdown:
Section |  min time  |  avg time  |  max time  |%varavg| %total
---------------------------------------------------------------

MPI task timing breakdown:
Section |  min time  |  avg time  |  max time  |%varavg| %total
---------------------------------------------------------------
Pair    | 907.4      | 907.4      | 907.4      |   0.0 | 99.94
Pair    | 907.4      | 907.4      | 907.4      |   0.0 | 99.94
Neigh   | 0.57081    | 0.57081    | 0.57081    |   0.0 |  0.06
Neigh   | 0.57081    | 0.57081    | 0.57081    |   0.0 |  0.06
Comm    | 0.0030381  | 0.0030381  | 0.0030381  |   0.0 |  0.00
Comm    | 0.0030381  | 0.0030381  | 0.0030381  |   0.0 |  0.00
Output  | 0.012282   | 0.012282   | 0.012282   |   0.0 |  0.00
Output  | 0.012282   | 0.012282   | 0.012282   |   0.0 |  0.00
Modify  | 0          | 0          | 0          |   0.0 |  0.00
Modify  | 0          | 0          | 0          |   0.0 |  0.00
Other   |            | 0.002349   |            |       |  0.00
Other   |            | 0.002349   |            |       |  0.00

Nlocal:             42 ave          42 max          42 min
Histogram: 1 0 0 0 0 0 0 0 0 0
Nghost:           2946 ave        2946 max        2946 min
Histogram: 1 0 0 0 0 0 0 0 0 0
Neighs:              0 ave           0 max           0 min
Histogram: 1 0 0 0 0 0 0 0 0 0
FullNghs:        26996 ave       26996 max       26996 min
Histogram: 1 0 0 0 0 0 0 0 0 0

Nlocal:             42 ave          42 max          42 min
Histogram: 1 0 0 0 0 0 0 0 0 0
Nghost:           2946 ave        2946 max        2946 min
Histogram: 1 0 0 0 0 0 0 0 0 0
Neighs:              0 ave           0 max           0 min
Histogram: 1 0 0 0 0 0 0 0 0 0
FullNghs:        26996 ave       26996 max       26996 min
Histogram: 1 0 0 0 0 0 0 0 0 0


Total # of neighbors = 26996
Ave neighs/atom = 642.7619
Neighbor list builds = 35
Dangerous builds = 0
Total # of neighbors = 26996
Ave neighs/atom = 642.7619
Neighbor list builds = 35
Dangerous builds = 0
write_dump all xyz /home/theory/phrrpq/bilayer_relaxations/MoS2_MoS2/AP/1/MoS2_MoS2_AP_1.xyz modify sort id pbc yes element Mo S

Total wall time: 0:15:59
Total wall time: 0:15:59
