OMP_THREADS: 12
MPI: 1
NTASKS-PER-NODE: 4
CPUS_PER_TASK: 12
LAMMPS (28 Mar 2023 - Development)
  using 12 OpenMP thread(s) per MPI task
  using 12 OpenMP thread(s) per MPI task
Reading data file ...
  triclinic box = (0 0 0) to (19.39552 16.797013 30) with tilt (-9.69776 0 0)
WARNING: Triclinic box skew is large. LAMMPS will run inefficiently. (src/domain.cpp:220)
  1 by 2 by 2 MPI processor grid
  reading atoms ...
  222 atoms
  read_data CPU = 0.018 seconds
CUDA unavailable, setting device type to torch::kCPU.
CUDA unavailable, setting device type to torch::kCPU.
CUDA unavailable, setting device type to torch::kCPU.
CUDA unavailable, setting device type to torch::kCPU.
Loading MACE model from "/home/theory/phrrpq/bilayer_relaxations/MoWSSe_bi_radius_8_reduced_all_1_swa_800_run-123_swa.model-lammps.pt" ... finished.
Loading MACE model from "/home/theory/phrrpq/bilayer_relaxations/MoWSSe_bi_radius_8_reduced_all_1_swa_800_run-123_swa.model-lammps.pt" ... finished.
Loading MACE model from "/home/theory/phrrpq/bilayer_relaxations/MoWSSe_bi_radius_8_reduced_all_1_swa_800_run-123_swa.model-lammps.pt" ... finished.
Loading MACE model from "/home/theory/phrrpq/bilayer_relaxations/MoWSSe_bi_radius_8_reduced_all_1_swa_800_run-123_swa.model-lammps.pt" ... finished.
  - The torch_float_dtype is: Double
  - The torch_float_dtype is: Double
  - The torch_float_dtype is: Double
  - The r_max is: 8.
  - The r_max is: 8.
  - The model has: 2 layers.
  - The model has: 2 layers.
  - The r_max is: 8.
  - The model has: 2 layers.
  - The torch_float_dtype is: Double
  - The r_max is: 8.
  - The model has: 2 layers.
  - The model atomic numbers are: 16 34 42 74.
  - The pair_coeff atomic numbers are: 42 16 74 16.
  - The model atomic numbers are: 16 34 42 74.
  - The pair_coeff atomic numbers are: 42 16 74 16.
  - The model atomic numbers are: 16 34 42 74.
  - The pair_coeff atomic numbers are: 42 16 74 16.
  - The model atomic numbers are: 16 34 42 74.
  - The pair_coeff atomic numbers are: 42 16 74 16.
Generated 0 of 3 mixed pair_coeff terms from geometric mixing rule
Neighbor list info ...
  update: every = 1 steps, delay = 0 steps, check = yes
  max neighbors/atom: 2000, page size: 100000
  master list distance cutoff = 18
  ghost atom cutoff = 18
  binsize = 9, bins = 4 2 4
  1 neighbor lists, perpetual/occasional/extra = 1 0 0
  (1) pair mace, perpetual
      attributes: full, newton on, ghost
      pair build: full/bin/ghost
      stencil: full/ghost/bin/3d
      bin: standard
Setting up Verlet run ...
  Unit style    : metal
  Current step  : 0
  Time step     : 0.0001
Per MPI rank memory allocation (min/avg/max) = 17.03 | 18.37 | 19.71 Mbytes
   Step          Time           Temp          Press           CPU           KinEng         PotEng         TotEng        Atoms         Fmax          Fnorm     
         0                        0                       0       6144.212974353971                       0                       0      -199557.7615250146      -199557.7615250146        222        3.745517141429354       35.29055446151666
Loop time of 2.484e-06 on 48 procs for 0 steps with 222 atoms

90.6% CPU use with 4 MPI tasks x 12 OpenMP threads

MPI task timing breakdown:
Section |  min time  |  avg time  |  max time  |%varavg| %total
---------------------------------------------------------------
Pair    | 0          | 0          | 0          |   0.0 |  0.00
Neigh   | 0          | 0          | 0          |   0.0 |  0.00
Comm    | 0          | 0          | 0          |   0.0 |  0.00
Output  | 0          | 0          | 0          |   0.0 |  0.00
Modify  | 0          | 0          | 0          |   0.0 |  0.00
Other   |            | 2.484e-06  |            |       |100.00

Nlocal:           55.5 ave          93 max          18 min
Histogram: 2 0 0 0 0 0 0 0 0 2
Nghost:           3169 ave        3670 max        2668 min
Histogram: 2 0 0 0 0 0 0 0 0 2
Neighs:              0 ave           0 max           0 min
Histogram: 4 0 0 0 0 0 0 0 0 0
FullNghs:      35747.5 ave       60388 max       11141 min
Histogram: 2 0 0 0 0 0 0 0 0 2

Total # of neighbors = 142990
Ave neighs/atom = 644.0991
Neighbor list builds = 0
Dangerous builds = 0
BEGIN LAMMPS STANDALONE MINIMIZATION; ii = 3; OMP = 12; MPI = 4
minimize 0.0 1e-3 1000 100000
Generated 0 of 3 mixed pair_coeff terms from geometric mixing rule
Generated 0 of 3 mixed pair_coeff terms from geometric mixing rule
Setting up cg style minimization ...
  Unit style    : metal
  Current step  : 0
Per MPI rank memory allocation (min/avg/max) = 18.16 | 19.49 | 20.83 Mbytes
Per MPI rank memory allocation (min/avg/max) = 18.16 | 19.49 | 20.83 Mbytes
   Step          Time           Temp          Press           CPU           KinEng         PotEng         TotEng        Atoms         Fmax          Fnorm     
   Step          Time           Temp          Press           CPU           KinEng         PotEng         TotEng        Atoms         Fmax          Fnorm     
         0                        0                       0       6144.212974353972                       0                       0      -199557.7615250146      -199557.7615250146        222        3.745517141429349       35.29055446151665
         0                        0                       0       6144.212974353972                       0                       0      -199557.7615250146      -199557.7615250146        222        3.745517141429349       35.29055446151665
WARNING: Pair style restartinfo set but has no restart support (src/pair.cpp:754)
WARNING: Pair style restartinfo set but has no restart support (src/pair.cpp:754)
         1                   0.0001                       0      -3736.757861161247       42.90450881899999                       0      -199578.4757564068      -199578.4757564068        222        1.069880199009186       9.250108458381366
         1                   0.0001                       0      -3736.757861161247       42.90450881899999                       0      -199578.4757564068      -199578.4757564068        222        1.069880199009186       9.250108458381366
WARNING: Pair style restartinfo set but has no restart support (src/pair.cpp:754)
WARNING: Pair style restartinfo set but has no restart support (src/pair.cpp:754)
         2                   0.0002                       0      -2380.297496132746            128.50443422                       0      -199580.0255821461      -199580.0255821461        222       0.1948110438522474       1.337297365352991
         2                   0.0002                       0      -2380.297496132746            128.50443422                       0      -199580.0255821461      -199580.0255821461        222       0.1948110438522474       1.337297365352991
WARNING: Pair style restartinfo set but has no restart support (src/pair.cpp:754)
WARNING: Pair style restartinfo set but has no restart support (src/pair.cpp:754)
         3                   0.0003                       0      -894.0053407879926           214.081405912                       0      -199580.0719374151      -199580.0719374151        222      0.04853001907420614      0.3758870704983521
         3                   0.0003                       0      -894.0053407879926           214.081405912                       0      -199580.0719374151      -199580.0719374151        222      0.04853001907420614      0.3758870704983521
WARNING: Pair style restartinfo set but has no restart support (src/pair.cpp:754)
WARNING: Pair style restartinfo set but has no restart support (src/pair.cpp:754)
         4                   0.0004                       0      -654.7065900496985           299.566097394                       0      -199580.0784788679      -199580.0784788679        222      0.05186813897494026      0.4438879337050521
         4                   0.0004                       0      -654.7065900496985           299.566097394                       0      -199580.0784788679      -199580.0784788679        222      0.05186813897494026      0.4438879337050521
WARNING: Pair style restartinfo set but has no restart support (src/pair.cpp:754)
WARNING: Pair style restartinfo set but has no restart support (src/pair.cpp:754)
         5                   0.0005                       0      -332.7223098872676           385.363418133                       0      -199580.1013174241      -199580.1013174241        222      0.07513967528687808      0.6369273206318506
         5                   0.0005                       0      -332.7223098872676           385.363418133                       0      -199580.1013174241      -199580.1013174241        222      0.07513967528687808      0.6369273206318506
WARNING: Pair style restartinfo set but has no restart support (src/pair.cpp:754)
WARNING: Pair style restartinfo set but has no restart support (src/pair.cpp:754)
         6    0.0006000000000000001                       0      -698.6533552467713           471.095995853                       0      -199580.1120376718      -199580.1120376718        222      0.05010152800543842      0.4752077170491017
         6    0.0006000000000000001                       0      -698.6533552467713           471.095995853                       0      -199580.1120376718      -199580.1120376718        222      0.05010152800543842      0.4752077170491017
WARNING: Pair style restartinfo set but has no restart support (src/pair.cpp:754)
WARNING: Pair style restartinfo set but has no restart support (src/pair.cpp:754)
         7                   0.0007                       0      -1043.272331300079           556.960658355                       0      -199580.1171529549      -199580.1171529549        222      0.02702461260402603      0.2360364536293009
         7                   0.0007                       0      -1043.272331300079           556.960658355                       0      -199580.1171529549      -199580.1171529549        222      0.02702461260402603      0.2360364536293009
WARNING: Pair style restartinfo set but has no restart support (src/pair.cpp:754)
WARNING: Pair style restartinfo set but has no restart support (src/pair.cpp:754)
         8                   0.0008                       0      -922.4647453642303           642.723887482                       0      -199580.1200767293      -199580.1200767293        222        0.034285093778363      0.2247098666641183
         8                   0.0008                       0      -922.4647453642303           642.723887482                       0      -199580.1200767293      -199580.1200767293        222        0.034285093778363      0.2247098666641183
WARNING: Pair style restartinfo set but has no restart support (src/pair.cpp:754)
WARNING: Pair style restartinfo set but has no restart support (src/pair.cpp:754)
         9    0.0009000000000000001                       0      -846.5700022528213       728.7656634149999                       0      -199580.1213133456      -199580.1213133456        222      0.01981623990249512      0.1887516536393336
         9    0.0009000000000000001                       0      -846.5700022528213       728.7656634149999                       0      -199580.1213133456      -199580.1213133456        222      0.01981623990249512      0.1887516536393336
WARNING: Pair style restartinfo set but has no restart support (src/pair.cpp:754)
WARNING: Pair style restartinfo set but has no restart support (src/pair.cpp:754)
        10                    0.001                       0      -785.1143307069204           815.005081335                       0       -199580.124464617       -199580.124464617        222      0.02278547278248794      0.1834442630642894
        10                    0.001                       0      -785.1143307069204           815.005081335                       0       -199580.124464617       -199580.124464617        222      0.02278547278248794      0.1834442630642894
WARNING: Pair style restartinfo set but has no restart support (src/pair.cpp:754)
WARNING: Pair style restartinfo set but has no restart support (src/pair.cpp:754)
        11                   0.0011                       0      -875.8443083153542           901.109928964                       0      -199580.1253982981      -199580.1253982981        222      0.01360604648227506      0.1019333742842678
        11                   0.0011                       0      -875.8443083153542           901.109928964                       0      -199580.1253982981      -199580.1253982981        222      0.01360604648227506      0.1019333742842678
WARNING: Pair style restartinfo set but has no restart support (src/pair.cpp:754)
WARNING: Pair style restartinfo set but has no restart support (src/pair.cpp:754)
        12                   0.0012                       0      -960.8740629786275           987.195651094                       0      -199580.1260409795      -199580.1260409795        222      0.02242806689144327      0.1363386405781608
        12                   0.0012                       0      -960.8740629786275           987.195651094                       0      -199580.1260409795      -199580.1260409795        222      0.02242806689144327      0.1363386405781608
WARNING: Pair style restartinfo set but has no restart support (src/pair.cpp:754)
WARNING: Pair style restartinfo set but has no restart support (src/pair.cpp:754)
        13                   0.0013                       0      -927.4721470335809            1073.2663039                       0      -199580.1267947821      -199580.1267947821        222      0.01513010281246468      0.1304542126013594
        13                   0.0013                       0      -927.4721470335809            1073.2663039                       0      -199580.1267947821      -199580.1267947821        222      0.01513010281246468      0.1304542126013594
WARNING: Pair style restartinfo set but has no restart support (src/pair.cpp:754)
WARNING: Pair style restartinfo set but has no restart support (src/pair.cpp:754)
        14                   0.0014                       0      -830.4471605016477          1159.107604729                       0      -199580.1273578072      -199580.1273578072        222     0.008984552409541961     0.07255300906356701
        14                   0.0014                       0      -830.4471605016477          1159.107604729                       0      -199580.1273578072      -199580.1273578072        222     0.008984552409541961     0.07255300906356701
WARNING: Pair style restartinfo set but has no restart support (src/pair.cpp:754)
WARNING: Pair style restartinfo set but has no restart support (src/pair.cpp:754)
        15                   0.0015                       0      -840.4361607219258          1245.010342309                       0      -199580.1275306563      -199580.1275306563        222     0.009953885418535107     0.06582726695235923
        15                   0.0015                       0      -840.4361607219258          1245.010342309                       0      -199580.1275306563      -199580.1275306563        222     0.009953885418535107     0.06582726695235923
WARNING: Pair style restartinfo set but has no restart support (src/pair.cpp:754)
WARNING: Pair style restartinfo set but has no restart support (src/pair.cpp:754)
        16                   0.0016                       0       -864.530989782251           1331.16954063                       0      -199580.1276356986      -199580.1276356986        222     0.005048409374307256     0.03592715526429678
        16                   0.0016                       0       -864.530989782251           1331.16954063                       0      -199580.1276356986      -199580.1276356986        222     0.005048409374307256     0.03592715526429678
WARNING: Pair style restartinfo set but has no restart support (src/pair.cpp:754)
WARNING: Pair style restartinfo set but has no restart support (src/pair.cpp:754)
        17                   0.0017                       0      -862.7169839303235          1417.157272206                       0      -199580.1277991756      -199580.1277991756        222      0.01219735130562164      0.0865818435702958
        17                   0.0017                       0      -862.7169839303235          1417.157272206                       0      -199580.1277991756      -199580.1277991756        222      0.01219735130562164      0.0865818435702958
WARNING: Pair style restartinfo set but has no restart support (src/pair.cpp:754)
WARNING: Pair style restartinfo set but has no restart support (src/pair.cpp:754)
        18                   0.0018                       0      -823.4727533620174          1503.477879312                       0      -199580.1282510499      -199580.1282510499        222      0.01302636758961688      0.0949801615070119
        18                   0.0018                       0      -823.4727533620174          1503.477879312                       0      -199580.1282510499      -199580.1282510499        222      0.01302636758961688      0.0949801615070119
WARNING: Pair style restartinfo set but has no restart support (src/pair.cpp:754)
WARNING: Pair style restartinfo set but has no restart support (src/pair.cpp:754)
        19                   0.0019                       0      -796.2227251692124          1589.639284283                       0      -199580.1285500491      -199580.1285500491        222     0.009770526653896066     0.07879650681310765
        19                   0.0019                       0      -796.2227251692124          1589.639284283                       0      -199580.1285500491      -199580.1285500491        222     0.009770526653896066     0.07879650681310765
WARNING: Pair style restartinfo set but has no restart support (src/pair.cpp:754)
WARNING: Pair style restartinfo set but has no restart support (src/pair.cpp:754)
        20                    0.002                       0      -787.3690512829019          1675.779871659                       0      -199580.1288206716      -199580.1288206716        222     0.009216635970497905     0.06096739655768511
        20                    0.002                       0      -787.3690512829019          1675.779871659                       0      -199580.1288206716      -199580.1288206716        222     0.009216635970497905     0.06096739655768511
WARNING: Pair style restartinfo set but has no restart support (src/pair.cpp:754)
WARNING: Pair style restartinfo set but has no restart support (src/pair.cpp:754)
        21                   0.0021                       0      -787.6782972147453          1761.960401561                       0       -199580.128982571       -199580.128982571        222      0.01204290331616172     0.06130362024839829
        21                   0.0021                       0      -787.6782972147453          1761.960401561                       0       -199580.128982571       -199580.128982571        222      0.01204290331616172     0.06130362024839829
WARNING: Pair style restartinfo set but has no restart support (src/pair.cpp:754)
WARNING: Pair style restartinfo set but has no restart support (src/pair.cpp:754)
        22                   0.0022                       0      -777.2950346321444           1848.30593604                       0      -199580.1291034856      -199580.1291034856        222     0.005678730006105675     0.04513921325739872
        22                   0.0022                       0      -777.2950346321444           1848.30593604                       0      -199580.1291034856      -199580.1291034856        222     0.005678730006105675     0.04513921325739872
WARNING: Pair style restartinfo set but has no restart support (src/pair.cpp:754)
WARNING: Pair style restartinfo set but has no restart support (src/pair.cpp:754)
        23                   0.0023                       0      -762.0937850788069          1934.513627186                       0      -199580.1291715554      -199580.1291715554        222     0.006815390474991181     0.03669499802548257
        23                   0.0023                       0      -762.0937850788069          1934.513627186                       0      -199580.1291715554      -199580.1291715554        222     0.006815390474991181     0.03669499802548257
WARNING: Pair style restartinfo set but has no restart support (src/pair.cpp:754)
WARNING: Pair style restartinfo set but has no restart support (src/pair.cpp:754)
        24                   0.0024                       0      -757.9627128225184           2020.85690092                       0      -199580.1292011148      -199580.1292011148        222     0.002133626255106581     0.01645811596083186
        24                   0.0024                       0      -757.9627128225184           2020.85690092                       0      -199580.1292011148      -199580.1292011148        222     0.002133626255106581     0.01645811596083186
WARNING: Pair style restartinfo set but has no restart support (src/pair.cpp:754)
WARNING: Pair style restartinfo set but has no restart support (src/pair.cpp:754)
        25                   0.0025                       0      -766.1883999856855          2106.864194069                       0      -199580.1292141521      -199580.1292141521        222     0.002313439946507428     0.01764040693922856
        25                   0.0025                       0      -766.1883999856855          2106.864194069                       0      -199580.1292141521      -199580.1292141521        222     0.002313439946507428     0.01764040693922856
WARNING: Pair style restartinfo set but has no restart support (src/pair.cpp:754)
WARNING: Pair style restartinfo set but has no restart support (src/pair.cpp:754)
        26                   0.0026                       0      -768.3589894394257          2192.964109434                       0      -199580.1292276901      -199580.1292276901        222     0.002640020723628078     0.01453630558625803
        26                   0.0026                       0      -768.3589894394257          2192.964109434                       0      -199580.1292276901      -199580.1292276901        222     0.002640020723628078     0.01453630558625803
WARNING: Pair style restartinfo set but has no restart support (src/pair.cpp:754)
WARNING: Pair style restartinfo set but has no restart support (src/pair.cpp:754)
        27                   0.0027                       0       -757.829524536793          2279.169039974                       0      -199580.1292367161      -199580.1292367161        222     0.002003713282456136     0.01238911649388946
        27                   0.0027                       0       -757.829524536793          2279.169039974                       0      -199580.1292367161      -199580.1292367161        222     0.002003713282456136     0.01238911649388946
WARNING: Pair style restartinfo set but has no restart support (src/pair.cpp:754)
WARNING: Pair style restartinfo set but has no restart support (src/pair.cpp:754)
        28                   0.0028                       0      -755.2013535407921          2365.016717994                       0      -199580.1292412793      -199580.1292412793        222     0.001541585514803268      0.0103561736419762
        28                   0.0028                       0      -755.2013535407921          2365.016717994                       0      -199580.1292412793      -199580.1292412793        222     0.001541585514803268      0.0103561736419762
WARNING: Pair style restartinfo set but has no restart support (src/pair.cpp:754)
WARNING: Pair style restartinfo set but has no restart support (src/pair.cpp:754)
        29                   0.0029                       0      -760.1649724492855          2451.070615163                       0      -199580.1292459639      -199580.1292459639        222     0.001819099957492569    0.008898085757411866
        29                   0.0029                       0      -760.1649724492855          2451.070615163                       0      -199580.1292459639      -199580.1292459639        222     0.001819099957492569    0.008898085757411866
WARNING: Pair style restartinfo set but has no restart support (src/pair.cpp:754)
WARNING: Pair style restartinfo set but has no restart support (src/pair.cpp:754)
        30                    0.003                       0      -761.5578703564933          2537.061057879                       0      -199580.1292478874      -199580.1292478874        222    0.0008402301638331874    0.005502369466214971
        30                    0.003                       0      -761.5578703564933          2537.061057879                       0      -199580.1292478874      -199580.1292478874        222    0.0008402301638331874    0.005502369466214971
WARNING: Pair style restartinfo set but has no restart support (src/pair.cpp:754)
WARNING: Pair style restartinfo set but has no restart support (src/pair.cpp:754)
        31                   0.0031                       0      -757.9964223037107          2623.218327708                       0      -199580.1292494848      -199580.1292494848        222      0.00110026417471751    0.006358757914914353
        31                   0.0031                       0      -757.9964223037107          2623.218327708                       0      -199580.1292494848      -199580.1292494848        222      0.00110026417471751    0.006358757914914353
WARNING: Pair style restartinfo set but has no restart support (src/pair.cpp:754)
WARNING: Pair style restartinfo set but has no restart support (src/pair.cpp:754)
        32                   0.0032                       0      -756.5732983460191          2709.384278471                       0      -199580.1292505926      -199580.1292505926        222     0.000870891024895191    0.004763665872289218
        32                   0.0032                       0      -756.5732983460191          2709.384278471                       0      -199580.1292505926      -199580.1292505926        222     0.000870891024895191    0.004763665872289218
WARNING: Pair style restartinfo set but has no restart support (src/pair.cpp:754)
WARNING: Pair style restartinfo set but has no restart support (src/pair.cpp:754)
        33                   0.0033                       0      -759.4099162776196          2795.387551941                       0      -199580.1292517052      -199580.1292517052        222    0.0006442072189077651    0.004416349100270407
        33                   0.0033                       0      -759.4099162776196          2795.387551941                       0      -199580.1292517052      -199580.1292517052        222    0.0006442072189077651    0.004416349100270407
WARNING: Pair style restartinfo set but has no restart support (src/pair.cpp:754)
WARNING: Pair style restartinfo set but has no restart support (src/pair.cpp:754)
        34                   0.0034                       0      -760.9012661572884          2881.456452592                       0      -199580.1292526685      -199580.1292526685        222    0.0007905564269978585     0.00516243352937496
        34                   0.0034                       0      -760.9012661572884          2881.456452592                       0      -199580.1292526685      -199580.1292526685        222    0.0007905564269978585     0.00516243352937496
WARNING: Pair style restartinfo set but has no restart support (src/pair.cpp:754)
WARNING: Pair style restartinfo set but has no restart support (src/pair.cpp:754)
        35                   0.0035                       0      -758.4839451760259          2967.482942638                       0      -199580.1292543449      -199580.1292543449        222    0.0008408688319277435    0.004911832524611327
        35                   0.0035                       0      -758.4839451760259          2967.482942638                       0      -199580.1292543449      -199580.1292543449        222    0.0008408688319277435    0.004911832524611327
WARNING: Pair style restartinfo set but has no restart support (src/pair.cpp:754)
WARNING: Pair style restartinfo set but has no restart support (src/pair.cpp:754)
        36                   0.0036                       0      -757.5563296413433            3053.5938603                       0      -199580.1292550407      -199580.1292550407        222    0.0007575924862009732    0.003910695298204621
        36                   0.0036                       0      -757.5563296413433            3053.5938603                       0      -199580.1292550407      -199580.1292550407        222    0.0007575924862009732    0.003910695298204621
WARNING: Pair style restartinfo set but has no restart support (src/pair.cpp:754)
WARNING: Pair style restartinfo set but has no restart support (src/pair.cpp:754)
        37                   0.0037                       0      -758.1019785789438          3139.905981358                       0       -199580.129255571       -199580.129255571        222    0.0004164150063984294    0.002564369718899451
        37                   0.0037                       0      -758.1019785789438          3139.905981358                       0       -199580.129255571       -199580.129255571        222    0.0004164150063984294    0.002564369718899451
WARNING: Pair style restartinfo set but has no restart support (src/pair.cpp:754)
WARNING: Pair style restartinfo set but has no restart support (src/pair.cpp:754)
        38                   0.0038                       0      -758.7272538311906          3225.995921427                       0      -199580.1292557508      -199580.1292557508        222    0.0003298499125925447     0.00209357493963844
        38                   0.0038                       0      -758.7272538311906          3225.995921427                       0      -199580.1292557508      -199580.1292557508        222    0.0003298499125925447     0.00209357493963844
WARNING: Pair style restartinfo set but has no restart support (src/pair.cpp:754)
WARNING: Pair style restartinfo set but has no restart support (src/pair.cpp:754)
        39                   0.0039                       0      -759.0205024780433           3312.08021636                       0      -199580.1292559148      -199580.1292559148        222     0.000277295585236096    0.001643603033671399
        39                   0.0039                       0      -759.0205024780433           3312.08021636                       0      -199580.1292559148      -199580.1292559148        222     0.000277295585236096    0.001643603033671399
WARNING: Pair style restartinfo set but has no restart support (src/pair.cpp:754)
WARNING: Pair style restartinfo set but has no restart support (src/pair.cpp:754)
        40                    0.004                       0      -758.5626610449197          3398.179007655                       0      -199580.1292559935      -199580.1292559935        222    0.0001786062953169111     0.00115315275336968
        40                    0.004                       0      -758.5626610449197          3398.179007655                       0      -199580.1292559935      -199580.1292559935        222    0.0001786062953169111     0.00115315275336968
WARNING: Pair style restartinfo set but has no restart support (src/pair.cpp:754)
WARNING: Pair style restartinfo set but has no restart support (src/pair.cpp:754)
        41                   0.0041                       0      -758.1308451335466           3527.33879148                       0      -199580.1292560455      -199580.1292560455        222    0.0001097584764545162   0.0007386503050623539
        41                   0.0041                       0      -758.1308451335466           3527.33879148                       0      -199580.1292560455      -199580.1292560455        222    0.0001097584764545162   0.0007386503050623539
Loop time of 3527.34 on 48 procs for 41 steps with 222 atoms

Loop time of 3527.34 on 48 procs for 41 steps with 222 atoms

460.0% CPU use with 4 MPI tasks x 12 OpenMP threads
460.0% CPU use with 4 MPI tasks x 12 OpenMP threads

Minimization stats:
  Stopping criterion = force tolerance
  Energy initial, next-to-last, final = 
     -199557.761525015  -199580.129255994  -199580.129256046
  Force two-norm initial, final = 35.290554 0.00073865031
  Force max component initial, final = 3.7455171 0.00010975848
  Final line search alpha, max atom move = 1 0.00010975848
  Iterations, force evaluations = 41 81

Minimization stats:
  Stopping criterion = force tolerance
  Energy initial, next-to-last, final = 
     -199557.761525015  -199580.129255994  -199580.129256046
  Force two-norm initial, final = 35.290554 0.00073865031
  Force max component initial, final = 3.7455171 0.00010975848
  Final line search alpha, max atom move = 1 0.00010975848
  Iterations, force evaluations = 41 81

MPI task timing breakdown:
Section |  min time  |  avg time  |  max time  |%varavg| %total
---------------------------------------------------------------

MPI task timing breakdown:
Section |  min time  |  avg time  |  max time  |%varavg| %total
---------------------------------------------------------------
Pair    | 2513.4     | 3016.4     | 3522.1     | 909.6 | 85.52
Pair    | 2513.4     | 3016.4     | 3522.1     | 909.6 | 85.52
Neigh   | 1.0735     | 1.3295     | 1.5749     |  21.3 |  0.04
Neigh   | 1.0735     | 1.3295     | 1.5749     |  21.3 |  0.04
Comm    | 3.5228     | 509.45     | 1012.7     |2214.4 | 14.44
Comm    | 3.5228     | 509.45     | 1012.7     |2214.4 | 14.44
Output  | 0.042117   | 0.042179   | 0.042359   |   0.1 |  0.00
Output  | 0.042117   | 0.042179   | 0.042359   |   0.1 |  0.00
Modify  | 0          | 0          | 0          |   0.0 |  0.00
Modify  | 0          | 0          | 0          |   0.0 |  0.00
Other   |            | 0.06799    |            |       |  0.00
Other   |            | 0.06799    |            |       |  0.00

Nlocal:           55.5 ave          90 max          22 min
Histogram: 2 0 0 0 0 0 0 0 1 1
Nghost:        3166.75 ave        3660 max        2671 min
Histogram: 2 0 0 0 0 0 0 0 0 2
Neighs:              0 ave           0 max           0 min
Histogram: 4 0 0 0 0 0 0 0 0 0
FullNghs:        35716 ave       58343 max       13754 min
Histogram: 2 0 0 0 0 0 0 0 1 1

Nlocal:           55.5 ave          90 max          22 min
Histogram: 2 0 0 0 0 0 0 0 1 1
Nghost:        3166.75 ave        3660 max        2671 min
Histogram: 2 0 0 0 0 0 0 0 0 2
Neighs:              0 ave           0 max           0 min
Histogram: 4 0 0 0 0 0 0 0 0 0
FullNghs:        35716 ave       58343 max       13754 min
Histogram: 2 0 0 0 0 0 0 0 1 1


Total # of neighbors = 142864
Ave neighs/atom = 643.53153
Neighbor list builds = 82
Dangerous builds = 0
Total # of neighbors = 142864
Ave neighs/atom = 643.53153
Neighbor list builds = 82
Dangerous builds = 0
write_dump all xyz /home/theory/phrrpq/bilayer_relaxations/MoS2_WS2/P/3/MoS2_WS2_P_3.xyz modify sort id pbc yes element Mo W S

Total wall time: 1:00:15
Total wall time: 1:00:15
