OMP_THREADS: 12
MPI: 1
NTASKS-PER-NODE: 4
CPUS_PER_TASK: 12
LAMMPS (28 Mar 2023 - Development)
  using 12 OpenMP thread(s) per MPI task
  using 12 OpenMP thread(s) per MPI task
Reading data file ...
  triclinic box = (0 0 0) to (30.417342 26.342191 30) with tilt (15.208671 0 0)
WARNING: Triclinic box skew is large. LAMMPS will run inefficiently. (src/domain.cpp:220)
  1 by 2 by 2 MPI processor grid
  reading atoms ...
  546 atoms
  read_data CPU = 0.020 seconds
CUDA unavailable, setting device type to torch::kCPU.
CUDA unavailable, setting device type to torch::kCPU.
CUDA unavailable, setting device type to torch::kCPU.
CUDA unavailable, setting device type to torch::kCPU.
Loading MACE model from "/home/theory/phrrpq/bilayer_relaxations/MoWSSe_bi_radius_8_reduced_all_1_swa_800_run-123_swa.model-lammps.pt" ... finished.
Loading MACE model from "/home/theory/phrrpq/bilayer_relaxations/MoWSSe_bi_radius_8_reduced_all_1_swa_800_run-123_swa.model-lammps.pt" ... finished.
Loading MACE model from "/home/theory/phrrpq/bilayer_relaxations/MoWSSe_bi_radius_8_reduced_all_1_swa_800_run-123_swa.model-lammps.pt" ... finished.
  - The torch_float_dtype is: Double
  - The torch_float_dtype is: Double
Loading MACE model from "/home/theory/phrrpq/bilayer_relaxations/MoWSSe_bi_radius_8_reduced_all_1_swa_800_run-123_swa.model-lammps.pt" ... finished.
  - The r_max is: 8.
  - The r_max is: 8.
  - The model has: 2 layers.
  - The model has: 2 layers.
  - The model atomic numbers are: 16 34 42 74.
  - The pair_coeff atomic numbers are: 42 16 74 16.
  - The model atomic numbers are: 16 34 42 74.
  - The pair_coeff atomic numbers are: 42 16 74 16.
  - The torch_float_dtype is: Double
  - The r_max is: 8.
  - The model has: 2 layers.
  - The model atomic numbers are: 16 34 42 74.
  - The pair_coeff atomic numbers are: 42 16 74 16.
  - The torch_float_dtype is: Double
  - The r_max is: 8.
  - The model has: 2 layers.
  - The model atomic numbers are: 16 34 42 74.
  - The pair_coeff atomic numbers are: 42 16 74 16.
Generated 0 of 3 mixed pair_coeff terms from geometric mixing rule
Neighbor list info ...
  update: every = 1 steps, delay = 0 steps, check = yes
  max neighbors/atom: 2000, page size: 100000
  master list distance cutoff = 18
  ghost atom cutoff = 18
  binsize = 9, bins = 6 3 4
  1 neighbor lists, perpetual/occasional/extra = 1 0 0
  (1) pair mace, perpetual
      attributes: full, newton on, ghost
      pair build: full/bin/ghost
      stencil: full/ghost/bin/3d
      bin: standard
Setting up Verlet run ...
  Unit style    : metal
  Current step  : 0
  Time step     : 0.0001
Per MPI rank memory allocation (min/avg/max) = 19 | 20.53 | 22.05 Mbytes
   Step          Time           Temp          Press           CPU           KinEng         PotEng         TotEng        Atoms         Fmax          Fnorm     
         0                        0                       0       2859.759622040984                       0                       0      -490835.3175678133      -490835.3175678133        546        2.630483399657867       37.26615962654349
Loop time of 2.6755e-06 on 48 procs for 0 steps with 546 atoms

93.4% CPU use with 4 MPI tasks x 12 OpenMP threads

MPI task timing breakdown:
Section |  min time  |  avg time  |  max time  |%varavg| %total
---------------------------------------------------------------
Pair    | 0          | 0          | 0          |   0.0 |  0.00
Neigh   | 0          | 0          | 0          |   0.0 |  0.00
Comm    | 0          | 0          | 0          |   0.0 |  0.00
Output  | 0          | 0          | 0          |   0.0 |  0.00
Modify  | 0          | 0          | 0          |   0.0 |  0.00
Other   |            | 2.676e-06  |            |       |100.00

Nlocal:          136.5 ave         229 max          45 min
Histogram: 2 0 0 0 0 0 0 0 0 2
Nghost:         4101.5 ave        4799 max        3403 min
Histogram: 2 0 0 0 0 0 0 0 0 2
Neighs:              0 ave           0 max           0 min
Histogram: 4 0 0 0 0 0 0 0 0 0
FullNghs:      87718.5 ave      148297 max       27839 min
Histogram: 2 0 0 0 0 0 0 0 0 2

Total # of neighbors = 350874
Ave neighs/atom = 642.62637
Neighbor list builds = 0
Dangerous builds = 0
BEGIN LAMMPS STANDALONE MINIMIZATION; ii = 5; OMP = 12; MPI = 4
minimize 0.0 1e-3 1000 100000
Generated 0 of 3 mixed pair_coeff terms from geometric mixing rule
Generated 0 of 3 mixed pair_coeff terms from geometric mixing rule
Setting up cg style minimization ...
  Unit style    : metal
  Current step  : 0
Per MPI rank memory allocation (min/avg/max) = 20.12 | 21.65 | 23.18 Mbytes
Per MPI rank memory allocation (min/avg/max) = 20.12 | 21.65 | 23.18 Mbytes
   Step          Time           Temp          Press           CPU           KinEng         PotEng         TotEng        Atoms         Fmax          Fnorm     
   Step          Time           Temp          Press           CPU           KinEng         PotEng         TotEng        Atoms         Fmax          Fnorm     
         0                        0                       0       2859.759622040976                       0                       0      -490835.3175678133      -490835.3175678133        546        2.630483399657867       37.26615962654345
         0                        0                       0       2859.759622040976                       0                       0      -490835.3175678133      -490835.3175678133        546        2.630483399657867       37.26615962654345
WARNING: Pair style restartinfo set but has no restart support (src/pair.cpp:754)
WARNING: Pair style restartinfo set but has no restart support (src/pair.cpp:754)
         1                   0.0001                       0      -2745.885421395882           114.434873064                       0      -490858.9436857381      -490858.9436857381        546       0.2228047870503987       2.358488634758853
         1                   0.0001                       0      -2745.885421395882           114.434873064                       0      -490858.9436857381      -490858.9436857381        546       0.2228047870503987       2.358488634758853
WARNING: Pair style restartinfo set but has no restart support (src/pair.cpp:754)
WARNING: Pair style restartinfo set but has no restart support (src/pair.cpp:754)
         2                   0.0002                       0      -908.8905182674101           227.922824796                       0      -490859.0885513013      -490859.0885513013        546      0.06343569760452189      0.7112542836089123
         2                   0.0002                       0      -908.8905182674101           227.922824796                       0      -490859.0885513013      -490859.0885513013        546      0.06343569760452189      0.7112542836089123
WARNING: Pair style restartinfo set but has no restart support (src/pair.cpp:754)
WARNING: Pair style restartinfo set but has no restart support (src/pair.cpp:754)
         3                   0.0003                       0      -689.9951254032864           342.080574138                       0      -490859.1054663726      -490859.1054663726        546      0.06921013376711259      0.6745758606229703
         3                   0.0003                       0      -689.9951254032864           342.080574138                       0      -490859.1054663726      -490859.1054663726        546      0.06921013376711259      0.6745758606229703
WARNING: Pair style restartinfo set but has no restart support (src/pair.cpp:754)
WARNING: Pair style restartinfo set but has no restart support (src/pair.cpp:754)
         4                   0.0004                       0       -255.970481385299           455.804551362                       0      -490859.1710347153      -490859.1710347153        546       0.1563507430338035       1.672274408136686
         4                   0.0004                       0       -255.970481385299           455.804551362                       0      -490859.1710347153      -490859.1710347153        546       0.1563507430338035       1.672274408136686
WARNING: Pair style restartinfo set but has no restart support (src/pair.cpp:754)
WARNING: Pair style restartinfo set but has no restart support (src/pair.cpp:754)
         5                   0.0005                       0      -364.3727655425384       570.4143431470001                       0       -490859.269400896       -490859.269400896        546      0.09106876581854595       1.313032899641161
         5                   0.0005                       0      -364.3727655425384       570.4143431470001                       0       -490859.269400896       -490859.269400896        546      0.09106876581854595       1.313032899641161
WARNING: Pair style restartinfo set but has no restart support (src/pair.cpp:754)
WARNING: Pair style restartinfo set but has no restart support (src/pair.cpp:754)
         6    0.0006000000000000001                       0      -1345.496121146921           684.585287851                       0      -490859.3356815375      -490859.3356815375        546       0.0575270448008549      0.7899871064276519
         6    0.0006000000000000001                       0      -1345.496121146921           684.585287851                       0      -490859.3356815375      -490859.3356815375        546       0.0575270448008549      0.7899871064276519
WARNING: Pair style restartinfo set but has no restart support (src/pair.cpp:754)
WARNING: Pair style restartinfo set but has no restart support (src/pair.cpp:754)
         7                   0.0007                       0       -1222.01807455257            798.66466471                       0      -490859.3544695829      -490859.3544695829        546      0.06211388494188313      0.5964381748672414
         7                   0.0007                       0       -1222.01807455257            798.66466471                       0      -490859.3544695829      -490859.3544695829        546      0.06211388494188313      0.5964381748672414
WARNING: Pair style restartinfo set but has no restart support (src/pair.cpp:754)
WARNING: Pair style restartinfo set but has no restart support (src/pair.cpp:754)
         8                   0.0008                       0      -1005.446590542324           912.976285857                       0      -490859.3621110889      -490859.3621110889        546      0.02550367317854187      0.2748720054399171
         8                   0.0008                       0      -1005.446590542324           912.976285857                       0      -490859.3621110889      -490859.3621110889        546      0.02550367317854187      0.2748720054399171
WARNING: Pair style restartinfo set but has no restart support (src/pair.cpp:754)
WARNING: Pair style restartinfo set but has no restart support (src/pair.cpp:754)
         9    0.0009000000000000001                       0      -844.7279247877774          1027.427324679                       0      -490859.3687906595      -490859.3687906595        546      0.05204266716414094      0.5126704918917231
         9    0.0009000000000000001                       0      -844.7279247877774          1027.427324679                       0      -490859.3687906595      -490859.3687906595        546      0.05204266716414094      0.5126704918917231
WARNING: Pair style restartinfo set but has no restart support (src/pair.cpp:754)
WARNING: Pair style restartinfo set but has no restart support (src/pair.cpp:754)
        10                    0.001                       0      -798.1910683772688          1142.183898836                       0      -490859.3933325844      -490859.3933325844        546      0.09988771935551555      0.5933981920885416
        10                    0.001                       0      -798.1910683772688          1142.183898836                       0      -490859.3933325844      -490859.3933325844        546      0.09988771935551555      0.5933981920885416
WARNING: Pair style restartinfo set but has no restart support (src/pair.cpp:754)
WARNING: Pair style restartinfo set but has no restart support (src/pair.cpp:754)
        11                   0.0011                       0      -904.3376210784201           1256.89606711                       0      -490859.4001837745      -490859.4001837745        546      0.02787629636094185      0.3081709985418298
        11                   0.0011                       0      -904.3376210784201           1256.89606711                       0      -490859.4001837745      -490859.4001837745        546      0.02787629636094185      0.3081709985418298
WARNING: Pair style restartinfo set but has no restart support (src/pair.cpp:754)
WARNING: Pair style restartinfo set but has no restart support (src/pair.cpp:754)
        12                   0.0012                       0      -1062.316387461718            1371.1846079                       0      -490859.4047507513      -490859.4047507513        546      0.02414644739186115       0.259807169393736
        12                   0.0012                       0      -1062.316387461718            1371.1846079                       0      -490859.4047507513      -490859.4047507513        546      0.02414644739186115       0.259807169393736
WARNING: Pair style restartinfo set but has no restart support (src/pair.cpp:754)
WARNING: Pair style restartinfo set but has no restart support (src/pair.cpp:754)
        13                   0.0013                       0      -942.4095459553515          1485.541754269                       0      -490859.4077229648      -490859.4077229648        546      0.04793120587154313      0.3205951119670473
        13                   0.0013                       0      -942.4095459553515          1485.541754269                       0      -490859.4077229648      -490859.4077229648        546      0.04793120587154313      0.3205951119670473
WARNING: Pair style restartinfo set but has no restart support (src/pair.cpp:754)
WARNING: Pair style restartinfo set but has no restart support (src/pair.cpp:754)
        14                   0.0014                       0      -739.8140441522413          1600.413318399                       0      -490859.4119426059      -490859.4119426059        546      0.02335097880952159      0.3341303268628971
        14                   0.0014                       0      -739.8140441522413          1600.413318399                       0      -490859.4119426059      -490859.4119426059        546      0.02335097880952159      0.3341303268628971
WARNING: Pair style restartinfo set but has no restart support (src/pair.cpp:754)
WARNING: Pair style restartinfo set but has no restart support (src/pair.cpp:754)
        15                   0.0015                       0      -781.1102658150749          1715.342501283                       0      -490859.4224941528      -490859.4224941528        546      0.03411125743327801      0.3123624759223072
        15                   0.0015                       0      -781.1102658150749          1715.342501283                       0      -490859.4224941528      -490859.4224941528        546      0.03411125743327801      0.3123624759223072
WARNING: Pair style restartinfo set but has no restart support (src/pair.cpp:754)
WARNING: Pair style restartinfo set but has no restart support (src/pair.cpp:754)
        16                   0.0016                       0      -828.6293186413037          1830.543808173                       0      -490859.4244648269      -490859.4244648269        546      0.01665941172190083      0.1370524550145892
        16                   0.0016                       0      -828.6293186413037          1830.543808173                       0      -490859.4244648269      -490859.4244648269        546      0.01665941172190083      0.1370524550145892
WARNING: Pair style restartinfo set but has no restart support (src/pair.cpp:754)
WARNING: Pair style restartinfo set but has no restart support (src/pair.cpp:754)
        17                   0.0017                       0      -843.6334389946696          1945.188427461                       0      -490859.4252001416      -490859.4252001416        546      0.01980042259755379      0.1510750251389225
        17                   0.0017                       0      -843.6334389946696          1945.188427461                       0      -490859.4252001416      -490859.4252001416        546      0.01980042259755379      0.1510750251389225
WARNING: Pair style restartinfo set but has no restart support (src/pair.cpp:754)
WARNING: Pair style restartinfo set but has no restart support (src/pair.cpp:754)
        18                   0.0018                       0      -815.6036549613528          2059.951930902                       0      -490859.4262110505      -490859.4262110505        546      0.01547869816832517      0.1287505817685491
        18                   0.0018                       0      -815.6036549613528          2059.951930902                       0      -490859.4262110505      -490859.4262110505        546      0.01547869816832517      0.1287505817685491
WARNING: Pair style restartinfo set but has no restart support (src/pair.cpp:754)
WARNING: Pair style restartinfo set but has no restart support (src/pair.cpp:754)
        19                   0.0019                       0      -787.3515251368043          2175.144637551                       0      -490859.4267113288      -490859.4267113288        546      0.01366205751017124      0.1104141615798631
        19                   0.0019                       0      -787.3515251368043          2175.144637551                       0      -490859.4267113288      -490859.4267113288        546      0.01366205751017124      0.1104141615798631
WARNING: Pair style restartinfo set but has no restart support (src/pair.cpp:754)
WARNING: Pair style restartinfo set but has no restart support (src/pair.cpp:754)
        20                    0.002                       0      -774.6844021915399          2290.038550912                       0      -490859.4272177503      -490859.4272177503        546      0.01115212838419045     0.09681332854200532
        20                    0.002                       0      -774.6844021915399          2290.038550912                       0      -490859.4272177503      -490859.4272177503        546      0.01115212838419045     0.09681332854200532
WARNING: Pair style restartinfo set but has no restart support (src/pair.cpp:754)
WARNING: Pair style restartinfo set but has no restart support (src/pair.cpp:754)
        21                   0.0021                       0      -797.1353159545118          2404.783028306                       0      -490859.4277997412      -490859.4277997412        546      0.01589158343155193       0.123478615016523
        21                   0.0021                       0      -797.1353159545118          2404.783028306                       0      -490859.4277997412      -490859.4277997412        546      0.01589158343155193       0.123478615016523
WARNING: Pair style restartinfo set but has no restart support (src/pair.cpp:754)
WARNING: Pair style restartinfo set but has no restart support (src/pair.cpp:754)
        22                   0.0022                       0         -794.3426662733          2519.465098873                       0      -490859.4283881305      -490859.4283881305        546      0.01534844523288278      0.1430453735603195
        22                   0.0022                       0         -794.3426662733          2519.465098873                       0      -490859.4283881305      -490859.4283881305        546      0.01534844523288278      0.1430453735603195
WARNING: Pair style restartinfo set but has no restart support (src/pair.cpp:754)
WARNING: Pair style restartinfo set but has no restart support (src/pair.cpp:754)
        23                   0.0023                       0      -734.7822086662521          2634.369950282                       0      -490859.4295363281      -490859.4295363281        546      0.01640754648163623      0.1522232115099826
        23                   0.0023                       0      -734.7822086662521          2634.369950282                       0      -490859.4295363281      -490859.4295363281        546      0.01640754648163623      0.1522232115099826
WARNING: Pair style restartinfo set but has no restart support (src/pair.cpp:754)
WARNING: Pair style restartinfo set but has no restart support (src/pair.cpp:754)
        24                   0.0024                       0       -713.477237249521          2749.476586521                       0      -490859.4302015008      -490859.4302015008        546      0.01045204020112508     0.08942169050493994
        24                   0.0024                       0       -713.477237249521          2749.476586521                       0      -490859.4302015008      -490859.4302015008        546      0.01045204020112508     0.08942169050493994
WARNING: Pair style restartinfo set but has no restart support (src/pair.cpp:754)
WARNING: Pair style restartinfo set but has no restart support (src/pair.cpp:754)
        25                   0.0025                       0      -732.4764815049859            2864.2703564                       0      -490859.4304840023      -490859.4304840023        546      0.01696308820763514     0.08972970280374017
        25                   0.0025                       0      -732.4764815049859            2864.2703564                       0      -490859.4304840023      -490859.4304840023        546      0.01696308820763514     0.08972970280374017
WARNING: Pair style restartinfo set but has no restart support (src/pair.cpp:754)
WARNING: Pair style restartinfo set but has no restart support (src/pair.cpp:754)
        26                   0.0026                       0      -751.1071451922478          2979.066164034                       0      -490859.4308446748      -490859.4308446748        546     0.007928913925592139     0.08269363818956121
        26                   0.0026                       0      -751.1071451922478          2979.066164034                       0      -490859.4308446748      -490859.4308446748        546     0.007928913925592139     0.08269363818956121
WARNING: Pair style restartinfo set but has no restart support (src/pair.cpp:754)
WARNING: Pair style restartinfo set but has no restart support (src/pair.cpp:754)
        27                   0.0027                       0      -721.6450870780914          3094.043306749                       0      -490859.4310913746      -490859.4310913746        546     0.007634058442066774     0.06791196877952893
        27                   0.0027                       0      -721.6450870780914          3094.043306749                       0      -490859.4310913746      -490859.4310913746        546     0.007634058442066774     0.06791196877952893
WARNING: Pair style restartinfo set but has no restart support (src/pair.cpp:754)
WARNING: Pair style restartinfo set but has no restart support (src/pair.cpp:754)
        28                   0.0028                       0      -701.0213456236355          3209.077393749                       0      -490859.4312119827      -490859.4312119827        546      0.00572516342515662     0.04693765353417297
        28                   0.0028                       0      -701.0213456236355          3209.077393749                       0      -490859.4312119827      -490859.4312119827        546      0.00572516342515662     0.04693765353417297
WARNING: Pair style restartinfo set but has no restart support (src/pair.cpp:754)
WARNING: Pair style restartinfo set but has no restart support (src/pair.cpp:754)
        29                   0.0029                       0      -703.1611565327186          3324.328381223                       0      -490859.4313074361      -490859.4313074361        546     0.006267195312591275     0.04355917714281951
        29                   0.0029                       0      -703.1611565327186          3324.328381223                       0      -490859.4313074361      -490859.4313074361        546     0.006267195312591275     0.04355917714281951
WARNING: Pair style restartinfo set but has no restart support (src/pair.cpp:754)
WARNING: Pair style restartinfo set but has no restart support (src/pair.cpp:754)
        30                    0.003                       0      -711.8369213822908          3439.477399774                       0      -490859.4313595213      -490859.4313595213        546     0.003464405073582109     0.02713482779726928
        30                    0.003                       0      -711.8369213822908          3439.477399774                       0      -490859.4313595213      -490859.4313595213        546     0.003464405073582109     0.02713482779726928
WARNING: Pair style restartinfo set but has no restart support (src/pair.cpp:754)
WARNING: Pair style restartinfo set but has no restart support (src/pair.cpp:754)
        31                   0.0031                       0      -712.5364449276693          3554.311369912                       0      -490859.4313876624      -490859.4313876624        546     0.003812371432719321       0.028507153641238
        31                   0.0031                       0      -712.5364449276693          3554.311369912                       0      -490859.4313876624      -490859.4313876624        546     0.003812371432719321       0.028507153641238
WARNING: Pair style restartinfo set but has no restart support (src/pair.cpp:754)
WARNING: Pair style restartinfo set but has no restart support (src/pair.cpp:754)
        32                   0.0032                       0      -706.4504822051921          3669.306044547                       0      -490859.4314219009      -490859.4314219009        546      0.00294797727661264     0.02546695647122041
        32                   0.0032                       0      -706.4504822051921          3669.306044547                       0      -490859.4314219009      -490859.4314219009        546      0.00294797727661264     0.02546695647122041
WARNING: Pair style restartinfo set but has no restart support (src/pair.cpp:754)
WARNING: Pair style restartinfo set but has no restart support (src/pair.cpp:754)
        33                   0.0033                       0      -703.7240890488248          3784.324934717                       0      -490859.4314462821      -490859.4314462821        546     0.003187789342553527     0.02609727257537245
        33                   0.0033                       0      -703.7240890488248          3784.324934717                       0      -490859.4314462821      -490859.4314462821        546     0.003187789342553527     0.02609727257537245
WARNING: Pair style restartinfo set but has no restart support (src/pair.cpp:754)
WARNING: Pair style restartinfo set but has no restart support (src/pair.cpp:754)
        34                   0.0034                       0      -705.4492425789872          3898.883098757                       0      -490859.4314699661      -490859.4314699661        546     0.002472116647304128     0.01922143258421174
        34                   0.0034                       0      -705.4492425789872          3898.883098757                       0      -490859.4314699661      -490859.4314699661        546     0.002472116647304128     0.01922143258421174
WARNING: Pair style restartinfo set but has no restart support (src/pair.cpp:754)
WARNING: Pair style restartinfo set but has no restart support (src/pair.cpp:754)
        35                   0.0035                       0      -708.6348572653258          4013.645107902                       0      -490859.4314844552      -490859.4314844552        546     0.002631911991837899     0.01978891441395771
        35                   0.0035                       0      -708.6348572653258          4013.645107902                       0      -490859.4314844552      -490859.4314844552        546     0.002631911991837899     0.01978891441395771
WARNING: Pair style restartinfo set but has no restart support (src/pair.cpp:754)
WARNING: Pair style restartinfo set but has no restart support (src/pair.cpp:754)
        36                   0.0036                       0      -709.0139474040627       4128.408511150999                       0      -490859.4315032687      -490859.4315032687        546      0.00210948287143834      0.0207806230768855
        36                   0.0036                       0      -709.0139474040627       4128.408511150999                       0      -490859.4315032687      -490859.4315032687        546      0.00210948287143834      0.0207806230768855
WARNING: Pair style restartinfo set but has no restart support (src/pair.cpp:754)
WARNING: Pair style restartinfo set but has no restart support (src/pair.cpp:754)
        37                   0.0037                       0      -704.9592778849328       4243.183734374999                       0      -490859.4315210551      -490859.4315210551        546     0.002123808964015292     0.02022362041938119
        37                   0.0037                       0      -704.9592778849328       4243.183734374999                       0      -490859.4315210551      -490859.4315210551        546     0.002123808964015292     0.02022362041938119
WARNING: Pair style restartinfo set but has no restart support (src/pair.cpp:754)
WARNING: Pair style restartinfo set but has no restart support (src/pair.cpp:754)
        38                   0.0038                       0       -703.719548901068          4358.221473265                       0      -490859.4315332505      -490859.4315332505        546     0.001456320289117182     0.01402635211963028
        38                   0.0038                       0       -703.719548901068          4358.221473265                       0      -490859.4315332505      -490859.4315332505        546     0.001456320289117182     0.01402635211963028
WARNING: Pair style restartinfo set but has no restart support (src/pair.cpp:754)
WARNING: Pair style restartinfo set but has no restart support (src/pair.cpp:754)
        39                   0.0039                       0      -706.6990502971706          4473.408757445                       0        -490859.43154066        -490859.43154066        546     0.001622518406036222     0.01459143169683242
        39                   0.0039                       0      -706.6990502971706          4473.408757445                       0        -490859.43154066        -490859.43154066        546     0.001622518406036222     0.01459143169683242
WARNING: Pair style restartinfo set but has no restart support (src/pair.cpp:754)
WARNING: Pair style restartinfo set but has no restart support (src/pair.cpp:754)
        40                    0.004                       0      -710.3433859664825          4588.641861538                       0      -490859.4315504328      -490859.4315504328        546     0.001695403255165202     0.01416682337338811
        40                    0.004                       0      -710.3433859664825          4588.641861538                       0      -490859.4315504328      -490859.4315504328        546     0.001695403255165202     0.01416682337338811
WARNING: Pair style restartinfo set but has no restart support (src/pair.cpp:754)
WARNING: Pair style restartinfo set but has no restart support (src/pair.cpp:754)
        41                   0.0041                       0      -708.2981246256419          4703.648998821                       0      -490859.4315568836      -490859.4315568836        546     0.001756931983918041     0.01238958621636232
        41                   0.0041                       0      -708.2981246256419          4703.648998821                       0      -490859.4315568836      -490859.4315568836        546     0.001756931983918041     0.01238958621636232
WARNING: Pair style restartinfo set but has no restart support (src/pair.cpp:754)
WARNING: Pair style restartinfo set but has no restart support (src/pair.cpp:754)
        42     0.004200000000000001                       0       -704.379831565669       4818.709549804999                       0      -490859.4315628234      -490859.4315628234        546     0.001110646127519002    0.009198985080135991
        42     0.004200000000000001                       0       -704.379831565669       4818.709549804999                       0      -490859.4315628234      -490859.4315628234        546     0.001110646127519002    0.009198985080135991
WARNING: Pair style restartinfo set but has no restart support (src/pair.cpp:754)
WARNING: Pair style restartinfo set but has no restart support (src/pair.cpp:754)
        43                   0.0043                       0      -706.7324878524173           4933.89412166                       0      -490859.4315664552      -490859.4315664552        546     0.001340213040262105    0.009576596145073597
        43                   0.0043                       0      -706.7324878524173           4933.89412166                       0      -490859.4315664552      -490859.4315664552        546     0.001340213040262105    0.009576596145073597
WARNING: Pair style restartinfo set but has no restart support (src/pair.cpp:754)
WARNING: Pair style restartinfo set but has no restart support (src/pair.cpp:754)
        44                   0.0044                       0      -709.7273769450243       5048.863359913999                       0      -490859.4315694695      -490859.4315694695        546    0.0009323529883512732    0.008271508010302549
        44                   0.0044                       0      -709.7273769450243       5048.863359913999                       0      -490859.4315694695      -490859.4315694695        546    0.0009323529883512732    0.008271508010302549
WARNING: Pair style restartinfo set but has no restart support (src/pair.cpp:754)
WARNING: Pair style restartinfo set but has no restart support (src/pair.cpp:754)
        45     0.004500000000000001                       0      -709.7059653129163          5163.947786817                       0      -490859.4315724359      -490859.4315724359        546     0.001020400421732789    0.008974912968995469
        45     0.004500000000000001                       0      -709.7059653129163          5163.947786817                       0      -490859.4315724359      -490859.4315724359        546     0.001020400421732789    0.008974912968995469
WARNING: Pair style restartinfo set but has no restart support (src/pair.cpp:754)
WARNING: Pair style restartinfo set but has no restart support (src/pair.cpp:754)
        46                   0.0046                       0      -707.4435039373657       5279.064427032999                       0      -490859.4315757644      -490859.4315757644        546     0.001053150838883923    0.007615091980368533
        46                   0.0046                       0      -707.4435039373657       5279.064427032999                       0      -490859.4315757644      -490859.4315757644        546     0.001053150838883923    0.007615091980368533
WARNING: Pair style restartinfo set but has no restart support (src/pair.cpp:754)
WARNING: Pair style restartinfo set but has no restart support (src/pair.cpp:754)
        47                   0.0047                       0      -707.9200692984207       5394.051153779999                       0      -490859.4315777397      -490859.4315777397        546     0.001091774120634651    0.007490279746725821
        47                   0.0047                       0      -707.9200692984207       5394.051153779999                       0      -490859.4315777397      -490859.4315777397        546     0.001091774120634651    0.007490279746725821
WARNING: Pair style restartinfo set but has no restart support (src/pair.cpp:754)
WARNING: Pair style restartinfo set but has no restart support (src/pair.cpp:754)
        48                   0.0048                       0      -711.4080837426625          5508.823968212                       0      -490859.4315806982      -490859.4315806982        546    0.0009117476858398002    0.008286628673612894
        48                   0.0048                       0      -711.4080837426625          5508.823968212                       0      -490859.4315806982      -490859.4315806982        546    0.0009117476858398002    0.008286628673612894
WARNING: Pair style restartinfo set but has no restart support (src/pair.cpp:754)
WARNING: Pair style restartinfo set but has no restart support (src/pair.cpp:754)
        49                   0.0049                       0      -712.8012649769478          5623.730893061                       0      -490859.4315839756      -490859.4315839756        546     0.001440178387289482      0.0101497302015762
        49                   0.0049                       0      -712.8012649769478          5623.730893061                       0      -490859.4315839756      -490859.4315839756        546     0.001440178387289482      0.0101497302015762
WARNING: Pair style restartinfo set but has no restart support (src/pair.cpp:754)
WARNING: Pair style restartinfo set but has no restart support (src/pair.cpp:754)
        50                    0.005                       0      -711.7763845896357       5738.520197246999                       0      -490859.4315876158      -490859.4315876158        546    0.0009353513269770943    0.007610392891284859
        50                    0.005                       0      -711.7763845896357       5738.520197246999                       0      -490859.4315876158      -490859.4315876158        546    0.0009353513269770943    0.007610392891284859
WARNING: Pair style restartinfo set but has no restart support (src/pair.cpp:754)
WARNING: Pair style restartinfo set but has no restart support (src/pair.cpp:754)
        51                   0.0051                       0      -711.3089029203381          5853.632561808                       0      -490859.4315895181      -490859.4315895181        546    0.0008289471176810975    0.006526658534624919
        51                   0.0051                       0      -711.3089029203381          5853.632561808                       0      -490859.4315895181      -490859.4315895181        546    0.0008289471176810975    0.006526658534624919
WARNING: Pair style restartinfo set but has no restart support (src/pair.cpp:754)
WARNING: Pair style restartinfo set but has no restart support (src/pair.cpp:754)
        52     0.005200000000000001                       0      -712.5175787236244          5968.723493128                       0      -490859.4315912155      -490859.4315912155        546    0.0006738538253286547    0.005158277013509018
        52     0.005200000000000001                       0      -712.5175787236244          5968.723493128                       0      -490859.4315912155      -490859.4315912155        546    0.0006738538253286547    0.005158277013509018
WARNING: Pair style restartinfo set but has no restart support (src/pair.cpp:754)
WARNING: Pair style restartinfo set but has no restart support (src/pair.cpp:754)
        53                   0.0053                       0      -713.7364029218857          6083.570525514                       0      -490859.4315921547      -490859.4315921547        546    0.0009131117626064722    0.004830803427562752
        53                   0.0053                       0      -713.7364029218857          6083.570525514                       0      -490859.4315921547      -490859.4315921547        546    0.0009131117626064722    0.004830803427562752
WARNING: Pair style restartinfo set but has no restart support (src/pair.cpp:754)
WARNING: Pair style restartinfo set but has no restart support (src/pair.cpp:754)
        54                   0.0054                       0      -714.1464911810102       6198.519732545999                       0      -490859.4315930115      -490859.4315930115        546    0.0005495597134671855    0.004277323245494702
        54                   0.0054                       0      -714.1464911810102       6198.519732545999                       0      -490859.4315930115      -490859.4315930115        546    0.0005495597134671855    0.004277323245494702
WARNING: Pair style restartinfo set but has no restart support (src/pair.cpp:754)
WARNING: Pair style restartinfo set but has no restart support (src/pair.cpp:754)
        55     0.005500000000000001                       0      -713.5162763827526          6313.461576209                       0      -490859.4315937342      -490859.4315937342        546    0.0006605979026740845    0.004625203780128073
        55     0.005500000000000001                       0      -713.5162763827526          6313.461576209                       0      -490859.4315937342      -490859.4315937342        546    0.0006605979026740845    0.004625203780128073
WARNING: Pair style restartinfo set but has no restart support (src/pair.cpp:754)
WARNING: Pair style restartinfo set but has no restart support (src/pair.cpp:754)
        56                   0.0056                       0      -713.0789548978881          6428.608187103                       0      -490859.4315946896      -490859.4315946896        546    0.0005385329641136895     0.00424109409563715
        56                   0.0056                       0      -713.0789548978881          6428.608187103                       0      -490859.4315946896      -490859.4315946896        546    0.0005385329641136895     0.00424109409563715
WARNING: Pair style restartinfo set but has no restart support (src/pair.cpp:754)
WARNING: Pair style restartinfo set but has no restart support (src/pair.cpp:754)
        57                   0.0057                       0      -714.1571179820545       6543.651622939999                       0      -490859.4315953269      -490859.4315953269        546    0.0003917842068345112    0.004132408347535262
        57                   0.0057                       0      -714.1571179820545       6543.651622939999                       0      -490859.4315953269      -490859.4315953269        546    0.0003917842068345112    0.004132408347535262
WARNING: Pair style restartinfo set but has no restart support (src/pair.cpp:754)
WARNING: Pair style restartinfo set but has no restart support (src/pair.cpp:754)
        58                   0.0058                       0      -716.0570082919564           6658.69857356                       0      -490859.4315962456      -490859.4315962456        546    0.0004852558574906041    0.004568118558737803
        58                   0.0058                       0      -716.0570082919564           6658.69857356                       0      -490859.4315962456      -490859.4315962456        546    0.0004852558574906041    0.004568118558737803
WARNING: Pair style restartinfo set but has no restart support (src/pair.cpp:754)
WARNING: Pair style restartinfo set but has no restart support (src/pair.cpp:754)
        59                   0.0059                       0      -715.5918982795997          6773.721285156                       0       -490859.431597073       -490859.431597073        546    0.0005443919059334184    0.004450116374612537
        59                   0.0059                       0      -715.5918982795997          6773.721285156                       0       -490859.431597073       -490859.431597073        546    0.0005443919059334184    0.004450116374612537
WARNING: Pair style restartinfo set but has no restart support (src/pair.cpp:754)
WARNING: Pair style restartinfo set but has no restart support (src/pair.cpp:754)
        60                    0.006                       0       -714.216769174459           6888.79566297                       0      -490859.4315977691      -490859.4315977691        546    0.0004241835903997965    0.003407290558945425
        60                    0.006                       0       -714.216769174459           6888.79566297                       0      -490859.4315977691      -490859.4315977691        546    0.0004241835903997965    0.003407290558945425
WARNING: Pair style restartinfo set but has no restart support (src/pair.cpp:754)
WARNING: Pair style restartinfo set but has no restart support (src/pair.cpp:754)
        61                   0.0061                       0      -714.5007439640017           7003.65431355                       0      -490859.4315981231      -490859.4315981231        546    0.0003449026952822782    0.003156728557145017
        61                   0.0061                       0      -714.5007439640017           7003.65431355                       0      -490859.4315981231      -490859.4315981231        546    0.0003449026952822782    0.003156728557145017
WARNING: Pair style restartinfo set but has no restart support (src/pair.cpp:754)
WARNING: Pair style restartinfo set but has no restart support (src/pair.cpp:754)
        62     0.006200000000000001                       0      -716.1801201240615          7118.696021148                       0      -490859.4315986281      -490859.4315986281        546    0.0004131178361537393    0.003180340302399332
        62     0.006200000000000001                       0      -716.1801201240615          7118.696021148                       0      -490859.4315986281      -490859.4315986281        546    0.0004131178361537393    0.003180340302399332
WARNING: Pair style restartinfo set but has no restart support (src/pair.cpp:754)
WARNING: Pair style restartinfo set but has no restart support (src/pair.cpp:754)
        63                   0.0063                       0      -716.1491631991672          7233.616976403                       0      -490859.4315990582      -490859.4315990582        546    0.0004139466874203516    0.003412484597775389
        63                   0.0063                       0      -716.1491631991672          7233.616976403                       0      -490859.4315990582      -490859.4315990582        546    0.0004139466874203516    0.003412484597775389
WARNING: Pair style restartinfo set but has no restart support (src/pair.cpp:754)
WARNING: Pair style restartinfo set but has no restart support (src/pair.cpp:754)
        64                   0.0064                       0      -714.8824458526234          7348.663879301                       0      -490859.4315995121      -490859.4315995121        546    0.0003654744617238997    0.002914685760381936
        64                   0.0064                       0      -714.8824458526234          7348.663879301                       0      -490859.4315995121      -490859.4315995121        546    0.0003654744617238997    0.002914685760381936
WARNING: Pair style restartinfo set but has no restart support (src/pair.cpp:754)
WARNING: Pair style restartinfo set but has no restart support (src/pair.cpp:754)
        65     0.006500000000000001                       0      -714.6799845352052          7463.592191525                       0      -490859.4315997725      -490859.4315997725        546    0.0002999115278755622     0.00231772464669876
        65     0.006500000000000001                       0      -714.6799845352052          7463.592191525                       0      -490859.4315997725      -490859.4315997725        546    0.0002999115278755622     0.00231772464669876
WARNING: Pair style restartinfo set but has no restart support (src/pair.cpp:754)
WARNING: Pair style restartinfo set but has no restart support (src/pair.cpp:754)
        66                   0.0066                       0      -715.4626328828224          7578.362345084                       0      -490859.4315999834      -490859.4315999834        546    0.0002688466893201488    0.002214769870049157
        66                   0.0066                       0      -715.4626328828224          7578.362345084                       0      -490859.4315999834      -490859.4315999834        546    0.0002688466893201488    0.002214769870049157
WARNING: Pair style restartinfo set but has no restart support (src/pair.cpp:754)
WARNING: Pair style restartinfo set but has no restart support (src/pair.cpp:754)
        67                   0.0067                       0      -715.9896594957355          7693.251778301                       0      -490859.4316002016      -490859.4316002016        546    0.0003181837562968207    0.002572835177191083
        67                   0.0067                       0      -715.9896594957355          7693.251778301                       0      -490859.4316002016      -490859.4316002016        546    0.0003181837562968207    0.002572835177191083
WARNING: Pair style restartinfo set but has no restart support (src/pair.cpp:754)
WARNING: Pair style restartinfo set but has no restart support (src/pair.cpp:754)
        68                   0.0068                       0      -715.4123414295966          7808.208420934                       0      -490859.4316005051      -490859.4316005051        546    0.0002112639761019707    0.002054430553353776
        68                   0.0068                       0      -715.4123414295966          7808.208420934                       0      -490859.4316005051      -490859.4316005051        546    0.0002112639761019707    0.002054430553353776
WARNING: Pair style restartinfo set but has no restart support (src/pair.cpp:754)
WARNING: Pair style restartinfo set but has no restart support (src/pair.cpp:754)
        69     0.006900000000000001                       0      -714.8772803430775          7923.176771781                       0       -490859.431600624       -490859.431600624        546     0.000226846837840005    0.001746324415386171
        69     0.006900000000000001                       0      -714.8772803430775          7923.176771781                       0       -490859.431600624       -490859.431600624        546     0.000226846837840005    0.001746324415386171
WARNING: Pair style restartinfo set but has no restart support (src/pair.cpp:754)
WARNING: Pair style restartinfo set but has no restart support (src/pair.cpp:754)
        70                    0.007                       0      -714.5318261973583          8038.187968892                       0      -490859.4316007863      -490859.4316007863        546     0.000256181920907966    0.001982313171328822
        70                    0.007                       0      -714.5318261973583          8038.187968892                       0      -490859.4316007863      -490859.4316007863        546     0.000256181920907966    0.001982313171328822
WARNING: Pair style restartinfo set but has no restart support (src/pair.cpp:754)
WARNING: Pair style restartinfo set but has no restart support (src/pair.cpp:754)
        71                   0.0071                       0      -714.8129609538345       8153.253778828001                       0      -490859.4316009295      -490859.4316009295        546    0.0002799926296955003    0.001974374447761342
        71                   0.0071                       0      -714.8129609538345       8153.253778828001                       0      -490859.4316009295      -490859.4316009295        546    0.0002799926296955003    0.001974374447761342
WARNING: Pair style restartinfo set but has no restart support (src/pair.cpp:754)
WARNING: Pair style restartinfo set but has no restart support (src/pair.cpp:754)
        72     0.007200000000000001                       0      -715.2421682599829       8268.331261301999                       0      -490859.4316011115      -490859.4316011115        546     0.000278898544851637    0.002012698718378826
        72     0.007200000000000001                       0      -715.2421682599829       8268.331261301999                       0      -490859.4316011115      -490859.4316011115        546     0.000278898544851637    0.002012698718378826
WARNING: Pair style restartinfo set but has no restart support (src/pair.cpp:754)
WARNING: Pair style restartinfo set but has no restart support (src/pair.cpp:754)
        73                   0.0073                       0      -714.8630016553986       8383.291262868999                       0      -490859.4316012425      -490859.4316012425        546    0.0001806066006629054    0.001661737154240695
        73                   0.0073                       0      -714.8630016553986       8383.291262868999                       0      -490859.4316012425      -490859.4316012425        546    0.0001806066006629054    0.001661737154240695
WARNING: Pair style restartinfo set but has no restart support (src/pair.cpp:754)
WARNING: Pair style restartinfo set but has no restart support (src/pair.cpp:754)
        74                   0.0074                       0      -713.8467439080185          8498.299742236                       0      -490859.4316013852      -490859.4316013852        546    0.0002149570529298706    0.001768999150550951
        74                   0.0074                       0      -713.8467439080185          8498.299742236                       0      -490859.4316013852      -490859.4316013852        546    0.0002149570529298706    0.001768999150550951
WARNING: Pair style restartinfo set but has no restart support (src/pair.cpp:754)
WARNING: Pair style restartinfo set but has no restart support (src/pair.cpp:754)
        75     0.007500000000000001                       0      -713.7942799747987          8613.163324849                       0      -490859.4316015114      -490859.4316015114        546    0.0002555198071095788    0.001874745445024782
        75     0.007500000000000001                       0      -713.7942799747987          8613.163324849                       0      -490859.4316015114      -490859.4316015114        546    0.0002555198071095788    0.001874745445024782
WARNING: Pair style restartinfo set but has no restart support (src/pair.cpp:754)
WARNING: Pair style restartinfo set but has no restart support (src/pair.cpp:754)
        76                   0.0076                       0      -714.4343014226894          8728.228845206                       0      -490859.4316016536      -490859.4316016536        546    0.0002522701461510121    0.001741978240600663
        76                   0.0076                       0      -714.4343014226894          8728.228845206                       0      -490859.4316016536      -490859.4316016536        546    0.0002522701461510121    0.001741978240600663
WARNING: Pair style restartinfo set but has no restart support (src/pair.cpp:754)
WARNING: Pair style restartinfo set but has no restart support (src/pair.cpp:754)
        77                   0.0077                       0      -714.4567107800501          8843.155868843                       0      -490859.4316017546      -490859.4316017546        546    0.0001395200869503156    0.001479840605126012
        77                   0.0077                       0      -714.4567107800501          8843.155868843                       0      -490859.4316017546      -490859.4316017546        546    0.0001395200869503156    0.001479840605126012
WARNING: Pair style restartinfo set but has no restart support (src/pair.cpp:754)
WARNING: Pair style restartinfo set but has no restart support (src/pair.cpp:754)
        78     0.007800000000000001                       0      -713.6217393487509          8957.964339614                       0      -490859.4316018539      -490859.4316018539        546    0.0001602263540935209    0.001502413982112512
        78     0.007800000000000001                       0      -713.6217393487509          8957.964339614                       0      -490859.4316018539      -490859.4316018539        546    0.0001602263540935209    0.001502413982112512
WARNING: Pair style restartinfo set but has no restart support (src/pair.cpp:754)
WARNING: Pair style restartinfo set but has no restart support (src/pair.cpp:754)
        79     0.007900000000000001                       0      -713.3065761338834          9072.832167556                       0      -490859.4316019191      -490859.4316019191        546     0.000120572755844062    0.001120590284165279
        79     0.007900000000000001                       0      -713.3065761338834          9072.832167556                       0      -490859.4316019191      -490859.4316019191        546     0.000120572755844062    0.001120590284165279
WARNING: Pair style restartinfo set but has no restart support (src/pair.cpp:754)
WARNING: Pair style restartinfo set but has no restart support (src/pair.cpp:754)
        80                    0.008                       0      -713.7465770855143       9245.448743110999                       0      -490859.4316019722      -490859.4316019722        546      9.9399680157291e-05   0.0009111207469460421
        80                    0.008                       0      -713.7465770855143       9245.448743110999                       0      -490859.4316019722      -490859.4316019722        546      9.9399680157291e-05   0.0009111207469460421
Loop time of 9245.45 on 48 procs for 80 steps with 546 atoms

Loop time of 9245.45 on 48 procs for 80 steps with 546 atoms

457.8% CPU use with 4 MPI tasks x 12 OpenMP threads
457.8% CPU use with 4 MPI tasks x 12 OpenMP threads

Minimization stats:
  Stopping criterion = force tolerance
  Energy initial, next-to-last, final = 
     -490835.317567813  -490859.431601919  -490859.431601972
  Force two-norm initial, final = 37.26616 0.00091112075
  Force max component initial, final = 2.6304834 9.939968e-05
  Final line search alpha, max atom move = 1 9.939968e-05
  Iterations, force evaluations = 80 160

Minimization stats:
  Stopping criterion = force tolerance
  Energy initial, next-to-last, final = 
     -490835.317567813  -490859.431601919  -490859.431601972
  Force two-norm initial, final = 37.26616 0.00091112075
  Force max component initial, final = 2.6304834 9.939968e-05
  Final line search alpha, max atom move = 1 9.939968e-05
  Iterations, force evaluations = 80 160

MPI task timing breakdown:
Section |  min time  |  avg time  |  max time  |%varavg| %total
---------------------------------------------------------------

MPI task timing breakdown:
Section |  min time  |  avg time  |  max time  |%varavg| %total
---------------------------------------------------------------
Pair    | 6565.1     | 7894.7     | 9224.6     |1495.7 | 85.39
Pair    | 6565.1     | 7894.7     | 9224.6     |1495.7 | 85.39
Neigh   | 2.9692     | 3.6674     | 4.3713     |  36.5 |  0.04
Neigh   | 2.9692     | 3.6674     | 4.3713     |  36.5 |  0.04
Comm    | 16.394     | 1347       | 2677.3     |3622.9 | 14.57
Comm    | 16.394     | 1347       | 2677.3     |3622.9 | 14.57
Output  | 0.084652   | 0.084796   | 0.085194   |   0.1 |  0.00
Output  | 0.084652   | 0.084796   | 0.085194   |   0.1 |  0.00
Modify  | 0          | 0          | 0          |   0.0 |  0.00
Modify  | 0          | 0          | 0          |   0.0 |  0.00
Other   |            | 0.02189    |            |       |  0.00
Other   |            | 0.02189    |            |       |  0.00

Nlocal:          136.5 ave         214 max          59 min
Histogram: 2 0 0 0 0 0 0 0 0 2
Nghost:         4098.5 ave        4781 max        3416 min
Histogram: 2 0 0 0 0 0 0 0 0 2
Neighs:              0 ave           0 max           0 min
Histogram: 4 0 0 0 0 0 0 0 0 0
FullNghs:        88027 ave      138994 max       37014 min
Histogram: 2 0 0 0 0 0 0 0 0 2

Nlocal:          136.5 ave         214 max          59 min
Histogram: 2 0 0 0 0 0 0 0 0 2
Nghost:         4098.5 ave        4781 max        3416 min
Histogram: 2 0 0 0 0 0 0 0 0 2
Neighs:              0 ave           0 max           0 min
Histogram: 4 0 0 0 0 0 0 0 0 0
FullNghs:        88027 ave      138994 max       37014 min
Histogram: 2 0 0 0 0 0 0 0 0 2


Total # of neighbors = 352108
Ave neighs/atom = 644.88645
Neighbor list builds = 161
Dangerous builds = 0
Total # of neighbors = 352108
Ave neighs/atom = 644.88645
Neighbor list builds = 161
Dangerous builds = 0
write_dump all xyz /home/theory/phrrpq/bilayer_relaxations/MoS2_WS2/AP/5/MoS2_WS2_AP_5.xyz modify sort id pbc yes element Mo W S

Total wall time: 2:36:01
Total wall time: 2:36:01
