OMP_THREADS: 32
MPI: 1
NTASKS-PER-NODE: 4
CPUS_PER_TASK: 32
LAMMPS (28 Mar 2023 - Development)
  using 32 OpenMP thread(s) per MPI task
  using 32 OpenMP thread(s) per MPI task
Reading data file ...
  triclinic box = (0 0 0) to (60.444669 52.346619 30) with tilt (30.222334 0 0)
WARNING: Triclinic box skew is large. LAMMPS will run inefficiently. (src/domain.cpp:220)
  2 by 2 by 1 MPI processor grid
  reading atoms ...
  1986 atoms
  read_data CPU = 0.082 seconds
CUDA unavailable, setting device type to torch::kCPU.
CUDA unavailable, setting device type to torch::kCPU.
CUDA unavailable, setting device type to torch::kCPU.
CUDA unavailable, setting device type to torch::kCPU.
Loading MACE model from "/home/p/phrrpq/bilayer_relaxations/MoWSSe_bi_radius_8_reduced_all_1_swa_800_run-123_swa.model-lammps.pt" ... finished.
Loading MACE model from "/home/p/phrrpq/bilayer_relaxations/MoWSSe_bi_radius_8_reduced_all_1_swa_800_run-123_swa.model-lammps.pt" ... finished.
Loading MACE model from "/home/p/phrrpq/bilayer_relaxations/MoWSSe_bi_radius_8_reduced_all_1_swa_800_run-123_swa.model-lammps.pt" ... finished.
Loading MACE model from "/home/p/phrrpq/bilayer_relaxations/MoWSSe_bi_radius_8_reduced_all_1_swa_800_run-123_swa.model-lammps.pt" ... finished.
  - The torch_float_dtype is: Double
  - The torch_float_dtype is: Double
  - The torch_float_dtype is: Double
  - The torch_float_dtype is: Double
  - The r_max is: 8.
  - The r_max is: 8.
  - The r_max is: 8.
  - The r_max is: 8.
  - The model has: 2 layers.
  - The model has: 2 layers.
  - The model has: 2 layers.
  - The model has: 2 layers.
  - The model atomic numbers are: 16 34 42 74.
  - The pair_coeff atomic numbers are: 42 34.
  - The model atomic numbers are: 16 34 42 74.
  - The pair_coeff atomic numbers are: 42 34.
  - The model atomic numbers are: 16 34 42 74.
  - The pair_coeff atomic numbers are: 42 34.
  - The model atomic numbers are: 16 34 42 74.
  - The pair_coeff atomic numbers are: 42 34.
Generated 0 of 1 mixed pair_coeff terms from geometric mixing rule
Neighbor list info ...
  update: every = 1 steps, delay = 0 steps, check = yes
  max neighbors/atom: 2000, page size: 100000
  master list distance cutoff = 18
  ghost atom cutoff = 18
  binsize = 9, bins = 11 6 4
  1 neighbor lists, perpetual/occasional/extra = 1 0 0
  (1) pair mace, perpetual
      attributes: full, newton on, ghost
      pair build: full/bin/ghost
      stencil: full/ghost/bin/3d
      bin: standard
Setting up Verlet run ...
  Unit style    : metal
  Current step  : 0
  Time step     : 0.0001
Per MPI rank memory allocation (min/avg/max) = 40.99 | 40.99 | 40.99 Mbytes
   Step          Time           Temp          Press           CPU           KinEng         PotEng         TotEng        Atoms         Fmax          Fnorm     
         0                        0                       0       2060.556489032588                       0                       0      -2048392.845397389      -2048392.845397389       1986        1.244202472268492       32.31577383597682
Loop time of 2.71975e-06 on 128 procs for 0 steps with 1986 atoms

36.8% CPU use with 4 MPI tasks x 32 OpenMP threads

MPI task timing breakdown:
Section |  min time  |  avg time  |  max time  |%varavg| %total
---------------------------------------------------------------
Pair    | 0          | 0          | 0          |   0.0 |  0.00
Neigh   | 0          | 0          | 0          |   0.0 |  0.00
Comm    | 0          | 0          | 0          |   0.0 |  0.00
Output  | 0          | 0          | 0          |   0.0 |  0.00
Modify  | 0          | 0          | 0          |   0.0 |  0.00
Other   |            | 2.72e-06   |            |       |100.00

Nlocal:          496.5 ave         511 max         480 min
Histogram: 1 1 0 0 0 0 0 0 0 2
Nghost:           5096 ave        5100 max        5093 min
Histogram: 2 0 0 0 0 0 0 1 0 1
Neighs:              0 ave           0 max           0 min
Histogram: 4 0 0 0 0 0 0 0 0 0
FullNghs:       293302 ave      302003 max      283554 min
Histogram: 1 1 0 0 0 0 0 0 0 2

Total # of neighbors = 1173210
Ave neighs/atom = 590.74018
Neighbor list builds = 0
Dangerous builds = 0
BEGIN LAMMPS STANDALONE MINIMIZATION; ii = 10; OMP = 12; MPI = 4
minimize 0.0 1e-3 1000 100000
Generated 0 of 1 mixed pair_coeff terms from geometric mixing rule
Generated 0 of 1 mixed pair_coeff terms from geometric mixing rule
Setting up cg style minimization ...
  Unit style    : metal
  Current step  : 0
Per MPI rank memory allocation (min/avg/max) = 42.11 | 42.11 | 42.11 Mbytes
Per MPI rank memory allocation (min/avg/max) = 42.11 | 42.11 | 42.11 Mbytes
   Step          Time           Temp          Press           CPU           KinEng         PotEng         TotEng        Atoms         Fmax          Fnorm     
   Step          Time           Temp          Press           CPU           KinEng         PotEng         TotEng        Atoms         Fmax          Fnorm     
         0                        0                       0       2060.556489032575                       0                       0      -2048392.845397389      -2048392.845397389       1986        1.244202472268492       32.31577383597677
         0                        0                       0       2060.556489032575                       0                       0      -2048392.845397389      -2048392.845397389       1986        1.244202472268492       32.31577383597677
WARNING: Pair style restartinfo set but has no restart support (src/pair.cpp:754)
WARNING: Pair style restartinfo set but has no restart support (src/pair.cpp:754)
         1                   0.0001                       0       1756.265630159994             356.2870561                       0      -2048415.413159594      -2048415.413159594       1986       0.2536341668967519       4.679956146273042
         1                   0.0001                       0       1756.265630159994             356.2870561                       0      -2048415.413159594      -2048415.413159594       1986       0.2536341668967519       4.679956146273042
WARNING: Pair style restartinfo set but has no restart support (src/pair.cpp:754)
WARNING: Pair style restartinfo set but has no restart support (src/pair.cpp:754)
         2                   0.0002                       0        3924.06816306333       711.1294448599999                       0       -2048417.16791832       -2048417.16791832       1986       0.5287405983873337       6.796562504187698
         2                   0.0002                       0        3924.06816306333       711.1294448599999                       0       -2048417.16791832       -2048417.16791832       1986       0.5287405983873337       6.796562504187698
WARNING: Pair style restartinfo set but has no restart support (src/pair.cpp:754)
WARNING: Pair style restartinfo set but has no restart support (src/pair.cpp:754)
         3                   0.0003                       0       3801.247251028617          1065.837027641                       0      -2048419.668020843      -2048419.668020843       1986       0.6496191159829199       9.551047116370768
         3                   0.0003                       0       3801.247251028617          1065.837027641                       0      -2048419.668020843      -2048419.668020843       1986       0.6496191159829199       9.551047116370768
WARNING: Pair style restartinfo set but has no restart support (src/pair.cpp:754)
WARNING: Pair style restartinfo set but has no restart support (src/pair.cpp:754)
         4                   0.0004                       0       742.0088593722044          1242.577250643                       0      -2048424.223623808      -2048424.223623808       1986       0.2050144738340013       4.637353170335887
         4                   0.0004                       0       742.0088593722044          1242.577250643                       0      -2048424.223623808      -2048424.223623808       1986       0.2050144738340013       4.637353170335887
WARNING: Pair style restartinfo set but has no restart support (src/pair.cpp:754)
WARNING: Pair style restartinfo set but has no restart support (src/pair.cpp:754)
         5                   0.0005                       0       406.2468363634528          1594.026708144                       0      -2048424.932866179      -2048424.932866179       1986       0.1985054278570772       4.113229845131664
         5                   0.0005                       0       406.2468363634528          1594.026708144                       0      -2048424.932866179      -2048424.932866179       1986       0.1985054278570772       4.113229845131664
WARNING: Pair style restartinfo set but has no restart support (src/pair.cpp:754)
WARNING: Pair style restartinfo set but has no restart support (src/pair.cpp:754)
         6    0.0006000000000000001                       0       155.9199322331827          1949.311594323                       0      -2048425.461014444      -2048425.461014444       1986      0.08084601752800369       1.952050579351322
         6    0.0006000000000000001                       0       155.9199322331827          1949.311594323                       0      -2048425.461014444      -2048425.461014444       1986      0.08084601752800369       1.952050579351322
WARNING: Pair style restartinfo set but has no restart support (src/pair.cpp:754)
WARNING: Pair style restartinfo set but has no restart support (src/pair.cpp:754)
         7                   0.0007                       0       506.5602260467823          2300.969877776                       0      -2048425.692765047      -2048425.692765047       1986      0.09842546152918927       2.251258001141254
         7                   0.0007                       0       506.5602260467823          2300.969877776                       0      -2048425.692765047      -2048425.692765047       1986      0.09842546152918927       2.251258001141254
WARNING: Pair style restartinfo set but has no restart support (src/pair.cpp:754)
WARNING: Pair style restartinfo set but has no restart support (src/pair.cpp:754)
         8                   0.0008                       0       779.0953998464333          2650.729447215                       0      -2048426.617167283      -2048426.617167283       1986       0.1974230622830506       4.507854060180249
         8                   0.0008                       0       779.0953998464333          2650.729447215                       0      -2048426.617167283      -2048426.617167283       1986       0.1974230622830506       4.507854060180249
WARNING: Pair style restartinfo set but has no restart support (src/pair.cpp:754)
WARNING: Pair style restartinfo set but has no restart support (src/pair.cpp:754)
         9    0.0009000000000000001                       0      -670.0876944878025          3001.430050625                       0      -2048427.786864551      -2048427.786864551       1986        0.253737219841146       3.546560919869535
         9    0.0009000000000000001                       0      -670.0876944878025          3001.430050625                       0      -2048427.786864551      -2048427.786864551       1986        0.253737219841146       3.546560919869535
WARNING: Pair style restartinfo set but has no restart support (src/pair.cpp:754)
WARNING: Pair style restartinfo set but has no restart support (src/pair.cpp:754)
        10                    0.001                       0      -988.0921812991568          3349.311731051                       0      -2048427.995872775      -2048427.995872775       1986      0.03580110381322185      0.7843011594150209
        10                    0.001                       0      -988.0921812991568          3349.311731051                       0      -2048427.995872775      -2048427.995872775       1986      0.03580110381322185      0.7843011594150209
WARNING: Pair style restartinfo set but has no restart support (src/pair.cpp:754)
WARNING: Pair style restartinfo set but has no restart support (src/pair.cpp:754)
        11                   0.0011                       0      -836.6072044441318          3697.598612962                       0      -2048428.028302921      -2048428.028302921       1986        0.026841815004715      0.4525776395609053
        11                   0.0011                       0      -836.6072044441318          3697.598612962                       0      -2048428.028302921      -2048428.028302921       1986        0.026841815004715      0.4525776395609053
WARNING: Pair style restartinfo set but has no restart support (src/pair.cpp:754)
WARNING: Pair style restartinfo set but has no restart support (src/pair.cpp:754)
        12                   0.0012                       0      -847.7100703109437          4046.987263651                       0      -2048428.033965146      -2048428.033965146       1986      0.02011564461058818      0.2689405322365819
        12                   0.0012                       0      -847.7100703109437          4046.987263651                       0      -2048428.033965146      -2048428.033965146       1986      0.02011564461058818      0.2689405322365819
WARNING: Pair style restartinfo set but has no restart support (src/pair.cpp:754)
WARNING: Pair style restartinfo set but has no restart support (src/pair.cpp:754)
        13                   0.0013                       0      -881.5653056598308       4399.682212107999                       0      -2048428.036118796      -2048428.036118796       1986      0.01100719348117336      0.2044390653049764
        13                   0.0013                       0      -881.5653056598308       4399.682212107999                       0      -2048428.036118796      -2048428.036118796       1986      0.01100719348117336      0.2044390653049764
WARNING: Pair style restartinfo set but has no restart support (src/pair.cpp:754)
WARNING: Pair style restartinfo set but has no restart support (src/pair.cpp:754)
        14                   0.0014                       0      -953.6722198346514          4749.486359861                       0      -2048428.041204299      -2048428.041204299       1986       0.0229287113512239      0.4071503391120416
        14                   0.0014                       0      -953.6722198346514          4749.486359861                       0      -2048428.041204299      -2048428.041204299       1986       0.0229287113512239      0.4071503391120416
WARNING: Pair style restartinfo set but has no restart support (src/pair.cpp:754)
WARNING: Pair style restartinfo set but has no restart support (src/pair.cpp:754)
        15                   0.0015                       0      -957.4220850923059       5091.320562690999                       0      -2048428.061837453      -2048428.061837453       1986      0.05082768198854684      0.5550080900872661
        15                   0.0015                       0      -957.4220850923059       5091.320562690999                       0      -2048428.061837453      -2048428.061837453       1986      0.05082768198854684      0.5550080900872661
WARNING: Pair style restartinfo set but has no restart support (src/pair.cpp:754)
WARNING: Pair style restartinfo set but has no restart support (src/pair.cpp:754)
        16                   0.0016                       0      -919.4868114071053          5440.824484023                       0      -2048428.067761966      -2048428.067761966       1986     0.008810569551720285      0.1734048890205827
        16                   0.0016                       0      -919.4868114071053          5440.824484023                       0      -2048428.067761966      -2048428.067761966       1986     0.008810569551720285      0.1734048890205827
WARNING: Pair style restartinfo set but has no restart support (src/pair.cpp:754)
WARNING: Pair style restartinfo set but has no restart support (src/pair.cpp:754)
        17                   0.0017                       0      -867.1268285867591          5791.210447116                       0      -2048428.069526152      -2048428.069526152       1986      0.01096529535214661      0.1737001604228166
        17                   0.0017                       0      -867.1268285867591          5791.210447116                       0      -2048428.069526152      -2048428.069526152       1986      0.01096529535214661      0.1737001604228166
WARNING: Pair style restartinfo set but has no restart support (src/pair.cpp:754)
WARNING: Pair style restartinfo set but has no restart support (src/pair.cpp:754)
        18                   0.0018                       0      -869.3289543875866          6135.113952096                       0      -2048428.070991727      -2048428.070991727       1986      0.01538288906855163      0.1986868222163378
        18                   0.0018                       0      -869.3289543875866          6135.113952096                       0      -2048428.070991727      -2048428.070991727       1986      0.01538288906855163      0.1986868222163378
WARNING: Pair style restartinfo set but has no restart support (src/pair.cpp:754)
WARNING: Pair style restartinfo set but has no restart support (src/pair.cpp:754)
        19                   0.0019                       0      -921.6937796726158          6480.160752686                       0      -2048428.073177706      -2048428.073177706       1986      0.01327051303998416      0.2332522540426343
        19                   0.0019                       0      -921.6937796726158          6480.160752686                       0      -2048428.073177706      -2048428.073177706       1986      0.01327051303998416      0.2332522540426343
WARNING: Pair style restartinfo set but has no restart support (src/pair.cpp:754)
WARNING: Pair style restartinfo set but has no restart support (src/pair.cpp:754)
        20                    0.002                       0      -961.3939520990956          6826.921834295                       0      -2048428.077310751      -2048428.077310751       1986      0.01198054177309504      0.2548858210279269
        20                    0.002                       0      -961.3939520990956          6826.921834295                       0      -2048428.077310751      -2048428.077310751       1986      0.01198054177309504      0.2548858210279269
WARNING: Pair style restartinfo set but has no restart support (src/pair.cpp:754)
WARNING: Pair style restartinfo set but has no restart support (src/pair.cpp:754)
        21                   0.0021                       0      -905.1915880198195          7176.803738901                       0      -2048428.079858407      -2048428.079858407       1986      0.01460190715623502      0.1667182312118328
        21                   0.0021                       0      -905.1915880198195          7176.803738901                       0      -2048428.079858407      -2048428.079858407       1986      0.01460190715623502      0.1667182312118328
WARNING: Pair style restartinfo set but has no restart support (src/pair.cpp:754)
WARNING: Pair style restartinfo set but has no restart support (src/pair.cpp:754)
        22                   0.0022                       0      -885.3975007896611       7526.655092526999                       0      -2048428.080485966      -2048428.080485966       1986     0.003970404336323008     0.08068308378674054
        22                   0.0022                       0      -885.3975007896611       7526.655092526999                       0      -2048428.080485966      -2048428.080485966       1986     0.003970404336323008     0.08068308378674054
WARNING: Pair style restartinfo set but has no restart support (src/pair.cpp:754)
WARNING: Pair style restartinfo set but has no restart support (src/pair.cpp:754)
        23                   0.0023                       0      -907.4029328814917       7874.973052988999                       0      -2048428.081539808      -2048428.081539808       1986      0.01430757875240019      0.1772532336751337
        23                   0.0023                       0      -907.4029328814917       7874.973052988999                       0      -2048428.081539808      -2048428.081539808       1986      0.01430757875240019      0.1772532336751337
WARNING: Pair style restartinfo set but has no restart support (src/pair.cpp:754)
WARNING: Pair style restartinfo set but has no restart support (src/pair.cpp:754)
        24                   0.0024                       0      -918.8873288096887          8221.892931786                       0      -2048428.082843595      -2048428.082843595       1986      0.00858004817582023      0.1484830714483469
        24                   0.0024                       0      -918.8873288096887          8221.892931786                       0      -2048428.082843595      -2048428.082843595       1986      0.00858004817582023      0.1484830714483469
WARNING: Pair style restartinfo set but has no restart support (src/pair.cpp:754)
WARNING: Pair style restartinfo set but has no restart support (src/pair.cpp:754)
        25                   0.0025                       0      -892.7737613645705       8567.308730127001                       0       -2048428.08381731       -2048428.08381731       1986     0.009375341453204887      0.1232725357328566
        25                   0.0025                       0      -892.7737613645705       8567.308730127001                       0       -2048428.08381731       -2048428.08381731       1986     0.009375341453204887      0.1232725357328566
WARNING: Pair style restartinfo set but has no restart support (src/pair.cpp:754)
WARNING: Pair style restartinfo set but has no restart support (src/pair.cpp:754)
        26                   0.0026                       0      -874.6537405094736       8917.880224373001                       0      -2048428.084494253      -2048428.084494253       1986      0.01062093031628689      0.1050625271078901
        26                   0.0026                       0      -874.6537405094736       8917.880224373001                       0      -2048428.084494253      -2048428.084494253       1986      0.01062093031628689      0.1050625271078901
WARNING: Pair style restartinfo set but has no restart support (src/pair.cpp:754)
WARNING: Pair style restartinfo set but has no restart support (src/pair.cpp:754)
        27                   0.0027                       0      -884.7850045582505       9264.593025005001                       0      -2048428.084960595      -2048428.084960595       1986     0.007271734037053586     0.09531023435929686
        27                   0.0027                       0      -884.7850045582505       9264.593025005001                       0      -2048428.084960595      -2048428.084960595       1986     0.007271734037053586     0.09531023435929686
WARNING: Pair style restartinfo set but has no restart support (src/pair.cpp:754)
WARNING: Pair style restartinfo set but has no restart support (src/pair.cpp:754)
        28                   0.0028                       0       -905.119869253914       9612.573882743001                       0      -2048428.085442221      -2048428.085442221       1986     0.005381389160174384      0.0924109667856562
        28                   0.0028                       0       -905.119869253914       9612.573882743001                       0      -2048428.085442221      -2048428.085442221       1986     0.005381389160174384      0.0924109667856562
WARNING: Pair style restartinfo set but has no restart support (src/pair.cpp:754)
WARNING: Pair style restartinfo set but has no restart support (src/pair.cpp:754)
        29                   0.0029                       0      -897.7827941588712          9964.265451685                       0       -2048428.08591378       -2048428.08591378       1986     0.008131462883988014     0.08406181126321878
        29                   0.0029                       0      -897.7827941588712          9964.265451685                       0       -2048428.08591378       -2048428.08591378       1986     0.008131462883988014     0.08406181126321878
WARNING: Pair style restartinfo set but has no restart support (src/pair.cpp:754)
WARNING: Pair style restartinfo set but has no restart support (src/pair.cpp:754)
        30                    0.003                       0      -888.3154209901701          10313.54617901                       0      -2048428.086082254      -2048428.086082254       1986     0.002302710506526675     0.04100151293767421
        30                    0.003                       0      -888.3154209901701          10313.54617901                       0      -2048428.086082254      -2048428.086082254       1986     0.002302710506526675     0.04100151293767421
WARNING: Pair style restartinfo set but has no restart support (src/pair.cpp:754)
WARNING: Pair style restartinfo set but has no restart support (src/pair.cpp:754)
        31                   0.0031                       0      -877.9305792850772         10661.192049573                       0      -2048428.086264921      -2048428.086264921       1986     0.006368034099811752     0.07513807852277365
        31                   0.0031                       0      -877.9305792850772         10661.192049573                       0      -2048428.086264921      -2048428.086264921       1986     0.006368034099811752     0.07513807852277365
WARNING: Pair style restartinfo set but has no restart support (src/pair.cpp:754)
WARNING: Pair style restartinfo set but has no restart support (src/pair.cpp:754)
        32                   0.0032                       0      -877.4446823015651         11006.925374974                       0      -2048428.086537204      -2048428.086537204       1986     0.006368566528859478     0.06193338197061677
        32                   0.0032                       0      -877.4446823015651         11006.925374974                       0      -2048428.086537204      -2048428.086537204       1986     0.006368566528859478     0.06193338197061677
WARNING: Pair style restartinfo set but has no restart support (src/pair.cpp:754)
WARNING: Pair style restartinfo set but has no restart support (src/pair.cpp:754)
        33                   0.0033                       0      -889.2715579361923          11354.82512675                       0      -2048428.086692977      -2048428.086692977       1986     0.003229505102686082     0.05233953469346468
        33                   0.0033                       0      -889.2715579361923          11354.82512675                       0      -2048428.086692977      -2048428.086692977       1986     0.003229505102686082     0.05233953469346468
WARNING: Pair style restartinfo set but has no restart support (src/pair.cpp:754)
WARNING: Pair style restartinfo set but has no restart support (src/pair.cpp:754)
        34                   0.0034                       0      -894.6629483383944         11701.507745893                       0      -2048428.086827003      -2048428.086827003       1986     0.003625622540355861     0.04721038359140801
        34                   0.0034                       0      -894.6629483383944         11701.507745893                       0      -2048428.086827003      -2048428.086827003       1986     0.003625622540355861     0.04721038359140801
WARNING: Pair style restartinfo set but has no restart support (src/pair.cpp:754)
WARNING: Pair style restartinfo set but has no restart support (src/pair.cpp:754)
        35                   0.0035                       0      -886.2021317307399          12049.01801268                       0      -2048428.086920647      -2048428.086920647       1986     0.003142472730901428     0.04413634878326574
        35                   0.0035                       0      -886.2021317307399          12049.01801268                       0      -2048428.086920647      -2048428.086920647       1986     0.003142472730901428     0.04413634878326574
WARNING: Pair style restartinfo set but has no restart support (src/pair.cpp:754)
WARNING: Pair style restartinfo set but has no restart support (src/pair.cpp:754)
        36                   0.0036                       0      -875.8367038499617         12396.039556448                       0      -2048428.087015942      -2048428.087015942       1986     0.002937687022746888     0.03874012979588835
        36                   0.0036                       0      -875.8367038499617         12396.039556448                       0      -2048428.087015942      -2048428.087015942       1986     0.002937687022746888     0.03874012979588835
WARNING: Pair style restartinfo set but has no restart support (src/pair.cpp:754)
WARNING: Pair style restartinfo set but has no restart support (src/pair.cpp:754)
        37                   0.0037                       0      -881.4192951627628         12746.717311229                       0      -2048428.087088319      -2048428.087088319       1986     0.004140823514422836     0.03522145050055196
        37                   0.0037                       0      -881.4192951627628         12746.717311229                       0      -2048428.087088319      -2048428.087088319       1986     0.004140823514422836     0.03522145050055196
WARNING: Pair style restartinfo set but has no restart support (src/pair.cpp:754)
WARNING: Pair style restartinfo set but has no restart support (src/pair.cpp:754)
        38                   0.0038                       0         -887.4070760644         13092.409925888                       0      -2048428.087127593      -2048428.087127593       1986     0.001464162562009774     0.02154552577167023
        38                   0.0038                       0         -887.4070760644         13092.409925888                       0      -2048428.087127593      -2048428.087127593       1986     0.001464162562009774     0.02154552577167023
WARNING: Pair style restartinfo set but has no restart support (src/pair.cpp:754)
WARNING: Pair style restartinfo set but has no restart support (src/pair.cpp:754)
        39                   0.0039                       0      -884.8934294979632         13439.899585021                       0      -2048428.087165267      -2048428.087165267       1986     0.002870498972229703     0.03312663988542541
        39                   0.0039                       0      -884.8934294979632         13439.899585021                       0      -2048428.087165267      -2048428.087165267       1986     0.002870498972229703     0.03312663988542541
WARNING: Pair style restartinfo set but has no restart support (src/pair.cpp:754)
WARNING: Pair style restartinfo set but has no restart support (src/pair.cpp:754)
        40                    0.004                       0      -880.6941235212704         13786.077497303                       0      -2048428.087211646      -2048428.087211646       1986     0.001456604820375509     0.02276294852958978
        40                    0.004                       0      -880.6941235212704         13786.077497303                       0      -2048428.087211646      -2048428.087211646       1986     0.001456604820375509     0.02276294852958978
WARNING: Pair style restartinfo set but has no restart support (src/pair.cpp:754)
WARNING: Pair style restartinfo set but has no restart support (src/pair.cpp:754)
        41                   0.0041                       0      -882.7568295161494         14135.236623351                       0      -2048428.087231396      -2048428.087231396       1986     0.001266718555676741     0.01846544260203289
        41                   0.0041                       0      -882.7568295161494         14135.236623351                       0      -2048428.087231396      -2048428.087231396       1986     0.001266718555676741     0.01846544260203289
WARNING: Pair style restartinfo set but has no restart support (src/pair.cpp:754)
WARNING: Pair style restartinfo set but has no restart support (src/pair.cpp:754)
        42     0.004200000000000001                       0      -885.6930690826476         14484.344717461                       0      -2048428.087246177      -2048428.087246177       1986     0.001088660754942433     0.01436128856681482
        42     0.004200000000000001                       0      -885.6930690826476         14484.344717461                       0      -2048428.087246177      -2048428.087246177       1986     0.001088660754942433     0.01436128856681482
WARNING: Pair style restartinfo set but has no restart support (src/pair.cpp:754)
WARNING: Pair style restartinfo set but has no restart support (src/pair.cpp:754)
        43                   0.0043                       0       -884.872240578955           14830.7985796                       0      -2048428.087253687      -2048428.087253687       1986    0.0008049125502362641     0.01175546455841761
        43                   0.0043                       0       -884.872240578955           14830.7985796                       0      -2048428.087253687      -2048428.087253687       1986    0.0008049125502362641     0.01175546455841761
WARNING: Pair style restartinfo set but has no restart support (src/pair.cpp:754)
WARNING: Pair style restartinfo set but has no restart support (src/pair.cpp:754)
        44                   0.0044                       0      -882.1578605386484         15175.035688578                       0      -2048428.087260731      -2048428.087260731       1986    0.0007574086006198535     0.01087799920095477
        44                   0.0044                       0      -882.1578605386484         15175.035688578                       0      -2048428.087260731      -2048428.087260731       1986    0.0007574086006198535     0.01087799920095477
WARNING: Pair style restartinfo set but has no restart support (src/pair.cpp:754)
WARNING: Pair style restartinfo set but has no restart support (src/pair.cpp:754)
        45     0.004500000000000001                       0      -882.2983678668537         15524.549812193                       0      -2048428.087267828      -2048428.087267828       1986    0.0009946882634440544     0.01315868321854701
        45     0.004500000000000001                       0      -882.2983678668537         15524.549812193                       0      -2048428.087267828      -2048428.087267828       1986    0.0009946882634440544     0.01315868321854701
WARNING: Pair style restartinfo set but has no restart support (src/pair.cpp:754)
WARNING: Pair style restartinfo set but has no restart support (src/pair.cpp:754)
        46                   0.0046                       0      -884.5719533670788         15871.441421895                       0      -2048428.087276057      -2048428.087276057       1986    0.0007079631858783661     0.01171577602542688
        46                   0.0046                       0      -884.5719533670788         15871.441421895                       0      -2048428.087276057      -2048428.087276057       1986    0.0007079631858783661     0.01171577602542688
WARNING: Pair style restartinfo set but has no restart support (src/pair.cpp:754)
WARNING: Pair style restartinfo set but has no restart support (src/pair.cpp:754)
        47                   0.0047                       0      -885.2706847397476         16218.772498908                       0      -2048428.087284442      -2048428.087284442       1986     0.001108877617624751     0.01516830035804631
        47                   0.0047                       0      -885.2706847397476         16218.772498908                       0      -2048428.087284442      -2048428.087284442       1986     0.001108877617624751     0.01516830035804631
WARNING: Pair style restartinfo set but has no restart support (src/pair.cpp:754)
WARNING: Pair style restartinfo set but has no restart support (src/pair.cpp:754)
        48                   0.0048                       0      -884.0232554238672         16562.901440874                       0      -2048428.087294556      -2048428.087294556       1986    0.0006220452311970215     0.01063787167212231
        48                   0.0048                       0      -884.0232554238672         16562.901440874                       0      -2048428.087294556      -2048428.087294556       1986    0.0006220452311970215     0.01063787167212231
WARNING: Pair style restartinfo set but has no restart support (src/pair.cpp:754)
WARNING: Pair style restartinfo set but has no restart support (src/pair.cpp:754)
        49                   0.0049                       0      -883.0793322551001         16914.022587537                       0      -2048428.087299593      -2048428.087299593       1986    0.0006667146032925472     0.01018726241673202
        49                   0.0049                       0      -883.0793322551001         16914.022587537                       0      -2048428.087299593      -2048428.087299593       1986    0.0006667146032925472     0.01018726241673202
WARNING: Pair style restartinfo set but has no restart support (src/pair.cpp:754)
WARNING: Pair style restartinfo set but has no restart support (src/pair.cpp:754)
        50                    0.005                       0      -883.2654382372639         17264.106171263                       0      -2048428.087304634      -2048428.087304634       1986    0.0006366417922709337     0.00901565546235083
        50                    0.005                       0      -883.2654382372639         17264.106171263                       0      -2048428.087304634      -2048428.087304634       1986    0.0006366417922709337     0.00901565546235083
WARNING: Pair style restartinfo set but has no restart support (src/pair.cpp:754)
WARNING: Pair style restartinfo set but has no restart support (src/pair.cpp:754)
        51                   0.0051                       0      -884.2531311444619         17612.066286049                       0      -2048428.087308452      -2048428.087308452       1986    0.0006508149157099783    0.008670262171018751
        51                   0.0051                       0      -884.2531311444619         17612.066286049                       0      -2048428.087308452      -2048428.087308452       1986    0.0006508149157099783    0.008670262171018751
WARNING: Pair style restartinfo set but has no restart support (src/pair.cpp:754)
WARNING: Pair style restartinfo set but has no restart support (src/pair.cpp:754)
        52     0.005200000000000001                       0      -884.5226933008705         17961.906925778                       0      -2048428.087311426      -2048428.087311426       1986     0.000403523973896558    0.005757964721554474
        52     0.005200000000000001                       0      -884.5226933008705         17961.906925778                       0      -2048428.087311426      -2048428.087311426       1986     0.000403523973896558    0.005757964721554474
WARNING: Pair style restartinfo set but has no restart support (src/pair.cpp:754)
WARNING: Pair style restartinfo set but has no restart support (src/pair.cpp:754)
        53                   0.0053                       0      -883.9337888489102         18313.607991181                       0      -2048428.087312543      -2048428.087312543       1986    0.0003775879651526487    0.004376682938461491
        53                   0.0053                       0      -883.9337888489102         18313.607991181                       0      -2048428.087312543      -2048428.087312543       1986    0.0003775879651526487    0.004376682938461491
WARNING: Pair style restartinfo set but has no restart support (src/pair.cpp:754)
WARNING: Pair style restartinfo set but has no restart support (src/pair.cpp:754)
        54                   0.0054                       0      -883.4152134035111         18659.813294411                       0      -2048428.087313398      -2048428.087313398       1986    0.0002555011494193238    0.003366163661443933
        54                   0.0054                       0      -883.4152134035111         18659.813294411                       0      -2048428.087313398      -2048428.087313398       1986    0.0002555011494193238    0.003366163661443933
WARNING: Pair style restartinfo set but has no restart support (src/pair.cpp:754)
WARNING: Pair style restartinfo set but has no restart support (src/pair.cpp:754)
        55     0.005500000000000001                       0      -883.9074325250338         19007.390546458                       0      -2048428.087314082      -2048428.087314082       1986    0.0004065255311792276    0.004538970229466998
        55     0.005500000000000001                       0      -883.9074325250338         19007.390546458                       0      -2048428.087314082      -2048428.087314082       1986    0.0004065255311792276    0.004538970229466998
WARNING: Pair style restartinfo set but has no restart support (src/pair.cpp:754)
WARNING: Pair style restartinfo set but has no restart support (src/pair.cpp:754)
        56                   0.0056                       0      -884.7917291739291         19355.029034158                       0      -2048428.087315383      -2048428.087315383       1986    0.0003643070700925866    0.005012174559581521
        56                   0.0056                       0      -884.7917291739291         19355.029034158                       0      -2048428.087315383      -2048428.087315383       1986    0.0003643070700925866    0.005012174559581521
WARNING: Pair style restartinfo set but has no restart support (src/pair.cpp:754)
WARNING: Pair style restartinfo set but has no restart support (src/pair.cpp:754)
        57                   0.0057                       0      -884.1297628766885         19706.172974921                       0      -2048428.087316736      -2048428.087316736       1986    0.0004361746958953046    0.006064427348551741
        57                   0.0057                       0      -884.1297628766885         19706.172974921                       0      -2048428.087316736      -2048428.087316736       1986    0.0004361746958953046    0.006064427348551741
WARNING: Pair style restartinfo set but has no restart support (src/pair.cpp:754)
WARNING: Pair style restartinfo set but has no restart support (src/pair.cpp:754)
        58                   0.0058                       0      -882.4753943234465         20053.533317024                       0      -2048428.087319009      -2048428.087319009       1986    0.0003951771959851329    0.006116848922679573
        58                   0.0058                       0      -882.4753943234465         20053.533317024                       0      -2048428.087319009      -2048428.087319009       1986    0.0003951771959851329    0.006116848922679573
WARNING: Pair style restartinfo set but has no restart support (src/pair.cpp:754)
WARNING: Pair style restartinfo set but has no restart support (src/pair.cpp:754)
        59                   0.0059                       0       -883.237546915437         20402.382756045                       0       -2048428.08732081       -2048428.08732081       1986    0.0003188595886234358    0.005499360298787548
        59                   0.0059                       0       -883.237546915437         20402.382756045                       0       -2048428.08732081       -2048428.08732081       1986    0.0003188595886234358    0.005499360298787548
WARNING: Pair style restartinfo set but has no restart support (src/pair.cpp:754)
WARNING: Pair style restartinfo set but has no restart support (src/pair.cpp:754)
        60                    0.006                       0      -884.4549145806691         20752.383943673                       0      -2048428.087321999      -2048428.087321999       1986    0.0002560603019722395    0.004075898991118859
        60                    0.006                       0      -884.4549145806691         20752.383943673                       0      -2048428.087321999      -2048428.087321999       1986    0.0002560603019722395    0.004075898991118859
WARNING: Pair style restartinfo set but has no restart support (src/pair.cpp:754)
WARNING: Pair style restartinfo set but has no restart support (src/pair.cpp:754)
        61                   0.0061                       0      -884.2808231715795          21103.39241171                       0      -2048428.087322737      -2048428.087322737       1986    0.0003240482431393206    0.004308381444537391
        61                   0.0061                       0      -884.2808231715795          21103.39241171                       0      -2048428.087322737      -2048428.087322737       1986    0.0003240482431393206    0.004308381444537391
WARNING: Pair style restartinfo set but has no restart support (src/pair.cpp:754)
WARNING: Pair style restartinfo set but has no restart support (src/pair.cpp:754)
        62     0.006200000000000001                       0      -883.2188098832471         21451.034121566                       0      -2048428.087323711      -2048428.087323711       1986     0.000223419600231312    0.003712623721511495
        62     0.006200000000000001                       0      -883.2188098832471         21451.034121566                       0      -2048428.087323711      -2048428.087323711       1986     0.000223419600231312    0.003712623721511495
WARNING: Pair style restartinfo set but has no restart support (src/pair.cpp:754)
WARNING: Pair style restartinfo set but has no restart support (src/pair.cpp:754)
        63                   0.0063                       0      -883.3119152103269         21798.105876448                       0      -2048428.087324351      -2048428.087324351       1986    0.0002898259239726779     0.00371249164329219
        63                   0.0063                       0      -883.3119152103269         21798.105876448                       0      -2048428.087324351      -2048428.087324351       1986    0.0002898259239726779     0.00371249164329219
WARNING: Pair style restartinfo set but has no restart support (src/pair.cpp:754)
WARNING: Pair style restartinfo set but has no restart support (src/pair.cpp:754)
        64                   0.0064                       0      -884.1187226044257         22148.113281177                       0      -2048428.087325069      -2048428.087325069       1986    0.0002355164233665852    0.003454600680051567
        64                   0.0064                       0      -884.1187226044257         22148.113281177                       0      -2048428.087325069      -2048428.087325069       1986    0.0002355164233665852    0.003454600680051567
WARNING: Pair style restartinfo set but has no restart support (src/pair.cpp:754)
WARNING: Pair style restartinfo set but has no restart support (src/pair.cpp:754)
        65     0.006500000000000001                       0       -884.150566698302         22498.946638667                       0      -2048428.087325799      -2048428.087325799       1986    0.0003221526970945037    0.004476765098025195
        65     0.006500000000000001                       0       -884.150566698302         22498.946638667                       0      -2048428.087325799      -2048428.087325799       1986    0.0003221526970945037    0.004476765098025195
WARNING: Pair style restartinfo set but has no restart support (src/pair.cpp:754)
WARNING: Pair style restartinfo set but has no restart support (src/pair.cpp:754)
        66                   0.0066                       0      -883.4885965731746         22847.306175173                       0      -2048428.087326764      -2048428.087326764       1986    0.0002107512771003638    0.003515888941593512
        66                   0.0066                       0      -883.4885965731746         22847.306175173                       0      -2048428.087326764      -2048428.087326764       1986    0.0002107512771003638    0.003515888941593512
WARNING: Pair style restartinfo set but has no restart support (src/pair.cpp:754)
WARNING: Pair style restartinfo set but has no restart support (src/pair.cpp:754)
        67                   0.0067                       0      -883.3698007880678         23195.249522899                       0      -2048428.087327225      -2048428.087327225       1986    0.0002676422305698982    0.002946187956815289
        67                   0.0067                       0      -883.3698007880678         23195.249522899                       0      -2048428.087327225      -2048428.087327225       1986    0.0002676422305698982    0.002946187956815289
WARNING: Pair style restartinfo set but has no restart support (src/pair.cpp:754)
WARNING: Pair style restartinfo set but has no restart support (src/pair.cpp:754)
        68                   0.0068                       0       -883.677967339353         23543.083895037                       0      -2048428.087327649      -2048428.087327649       1986    0.0001844014088412124    0.002687000003391016
        68                   0.0068                       0       -883.677967339353         23543.083895037                       0      -2048428.087327649      -2048428.087327649       1986    0.0001844014088412124    0.002687000003391016
WARNING: Pair style restartinfo set but has no restart support (src/pair.cpp:754)
WARNING: Pair style restartinfo set but has no restart support (src/pair.cpp:754)
        69     0.006900000000000001                       0      -883.8832005900364         23893.218170628                       0      -2048428.087328102      -2048428.087328102       1986    0.0003399306768106573    0.003427875284697476
        69     0.006900000000000001                       0      -883.8832005900364         23893.218170628                       0      -2048428.087328102      -2048428.087328102       1986    0.0003399306768106573    0.003427875284697476
WARNING: Pair style restartinfo set but has no restart support (src/pair.cpp:754)
WARNING: Pair style restartinfo set but has no restart support (src/pair.cpp:754)
        70                    0.007                       0      -883.6878410331032         24241.753028059                       0      -2048428.087328685      -2048428.087328685       1986    0.0001875901084208523    0.002751958414943516
        70                    0.007                       0      -883.6878410331032         24241.753028059                       0      -2048428.087328685      -2048428.087328685       1986    0.0001875901084208523    0.002751958414943516
WARNING: Pair style restartinfo set but has no restart support (src/pair.cpp:754)
WARNING: Pair style restartinfo set but has no restart support (src/pair.cpp:754)
        71                   0.0071                       0      -883.4531355842104         24590.890243306                       0      -2048428.087328956      -2048428.087328956       1986     0.000174795450298623    0.002254994562051292
        71                   0.0071                       0      -883.4531355842104         24590.890243306                       0      -2048428.087328956      -2048428.087328956       1986     0.000174795450298623    0.002254994562051292
WARNING: Pair style restartinfo set but has no restart support (src/pair.cpp:754)
WARNING: Pair style restartinfo set but has no restart support (src/pair.cpp:754)
        72     0.007200000000000001                       0       -883.384099950275          24940.74881821                       0      -2048428.087329217      -2048428.087329217       1986     0.000192496395491042    0.002029211150907726
        72     0.007200000000000001                       0       -883.384099950275          24940.74881821                       0      -2048428.087329217      -2048428.087329217       1986     0.000192496395491042    0.002029211150907726
WARNING: Pair style restartinfo set but has no restart support (src/pair.cpp:754)
WARNING: Pair style restartinfo set but has no restart support (src/pair.cpp:754)
        73                   0.0073                       0      -883.5734095657032         25288.826019024                       0       -2048428.08732942       -2048428.08732942       1986    0.0001730655912210017    0.002222187097442507
        73                   0.0073                       0      -883.5734095657032         25288.826019024                       0       -2048428.08732942       -2048428.08732942       1986    0.0001730655912210017    0.002222187097442507
WARNING: Pair style restartinfo set but has no restart support (src/pair.cpp:754)
WARNING: Pair style restartinfo set but has no restart support (src/pair.cpp:754)
        74                   0.0074                       0      -883.7278152570262         25634.912023304                       0      -2048428.087329659      -2048428.087329659       1986    0.0001538916010514618    0.001753929366978974
        74                   0.0074                       0      -883.7278152570262         25634.912023304                       0      -2048428.087329659      -2048428.087329659       1986    0.0001538916010514618    0.001753929366978974
WARNING: Pair style restartinfo set but has no restart support (src/pair.cpp:754)
WARNING: Pair style restartinfo set but has no restart support (src/pair.cpp:754)
        75     0.007500000000000001                       0      -883.5341426302473         25982.597253323                       0      -2048428.087329787      -2048428.087329787       1986    0.0001318452174308912    0.001589652604353442
        75     0.007500000000000001                       0      -883.5341426302473         25982.597253323                       0      -2048428.087329787      -2048428.087329787       1986    0.0001318452174308912    0.001589652604353442
WARNING: Pair style restartinfo set but has no restart support (src/pair.cpp:754)
WARNING: Pair style restartinfo set but has no restart support (src/pair.cpp:754)
        76                   0.0076                       0      -883.3208899037068         26325.997371196                       0      -2048428.087329905      -2048428.087329905       1986    0.0001131294918778809    0.001390109410861516
        76                   0.0076                       0      -883.3208899037068         26325.997371196                       0      -2048428.087329905      -2048428.087329905       1986    0.0001131294918778809    0.001390109410861516
WARNING: Pair style restartinfo set but has no restart support (src/pair.cpp:754)
WARNING: Pair style restartinfo set but has no restart support (src/pair.cpp:754)
        77                   0.0077                       0      -883.4359087323986         26674.463326684                       0      -2048428.087330002      -2048428.087330002       1986     0.000124742596559866    0.001561689547949126
        77                   0.0077                       0      -883.4359087323986         26674.463326684                       0      -2048428.087330002      -2048428.087330002       1986     0.000124742596559866    0.001561689547949126
WARNING: Pair style restartinfo set but has no restart support (src/pair.cpp:754)
WARNING: Pair style restartinfo set but has no restart support (src/pair.cpp:754)
        78     0.007800000000000001                       0      -883.6766792867908         27025.094582621                       0      -2048428.087330127      -2048428.087330127       1986    0.0001150436108031984    0.001203921599667707
        78     0.007800000000000001                       0      -883.6766792867908         27025.094582621                       0      -2048428.087330127      -2048428.087330127       1986    0.0001150436108031984    0.001203921599667707
WARNING: Pair style restartinfo set but has no restart support (src/pair.cpp:754)
WARNING: Pair style restartinfo set but has no restart support (src/pair.cpp:754)
        79     0.007900000000000001                       0       -883.552715282119         27373.554571036                       0      -2048428.087330186      -2048428.087330186       1986    8.152878755385631e-05    0.001109930390464868
        79     0.007900000000000001                       0       -883.552715282119         27373.554571036                       0      -2048428.087330186      -2048428.087330186       1986    8.152878755385631e-05    0.001109930390464868
WARNING: Pair style restartinfo set but has no restart support (src/pair.cpp:754)
WARNING: Pair style restartinfo set but has no restart support (src/pair.cpp:754)
        80                    0.008                       0      -883.3276408404274         27724.089334574                       0      -2048428.087330247      -2048428.087330247       1986    8.776291818429948e-05    0.001011506565948423
        80                    0.008                       0      -883.3276408404274         27724.089334574                       0      -2048428.087330247      -2048428.087330247       1986    8.776291818429948e-05    0.001011506565948423
WARNING: Pair style restartinfo set but has no restart support (src/pair.cpp:754)
WARNING: Pair style restartinfo set but has no restart support (src/pair.cpp:754)
        81                   0.0081                       0      -883.3956732622444         28071.819694142                       0      -2048428.087330294      -2048428.087330294       1986    9.206006171491788e-05    0.001074250437030204
        81                   0.0081                       0      -883.3956732622444         28071.819694142                       0      -2048428.087330294      -2048428.087330294       1986    9.206006171491788e-05    0.001074250437030204
WARNING: Pair style restartinfo set but has no restart support (src/pair.cpp:754)
WARNING: Pair style restartinfo set but has no restart support (src/pair.cpp:754)
        82     0.008200000000000001                       0      -883.6771236438896         28591.179776372                       0      -2048428.087330363      -2048428.087330363       1986    7.830763191088241e-05   0.0009838011257117896
        82     0.008200000000000001                       0      -883.6771236438896         28591.179776372                       0      -2048428.087330363      -2048428.087330363       1986    7.830763191088241e-05   0.0009838011257117896
Loop time of 28591.2 on 128 procs for 82 steps with 1986 atoms

Loop time of 28591.2 on 128 procs for 82 steps with 1986 atoms

245.2% CPU use with 4 MPI tasks x 32 OpenMP threads
245.2% CPU use with 4 MPI tasks x 32 OpenMP threads

Minimization stats:
  Stopping criterion = force tolerance
  Energy initial, next-to-last, final = 
     -2048392.84539739  -2048428.08733029  -2048428.08733036
  Force two-norm initial, final = 32.315774 0.00098380113
  Force max component initial, final = 1.2442025 7.8307632e-05
  Final line search alpha, max atom move = 1 7.8307632e-05
  Iterations, force evaluations = 82 163

Minimization stats:
  Stopping criterion = force tolerance
  Energy initial, next-to-last, final = 
     -2048392.84539739  -2048428.08733029  -2048428.08733036
  Force two-norm initial, final = 32.315774 0.00098380113
  Force max component initial, final = 1.2442025 7.8307632e-05
  Final line search alpha, max atom move = 1 7.8307632e-05
  Iterations, force evaluations = 82 163

MPI task timing breakdown:
Section |  min time  |  avg time  |  max time  |%varavg| %total
---------------------------------------------------------------

MPI task timing breakdown:
Section |  min time  |  avg time  |  max time  |%varavg| %total
---------------------------------------------------------------
Pair    | 28198      | 28304      | 28351      |  36.9 | 99.00
Pair    | 28198      | 28304      | 28351      |  36.9 | 99.00
Neigh   | 4.9593     | 4.9799     | 5.0191     |   1.1 |  0.02
Neigh   | 4.9593     | 4.9799     | 5.0191     |   1.1 |  0.02
Comm    | 234.79     | 281.79     | 388.23     | 369.5 |  0.99
Comm    | 234.79     | 281.79     | 388.23     | 369.5 |  0.99
Output  | 0.2171     | 0.21722    | 0.21758    |   0.0 |  0.00
Output  | 0.2171     | 0.21722    | 0.21758    |   0.0 |  0.00
Modify  | 0          | 0          | 0          |   0.0 |  0.00
Modify  | 0          | 0          | 0          |   0.0 |  0.00
Other   |            | 0.06597    |            |       |  0.00
Other   |            | 0.06597    |            |       |  0.00

Nlocal:          496.5 ave         510 max         483 min
Histogram: 2 0 0 0 0 0 0 0 0 2
Nghost:           5103 ave        5107 max        5096 min
Histogram: 1 0 0 0 0 0 1 0 0 2
Neighs:              0 ave           0 max           0 min
Histogram: 4 0 0 0 0 0 0 0 0 0
FullNghs:       291260 ave      299537 max      283207 min
Histogram: 2 0 0 0 0 0 0 0 0 2

Nlocal:          496.5 ave         510 max         483 min
Histogram: 2 0 0 0 0 0 0 0 0 2
Nghost:           5103 ave        5107 max        5096 min
Histogram: 1 0 0 0 0 0 1 0 0 2
Neighs:              0 ave           0 max           0 min
Histogram: 4 0 0 0 0 0 0 0 0 0
FullNghs:       291260 ave      299537 max      283207 min
Histogram: 2 0 0 0 0 0 0 0 0 2


Total # of neighbors = 1165040
Ave neighs/atom = 586.62638
Neighbor list builds = 164
Dangerous builds = 0
Total # of neighbors = 1165040
Ave neighs/atom = 586.62638
Neighbor list builds = 164
Dangerous builds = 0
write_dump all xyz /home/p/phrrpq/bilayer_relaxations/MoSe2_MoSe2/AP/10/MoSe2_MoSe2_AP_10.xyz modify sort id pbc yes element Mo Se

Total wall time: 8:02:26
Total wall time: 8:02:26
