OMP_THREADS: 12
MPI: 1
NTASKS-PER-NODE: 4
CPUS_PER_TASK: 12
LAMMPS (28 Mar 2023 - Development)
  using 12 OpenMP thread(s) per MPI task
  using 12 OpenMP thread(s) per MPI task
Reading data file ...
  triclinic box = (0 0 0) to (8.7907915 7.6130488 30) with tilt (4.3953958 0 0)
WARNING: Triclinic box skew is large. LAMMPS will run inefficiently. (src/domain.cpp:220)
  1 by 1 by 4 MPI processor grid
  reading atoms ...
  42 atoms
  read_data CPU = 0.007 seconds
CUDA unavailable, setting device type to torch::kCPU.
CUDA unavailable, setting device type to torch::kCPU.
CUDA unavailable, setting device type to torch::kCPU.
CUDA unavailable, setting device type to torch::kCPU.
Loading MACE model from "/home/theory/phrrpq/bilayer_relaxations/MoWSSe_bi_radius_8_reduced_all_1_swa_800_run-123_swa.model-lammps.pt" ... finished.
  - The torch_float_dtype is: Double
  - The r_max is: 8.
  - The model has: 2 layers.
  - The model atomic numbers are: 16 34 42 74.
  - The pair_coeff atomic numbers are: 42 34 74 34.
Generated 0 of 3 mixed pair_coeff terms from geometric mixing rule
Loading MACE model from "/home/theory/phrrpq/bilayer_relaxations/MoWSSe_bi_radius_8_reduced_all_1_swa_800_run-123_swa.model-lammps.pt" ... finished.
  - The torch_float_dtype is: Double
  - The r_max is: 8.
  - The model has: 2 layers.
  - The model atomic numbers are: 16 34 42 74.
  - The pair_coeff atomic numbers are: 42 34 74 34.
Loading MACE model from "/home/theory/phrrpq/bilayer_relaxations/MoWSSe_bi_radius_8_reduced_all_1_swa_800_run-123_swa.model-lammps.pt" ... finished.
  - The torch_float_dtype is: Double
  - The r_max is: 8.
  - The model has: 2 layers.
  - The model atomic numbers are: 16 34 42 74.
  - The pair_coeff atomic numbers are: 42 34 74 34.
Loading MACE model from "/home/theory/phrrpq/bilayer_relaxations/MoWSSe_bi_radius_8_reduced_all_1_swa_800_run-123_swa.model-lammps.pt" ... finished.
  - The torch_float_dtype is: Double
  - The r_max is: 8.
  - The model has: 2 layers.
  - The model atomic numbers are: 16 34 42 74.
  - The pair_coeff atomic numbers are: 42 34 74 34.
Neighbor list info ...
  update: every = 1 steps, delay = 0 steps, check = yes
  max neighbors/atom: 2000, page size: 100000
  master list distance cutoff = 18
  ghost atom cutoff = 18
  binsize = 9, bins = 2 1 4
  1 neighbor lists, perpetual/occasional/extra = 1 0 0
  (1) pair mace, perpetual
      attributes: full, newton on, ghost
      pair build: full/bin/ghost
      stencil: full/ghost/bin/3d
      bin: standard
Setting up Verlet run ...
  Unit style    : metal
  Current step  : 0
  Time step     : 0.0001
Per MPI rank memory allocation (min/avg/max) = 14.94 | 15.91 | 17.24 Mbytes
   Step          Time           Temp          Press           CPU           KinEng         PotEng         TotEng        Atoms         Fmax          Fnorm     
         0                        0                       0       22396.59929712689                       0                       0      -45204.04870345986      -45204.04870345986         42        4.786201614673712       21.90994552666951
Loop time of 2.33875e-06 on 48 procs for 0 steps with 42 atoms

85.5% CPU use with 4 MPI tasks x 12 OpenMP threads

MPI task timing breakdown:
Section |  min time  |  avg time  |  max time  |%varavg| %total
---------------------------------------------------------------
Pair    | 0          | 0          | 0          |   0.0 |  0.00
Neigh   | 0          | 0          | 0          |   0.0 |  0.00
Comm    | 0          | 0          | 0          |   0.0 |  0.00
Output  | 0          | 0          | 0          |   0.0 |  0.00
Modify  | 0          | 0          | 0          |   0.0 |  0.00
Other   |            | 2.339e-06  |            |       |100.00

Nlocal:           10.5 ave          28 max           0 min
Histogram: 1 0 2 0 0 0 0 0 0 1
Nghost:           2043 ave        2738 max        1341 min
Histogram: 1 0 0 0 0 2 0 0 0 1
Neighs:              0 ave           0 max           0 min
Histogram: 4 0 0 0 0 0 0 0 0 0
FullNghs:       6229.5 ave       16895 max           0 min
Histogram: 1 0 2 0 0 0 0 0 0 1

Total # of neighbors = 24918
Ave neighs/atom = 593.28571
Neighbor list builds = 0
Dangerous builds = 0
BEGIN LAMMPS STANDALONE MINIMIZATION; ii = 1; OMP = 12; MPI = 4
minimize 0.0 1e-3 1000 100000
Generated 0 of 3 mixed pair_coeff terms from geometric mixing rule
Generated 0 of 3 mixed pair_coeff terms from geometric mixing rule
Setting up cg style minimization ...
  Unit style    : metal
  Current step  : 0
Per MPI rank memory allocation (min/avg/max) = 16.06 | 17.04 | 18.37 Mbytes
Per MPI rank memory allocation (min/avg/max) = 16.06 | 17.04 | 18.37 Mbytes
   Step          Time           Temp          Press           CPU           KinEng         PotEng         TotEng        Atoms         Fmax          Fnorm     
   Step          Time           Temp          Press           CPU           KinEng         PotEng         TotEng        Atoms         Fmax          Fnorm     
         0                        0                       0       22396.59929712693                       0                       0      -45204.04870345986      -45204.04870345986         42        4.786201614673703        21.9099455266695
         0                        0                       0       22396.59929712693                       0                       0      -45204.04870345986      -45204.04870345986         42        4.786201614673703        21.9099455266695
WARNING: Pair style restartinfo set but has no restart support (src/pair.cpp:754)
WARNING: Pair style restartinfo set but has no restart support (src/pair.cpp:754)
         1                   0.0001                       0       2893.582811103609       32.49414641099999                       0      -45212.36415010864      -45212.36415010864         42        3.706220795190641       15.39882703747957
         1                   0.0001                       0       2893.582811103609       32.49414641099999                       0      -45212.36415010864      -45212.36415010864         42        3.706220795190641       15.39882703747957
WARNING: Pair style restartinfo set but has no restart support (src/pair.cpp:754)
WARNING: Pair style restartinfo set but has no restart support (src/pair.cpp:754)
         2                   0.0002                       0       -4986.58668387233       64.70640237799999                       0      -45217.34366005786      -45217.34366005786         42        2.166306943641013        8.58073823729011
         2                   0.0002                       0       -4986.58668387233       64.70640237799999                       0      -45217.34366005786      -45217.34366005786         42        2.166306943641013        8.58073823729011
WARNING: Pair style restartinfo set but has no restart support (src/pair.cpp:754)
WARNING: Pair style restartinfo set but has no restart support (src/pair.cpp:754)
         3                   0.0003                       0      -2160.629656834253       97.07085285199999                       0      -45219.24572275518      -45219.24572275518         42       0.5779167043010374       1.849018550516831
         3                   0.0003                       0      -2160.629656834253       97.07085285199999                       0      -45219.24572275518      -45219.24572275518         42       0.5779167043010374       1.849018550516831
WARNING: Pair style restartinfo set but has no restart support (src/pair.cpp:754)
WARNING: Pair style restartinfo set but has no restart support (src/pair.cpp:754)
         4                   0.0004                       0       2550.072974606911           161.687616523                       0      -45219.35510628346      -45219.35510628346         42      0.08916754045971985      0.4503276007722436
         4                   0.0004                       0       2550.072974606911           161.687616523                       0      -45219.35510628346      -45219.35510628346         42      0.08916754045971985      0.4503276007722436
WARNING: Pair style restartinfo set but has no restart support (src/pair.cpp:754)
WARNING: Pair style restartinfo set but has no restart support (src/pair.cpp:754)
         5                   0.0005                       0       1514.082071672888           226.189068063                       0      -45219.38883446083      -45219.38883446083         42       0.2744114029135047       1.048336544858542
         5                   0.0005                       0       1514.082071672888           226.189068063                       0      -45219.38883446083      -45219.38883446083         42       0.2744114029135047       1.048336544858542
WARNING: Pair style restartinfo set but has no restart support (src/pair.cpp:754)
WARNING: Pair style restartinfo set but has no restart support (src/pair.cpp:754)
         6    0.0006000000000000001                       0      -467.3255314317552           290.268787729                       0      -45219.45995561597      -45219.45995561597         42        0.187283412997888      0.7765451804424071
         6    0.0006000000000000001                       0      -467.3255314317552           290.268787729                       0      -45219.45995561597      -45219.45995561597         42        0.187283412997888      0.7765451804424071
WARNING: Pair style restartinfo set but has no restart support (src/pair.cpp:754)
WARNING: Pair style restartinfo set but has no restart support (src/pair.cpp:754)
         7                   0.0007                       0       173.3404228944285           354.010148271                       0      -45219.49124236622      -45219.49124236622         42       0.3293853555516998      0.9707790526114588
         7                   0.0007                       0       173.3404228944285           354.010148271                       0      -45219.49124236622      -45219.49124236622         42       0.3293853555516998      0.9707790526114588
WARNING: Pair style restartinfo set but has no restart support (src/pair.cpp:754)
WARNING: Pair style restartinfo set but has no restart support (src/pair.cpp:754)
         8                   0.0008                       0       634.2547664551438           417.686644415                       0      -45219.52892139208      -45219.52892139208         42       0.2224538670654956      0.8132723656461402
         8                   0.0008                       0       634.2547664551438           417.686644415                       0      -45219.52892139208      -45219.52892139208         42       0.2224538670654956      0.8132723656461402
WARNING: Pair style restartinfo set but has no restart support (src/pair.cpp:754)
WARNING: Pair style restartinfo set but has no restart support (src/pair.cpp:754)
         9    0.0009000000000000001                       0      -469.9487576735284             480.9842785                       0      -45219.55369810996      -45219.55369810996         42       0.2291372857738179      0.5202011523669707
         9    0.0009000000000000001                       0      -469.9487576735284             480.9842785                       0      -45219.55369810996      -45219.55369810996         42       0.2291372857738179      0.5202011523669707
WARNING: Pair style restartinfo set but has no restart support (src/pair.cpp:754)
WARNING: Pair style restartinfo set but has no restart support (src/pair.cpp:754)
        10                    0.001                       0      -1039.588108351401           544.388955076                       0      -45219.56013692562      -45219.56013692562         42      0.05362009055703611      0.1944639918231899
        10                    0.001                       0      -1039.588108351401           544.388955076                       0      -45219.56013692562      -45219.56013692562         42      0.05362009055703611      0.1944639918231899
WARNING: Pair style restartinfo set but has no restart support (src/pair.cpp:754)
WARNING: Pair style restartinfo set but has no restart support (src/pair.cpp:754)
        11                   0.0011                       0      -980.0844652022274           607.710004618                       0      -45219.56146900899      -45219.56146900899         42      0.04993965638560317      0.1621051631841558
        11                   0.0011                       0      -980.0844652022274           607.710004618                       0      -45219.56146900899      -45219.56146900899         42      0.04993965638560317      0.1621051631841558
WARNING: Pair style restartinfo set but has no restart support (src/pair.cpp:754)
WARNING: Pair style restartinfo set but has no restart support (src/pair.cpp:754)
        12                   0.0012                       0      -881.1348004306798            671.20044032                       0       -45219.5621937529       -45219.5621937529         42       0.0247414760538193     0.06363122831317668
        12                   0.0012                       0      -881.1348004306798            671.20044032                       0       -45219.5621937529       -45219.5621937529         42       0.0247414760538193     0.06363122831317668
WARNING: Pair style restartinfo set but has no restart support (src/pair.cpp:754)
WARNING: Pair style restartinfo set but has no restart support (src/pair.cpp:754)
        13                   0.0013                       0      -888.7113065777277           734.521531797                       0      -45219.56240767863      -45219.56240767863         42      0.01907432365454843     0.04856845084000632
        13                   0.0013                       0      -888.7113065777277           734.521531797                       0      -45219.56240767863      -45219.56240767863         42      0.01907432365454843     0.04856845084000632
WARNING: Pair style restartinfo set but has no restart support (src/pair.cpp:754)
WARNING: Pair style restartinfo set but has no restart support (src/pair.cpp:754)
        14                   0.0014                       0      -921.1555132356532           798.091463095                       0      -45219.56248108746      -45219.56248108746         42       0.0108884822087254     0.04024669569948632
        14                   0.0014                       0      -921.1555132356532           798.091463095                       0      -45219.56248108746      -45219.56248108746         42       0.0108884822087254     0.04024669569948632
WARNING: Pair style restartinfo set but has no restart support (src/pair.cpp:754)
WARNING: Pair style restartinfo set but has no restart support (src/pair.cpp:754)
        15                   0.0015                       0       -959.628584155459           862.028112614                       0      -45219.56255595017      -45219.56255595017         42      0.01683733884158187     0.04329384216935449
        15                   0.0015                       0       -959.628584155459           862.028112614                       0      -45219.56255595017      -45219.56255595017         42      0.01683733884158187     0.04329384216935449
WARNING: Pair style restartinfo set but has no restart support (src/pair.cpp:754)
WARNING: Pair style restartinfo set but has no restart support (src/pair.cpp:754)
        16                   0.0016                       0      -962.2252490670726           925.963225828                       0       -45219.5626375806       -45219.5626375806         42      0.00819448313660423     0.03258666783462857
        16                   0.0016                       0      -962.2252490670726           925.963225828                       0       -45219.5626375806       -45219.5626375806         42      0.00819448313660423     0.03258666783462857
WARNING: Pair style restartinfo set but has no restart support (src/pair.cpp:754)
WARNING: Pair style restartinfo set but has no restart support (src/pair.cpp:754)
        17                   0.0017                       0       -901.973709946074       989.6774794619998                       0      -45219.56273594309      -45219.56273594309         42      0.01212109641673406     0.05020455871045268
        17                   0.0017                       0       -901.973709946074       989.6774794619998                       0      -45219.56273594309      -45219.56273594309         42      0.01212109641673406     0.05020455871045268
WARNING: Pair style restartinfo set but has no restart support (src/pair.cpp:754)
WARNING: Pair style restartinfo set but has no restart support (src/pair.cpp:754)
        18                   0.0018                       0      -910.1138263850526          1053.268261682                       0      -45219.56287963187      -45219.56287963187         42      0.02002796857732396     0.06362698078071943
        18                   0.0018                       0      -910.1138263850526          1053.268261682                       0      -45219.56287963187      -45219.56287963187         42      0.02002796857732396     0.06362698078071943
WARNING: Pair style restartinfo set but has no restart support (src/pair.cpp:754)
WARNING: Pair style restartinfo set but has no restart support (src/pair.cpp:754)
        19                   0.0019                       0      -1039.845102169291          1116.780953068                       0      -45219.56309119651      -45219.56309119651         42      0.01622874240489373     0.06536508206129098
        19                   0.0019                       0      -1039.845102169291          1116.780953068                       0      -45219.56309119651      -45219.56309119651         42      0.01622874240489373     0.06536508206129098
WARNING: Pair style restartinfo set but has no restart support (src/pair.cpp:754)
WARNING: Pair style restartinfo set but has no restart support (src/pair.cpp:754)
        20                    0.002                       0      -1101.811594500046          1180.244787273                       0      -45219.56323988938      -45219.56323988938         42       0.0101073557128405     0.04232357691687766
        20                    0.002                       0      -1101.811594500046          1180.244787273                       0      -45219.56323988938      -45219.56323988938         42       0.0101073557128405     0.04232357691687766
WARNING: Pair style restartinfo set but has no restart support (src/pair.cpp:754)
WARNING: Pair style restartinfo set but has no restart support (src/pair.cpp:754)
        21                   0.0021                       0      -1055.910994331195          1243.687049591                       0      -45219.56329834189      -45219.56329834189         42      0.00599983674957194      0.0290005552040279
        21                   0.0021                       0      -1055.910994331195          1243.687049591                       0      -45219.56329834189      -45219.56329834189         42      0.00599983674957194      0.0290005552040279
WARNING: Pair style restartinfo set but has no restart support (src/pair.cpp:754)
WARNING: Pair style restartinfo set but has no restart support (src/pair.cpp:754)
        22                   0.0022                       0      -1033.160171443421          1307.073081407                       0      -45219.56331953057      -45219.56331953057         42     0.003858034471077839     0.01790430265592328
        22                   0.0022                       0      -1033.160171443421          1307.073081407                       0      -45219.56331953057      -45219.56331953057         42     0.003858034471077839     0.01790430265592328
WARNING: Pair style restartinfo set but has no restart support (src/pair.cpp:754)
WARNING: Pair style restartinfo set but has no restart support (src/pair.cpp:754)
        23                   0.0023                       0      -1045.706254323879          1370.618708587                       0      -45219.56334157519      -45219.56334157519         42     0.003726528316587019     0.01187334094409299
        23                   0.0023                       0      -1045.706254323879          1370.618708587                       0      -45219.56334157519      -45219.56334157519         42     0.003726528316587019     0.01187334094409299
WARNING: Pair style restartinfo set but has no restart support (src/pair.cpp:754)
WARNING: Pair style restartinfo set but has no restart support (src/pair.cpp:754)
        24                   0.0024                       0      -1055.869322524231           1434.19197236                       0      -45219.56334537825      -45219.56334537825         42     0.001408815037996478      0.0058017962832405
        24                   0.0024                       0      -1055.869322524231           1434.19197236                       0      -45219.56334537825      -45219.56334537825         42     0.001408815037996478      0.0058017962832405
WARNING: Pair style restartinfo set but has no restart support (src/pair.cpp:754)
WARNING: Pair style restartinfo set but has no restart support (src/pair.cpp:754)
        25                   0.0025                       0      -1059.174298977022          1497.667175524                       0      -45219.56334658021      -45219.56334658021         42    0.0009169263177282604    0.003514528684368663
        25                   0.0025                       0      -1059.174298977022          1497.667175524                       0      -45219.56334658021      -45219.56334658021         42    0.0009169263177282604    0.003514528684368663
WARNING: Pair style restartinfo set but has no restart support (src/pair.cpp:754)
WARNING: Pair style restartinfo set but has no restart support (src/pair.cpp:754)
        26                   0.0026                       0       -1057.51694795104          1561.257038467                       0      -45219.56334695643      -45219.56334695643         42     0.000756452876882939    0.002919699197425081
        26                   0.0026                       0       -1057.51694795104          1561.257038467                       0      -45219.56334695643      -45219.56334695643         42     0.000756452876882939    0.002919699197425081
WARNING: Pair style restartinfo set but has no restart support (src/pair.cpp:754)
WARNING: Pair style restartinfo set but has no restart support (src/pair.cpp:754)
        27                   0.0027                       0      -1053.665326748465          1624.691616619                       0      -45219.56334744162      -45219.56334744162         42     0.001169881443143396    0.002999944141993545
        27                   0.0027                       0      -1053.665326748465          1624.691616619                       0      -45219.56334744162      -45219.56334744162         42     0.001169881443143396    0.002999944141993545
WARNING: Pair style restartinfo set but has no restart support (src/pair.cpp:754)
WARNING: Pair style restartinfo set but has no restart support (src/pair.cpp:754)
        28                   0.0028                       0      -1055.007927513488          1688.044782847                       0      -45219.56334787441      -45219.56334787441         42    0.0007413544031880312    0.003181534809796115
        28                   0.0028                       0      -1055.007927513488          1688.044782847                       0      -45219.56334787441      -45219.56334787441         42    0.0007413544031880312    0.003181534809796115
WARNING: Pair style restartinfo set but has no restart support (src/pair.cpp:754)
WARNING: Pair style restartinfo set but has no restart support (src/pair.cpp:754)
        29                   0.0029                       0      -1060.594692252224          1751.452441081                       0       -45219.5633484319       -45219.5633484319         42     0.001080193553353931    0.004089003062239321
        29                   0.0029                       0      -1060.594692252224          1751.452441081                       0       -45219.5633484319       -45219.5633484319         42     0.001080193553353931    0.004089003062239321
WARNING: Pair style restartinfo set but has no restart support (src/pair.cpp:754)
WARNING: Pair style restartinfo set but has no restart support (src/pair.cpp:754)
        30                    0.003                       0      -1065.259718221568          1814.616654803                       0      -45219.56334944567      -45219.56334944567         42     0.001167647299722164    0.004917124492531014
        30                    0.003                       0      -1065.259718221568          1814.616654803                       0      -45219.56334944567      -45219.56334944567         42     0.001167647299722164    0.004917124492531014
WARNING: Pair style restartinfo set but has no restart support (src/pair.cpp:754)
WARNING: Pair style restartinfo set but has no restart support (src/pair.cpp:754)
        31                   0.0031                       0      -1058.212157654587          1877.720248292                       0      -45219.56335155315      -45219.56335155315         42      0.00181851130408485    0.005389266527177325
        31                   0.0031                       0      -1058.212157654587          1877.720248292                       0      -45219.56335155315      -45219.56335155315         42      0.00181851130408485    0.005389266527177325
WARNING: Pair style restartinfo set but has no restart support (src/pair.cpp:754)
WARNING: Pair style restartinfo set but has no restart support (src/pair.cpp:754)
        32                   0.0032                       0      -1061.364778775608          1940.995016497                       0      -45219.56335444916      -45219.56335444916         42     0.002310789006033071    0.007958492855757126
        32                   0.0032                       0      -1061.364778775608          1940.995016497                       0      -45219.56335444916      -45219.56335444916         42     0.002310789006033071    0.007958492855757126
WARNING: Pair style restartinfo set but has no restart support (src/pair.cpp:754)
WARNING: Pair style restartinfo set but has no restart support (src/pair.cpp:754)
        33                   0.0033                       0      -1068.077189661658          2004.055048416                       0      -45219.56335628396      -45219.56335628396         42    0.0009814782055464497    0.004751665359595605
        33                   0.0033                       0      -1068.077189661658          2004.055048416                       0      -45219.56335628396      -45219.56335628396         42    0.0009814782055464497    0.004751665359595605
WARNING: Pair style restartinfo set but has no restart support (src/pair.cpp:754)
WARNING: Pair style restartinfo set but has no restart support (src/pair.cpp:754)
        34                   0.0034                       0       -1072.15153566309          2067.283424951                       0       -45219.5633570857       -45219.5633570857         42    0.0009680657796999163    0.003557016864484668
        34                   0.0034                       0       -1072.15153566309          2067.283424951                       0       -45219.5633570857       -45219.5633570857         42    0.0009680657796999163    0.003557016864484668
WARNING: Pair style restartinfo set but has no restart support (src/pair.cpp:754)
WARNING: Pair style restartinfo set but has no restart support (src/pair.cpp:754)
        35                   0.0035                       0      -1072.124796878579          2130.436298883                       0      -45219.56335755077      -45219.56335755077         42    0.0007749284406812084    0.002507987524739564
        35                   0.0035                       0      -1072.124796878579          2130.436298883                       0      -45219.56335755077      -45219.56335755077         42    0.0007749284406812084    0.002507987524739564
WARNING: Pair style restartinfo set but has no restart support (src/pair.cpp:754)
WARNING: Pair style restartinfo set but has no restart support (src/pair.cpp:754)
        36                   0.0036                       0      -1070.138374677174          2193.605537809                       0      -45219.56335782698      -45219.56335782698         42    0.0008654832674495523    0.002953049078403155
        36                   0.0036                       0      -1070.138374677174          2193.605537809                       0      -45219.56335782698      -45219.56335782698         42    0.0008654832674495523    0.002953049078403155
WARNING: Pair style restartinfo set but has no restart support (src/pair.cpp:754)
WARNING: Pair style restartinfo set but has no restart support (src/pair.cpp:754)
        37                   0.0037                       0      -1067.494276402338           2256.76536814                       0      -45219.56335839012      -45219.56335839012         42    0.0009795992911632912    0.003344910337766359
        37                   0.0037                       0      -1067.494276402338           2256.76536814                       0      -45219.56335839012      -45219.56335839012         42    0.0009795992911632912    0.003344910337766359
WARNING: Pair style restartinfo set but has no restart support (src/pair.cpp:754)
WARNING: Pair style restartinfo set but has no restart support (src/pair.cpp:754)
        38                   0.0038                       0      -1071.375748977357          2319.991908957                       0      -45219.56335906578      -45219.56335906578         42     0.001116598876169962    0.003750522203900624
        38                   0.0038                       0      -1071.375748977357          2319.991908957                       0      -45219.56335906578      -45219.56335906578         42     0.001116598876169962    0.003750522203900624
WARNING: Pair style restartinfo set but has no restart support (src/pair.cpp:754)
WARNING: Pair style restartinfo set but has no restart support (src/pair.cpp:754)
        39                   0.0039                       0      -1078.449151854471          2383.265654321                       0      -45219.56336024909      -45219.56336024909         42     0.001212864640160822    0.005718680114852647
        39                   0.0039                       0      -1078.449151854471          2383.265654321                       0      -45219.56336024909      -45219.56336024909         42     0.001212864640160822    0.005718680114852647
WARNING: Pair style restartinfo set but has no restart support (src/pair.cpp:754)
WARNING: Pair style restartinfo set but has no restart support (src/pair.cpp:754)
        40                    0.004                       0      -1076.774974109283          2446.446526551                       0      -45219.56336593891      -45219.56336593891         42     0.003619737143387604     0.01400508801208478
        40                    0.004                       0      -1076.774974109283          2446.446526551                       0      -45219.56336593891      -45219.56336593891         42     0.003619737143387604     0.01400508801208478
WARNING: Pair style restartinfo set but has no restart support (src/pair.cpp:754)
WARNING: Pair style restartinfo set but has no restart support (src/pair.cpp:754)
        41                   0.0041                       0      -1067.590868564565          2509.711182864                       0      -45219.56337662223      -45219.56337662223         42     0.004225575326791979     0.01878850021413617
        41                   0.0041                       0      -1067.590868564565          2509.711182864                       0      -45219.56337662223      -45219.56337662223         42     0.004225575326791979     0.01878850021413617
WARNING: Pair style restartinfo set but has no restart support (src/pair.cpp:754)
WARNING: Pair style restartinfo set but has no restart support (src/pair.cpp:754)
        42     0.004200000000000001                       0      -1058.114658235366           2572.81979958                       0      -45219.56342653984      -45219.56342653984         42      0.01303959890055971     0.04050552909842944
        42     0.004200000000000001                       0      -1058.114658235366           2572.81979958                       0      -45219.56342653984      -45219.56342653984         42      0.01303959890055971     0.04050552909842944
WARNING: Pair style restartinfo set but has no restart support (src/pair.cpp:754)
WARNING: Pair style restartinfo set but has no restart support (src/pair.cpp:754)
        43                   0.0043                       0      -1084.759556315446          2636.139186663                       0       -45219.5635320852       -45219.5635320852         42      0.01057626758782754     0.04068319659477308
        43                   0.0043                       0      -1084.759556315446          2636.139186663                       0       -45219.5635320852       -45219.5635320852         42      0.01057626758782754     0.04068319659477308
WARNING: Pair style restartinfo set but has no restart support (src/pair.cpp:754)
WARNING: Pair style restartinfo set but has no restart support (src/pair.cpp:754)
        44                   0.0044                       0      -1127.179570986202          2699.564527242                       0      -45219.56362980295      -45219.56362980295         42      0.01358063317384335     0.04956478548146713
        44                   0.0044                       0      -1127.179570986202          2699.564527242                       0      -45219.56362980295      -45219.56362980295         42      0.01358063317384335     0.04956478548146713
WARNING: Pair style restartinfo set but has no restart support (src/pair.cpp:754)
WARNING: Pair style restartinfo set but has no restart support (src/pair.cpp:754)
        45     0.004500000000000001                       0      -1165.973956511681          2763.245483601                       0      -45219.56376503792      -45219.56376503792         42     0.009388228975133289     0.03579348192532433
        45     0.004500000000000001                       0      -1165.973956511681          2763.245483601                       0      -45219.56376503792      -45219.56376503792         42     0.009388228975133289     0.03579348192532433
WARNING: Pair style restartinfo set but has no restart support (src/pair.cpp:754)
WARNING: Pair style restartinfo set but has no restart support (src/pair.cpp:754)
        46                   0.0046                       0      -1115.568559046245          2826.915292689                       0      -45219.56384781647      -45219.56384781647         42     0.006833316955400529     0.03023225992318105
        46                   0.0046                       0      -1115.568559046245          2826.915292689                       0      -45219.56384781647      -45219.56384781647         42     0.006833316955400529     0.03023225992318105
WARNING: Pair style restartinfo set but has no restart support (src/pair.cpp:754)
WARNING: Pair style restartinfo set but has no restart support (src/pair.cpp:754)
        47                   0.0047                       0      -1114.647816998683          2890.676766981                       0      -45219.56388423347      -45219.56388423347         42     0.007736756686297776     0.02160130910279515
        47                   0.0047                       0      -1114.647816998683          2890.676766981                       0      -45219.56388423347      -45219.56388423347         42     0.007736756686297776     0.02160130910279515
WARNING: Pair style restartinfo set but has no restart support (src/pair.cpp:754)
WARNING: Pair style restartinfo set but has no restart support (src/pair.cpp:754)
        48                   0.0048                       0      -1139.490521341364          2954.153192392                       0      -45219.56390119008      -45219.56390119008         42     0.004297873558379679     0.01666044512515831
        48                   0.0048                       0      -1139.490521341364          2954.153192392                       0      -45219.56390119008      -45219.56390119008         42     0.004297873558379679     0.01666044512515831
WARNING: Pair style restartinfo set but has no restart support (src/pair.cpp:754)
WARNING: Pair style restartinfo set but has no restart support (src/pair.cpp:754)
        49                   0.0049                       0      -1151.192966365214          3017.727933673                       0      -45219.56391127549      -45219.56391127549         42     0.005871152703766409     0.01770322786268706
        49                   0.0049                       0      -1151.192966365214          3017.727933673                       0      -45219.56391127549      -45219.56391127549         42     0.005871152703766409     0.01770322786268706
WARNING: Pair style restartinfo set but has no restart support (src/pair.cpp:754)
WARNING: Pair style restartinfo set but has no restart support (src/pair.cpp:754)
        50                    0.005                       0      -1136.426611383027          3081.487749358                       0      -45219.56395566586      -45219.56395566586         42       0.0120753890832878      0.0312754970406865
        50                    0.005                       0      -1136.426611383027          3081.487749358                       0      -45219.56395566586      -45219.56395566586         42       0.0120753890832878      0.0312754970406865
WARNING: Pair style restartinfo set but has no restart support (src/pair.cpp:754)
WARNING: Pair style restartinfo set but has no restart support (src/pair.cpp:754)
        51                   0.0051                       0      -1112.778331717291          3145.277541451                       0      -45219.56399764952      -45219.56399764952         42     0.008672767611715598      0.0343655341210743
        51                   0.0051                       0      -1112.778331717291          3145.277541451                       0      -45219.56399764952      -45219.56399764952         42     0.008672767611715598      0.0343655341210743
WARNING: Pair style restartinfo set but has no restart support (src/pair.cpp:754)
WARNING: Pair style restartinfo set but has no restart support (src/pair.cpp:754)
        52     0.005200000000000001                       0      -1087.156744989604          3208.760548841                       0      -45219.56409155643      -45219.56409155643         42      0.01057799147275272     0.04267563067467795
        52     0.005200000000000001                       0      -1087.156744989604          3208.760548841                       0      -45219.56409155643      -45219.56409155643         42      0.01057799147275272     0.04267563067467795
WARNING: Pair style restartinfo set but has no restart support (src/pair.cpp:754)
WARNING: Pair style restartinfo set but has no restart support (src/pair.cpp:754)
        53                   0.0053                       0      -1091.591599358849          3272.247756721                       0      -45219.56415270775      -45219.56415270775         42     0.005831523163993747     0.02516366761836021
        53                   0.0053                       0      -1091.591599358849          3272.247756721                       0      -45219.56415270775      -45219.56415270775         42     0.005831523163993747     0.02516366761836021
WARNING: Pair style restartinfo set but has no restart support (src/pair.cpp:754)
WARNING: Pair style restartinfo set but has no restart support (src/pair.cpp:754)
        54                   0.0054                       0      -1105.853398142271          3335.796678938                       0      -45219.56419163558      -45219.56419163558         42     0.004379678220975505     0.01914785950672945
        54                   0.0054                       0      -1105.853398142271          3335.796678938                       0      -45219.56419163558      -45219.56419163558         42     0.004379678220975505     0.01914785950672945
WARNING: Pair style restartinfo set but has no restart support (src/pair.cpp:754)
WARNING: Pair style restartinfo set but has no restart support (src/pair.cpp:754)
        55     0.005500000000000001                       0      -1091.071510755639          3399.749935978                       0      -45219.56420580862      -45219.56420580862         42     0.003505601780254903     0.01384000724537358
        55     0.005500000000000001                       0      -1091.071510755639          3399.749935978                       0      -45219.56420580862      -45219.56420580862         42     0.003505601780254903     0.01384000724537358
WARNING: Pair style restartinfo set but has no restart support (src/pair.cpp:754)
WARNING: Pair style restartinfo set but has no restart support (src/pair.cpp:754)
        56                   0.0056                       0      -1076.760352665797          3463.571126069                       0      -45219.56421371792      -45219.56421371792         42     0.003224352203577422    0.008204454231055912
        56                   0.0056                       0      -1076.760352665797          3463.571126069                       0      -45219.56421371792      -45219.56421371792         42     0.003224352203577422    0.008204454231055912
WARNING: Pair style restartinfo set but has no restart support (src/pair.cpp:754)
WARNING: Pair style restartinfo set but has no restart support (src/pair.cpp:754)
        57                   0.0057                       0      -1079.432932738868          3527.416066041                       0      -45219.56421517773      -45219.56421517773         42     0.001086345364477567    0.004169683652299126
        57                   0.0057                       0      -1079.432932738868          3527.416066041                       0      -45219.56421517773      -45219.56421517773         42     0.001086345364477567    0.004169683652299126
WARNING: Pair style restartinfo set but has no restart support (src/pair.cpp:754)
WARNING: Pair style restartinfo set but has no restart support (src/pair.cpp:754)
        58                   0.0058                       0      -1091.924460036228          3591.345844441                       0      -45219.56421640691      -45219.56421640691         42     0.001828966424431789    0.005026149882515492
        58                   0.0058                       0      -1091.924460036228          3591.345844441                       0      -45219.56421640691      -45219.56421640691         42     0.001828966424431789    0.005026149882515492
WARNING: Pair style restartinfo set but has no restart support (src/pair.cpp:754)
WARNING: Pair style restartinfo set but has no restart support (src/pair.cpp:754)
        59                   0.0059                       0      -1089.329629953255          3655.527754682                       0      -45219.56421826711      -45219.56421826711         42     0.001769435799595308    0.007404693409637874
        59                   0.0059                       0      -1089.329629953255          3655.527754682                       0      -45219.56421826711      -45219.56421826711         42     0.001769435799595308    0.007404693409637874
WARNING: Pair style restartinfo set but has no restart support (src/pair.cpp:754)
WARNING: Pair style restartinfo set but has no restart support (src/pair.cpp:754)
        60                    0.006                       0      -1073.045384559395          3719.617943846                       0      -45219.56422081315      -45219.56422081315         42     0.001998182085864953    0.007851882780429781
        60                    0.006                       0      -1073.045384559395          3719.617943846                       0      -45219.56422081315      -45219.56422081315         42     0.001998182085864953    0.007851882780429781
WARNING: Pair style restartinfo set but has no restart support (src/pair.cpp:754)
WARNING: Pair style restartinfo set but has no restart support (src/pair.cpp:754)
        61                   0.0061                       0      -1062.592356390633          3783.437668138                       0      -45219.56422360952      -45219.56422360952         42     0.001877690245707414     0.00705487212507068
        61                   0.0061                       0      -1062.592356390633          3783.437668138                       0      -45219.56422360952      -45219.56422360952         42     0.001877690245707414     0.00705487212507068
WARNING: Pair style restartinfo set but has no restart support (src/pair.cpp:754)
WARNING: Pair style restartinfo set but has no restart support (src/pair.cpp:754)
        62     0.006200000000000001                       0      -1075.951301786445          3847.309331201                       0      -45219.56422696607      -45219.56422696607         42     0.001654467679925641    0.005900993211269281
        62     0.006200000000000001                       0      -1075.951301786445          3847.309331201                       0      -45219.56422696607      -45219.56422696607         42     0.001654467679925641    0.005900993211269281
WARNING: Pair style restartinfo set but has no restart support (src/pair.cpp:754)
WARNING: Pair style restartinfo set but has no restart support (src/pair.cpp:754)
        63                   0.0063                       0      -1074.128489917921          3911.059371598                       0      -45219.56422856952      -45219.56422856952         42     0.001556929227169871    0.005605579057570092
        63                   0.0063                       0      -1074.128489917921          3911.059371598                       0      -45219.56422856952      -45219.56422856952         42     0.001556929227169871    0.005605579057570092
WARNING: Pair style restartinfo set but has no restart support (src/pair.cpp:754)
WARNING: Pair style restartinfo set but has no restart support (src/pair.cpp:754)
        64                   0.0064                       0      -1066.312465057974          3974.771042447                       0      -45219.56422967368      -45219.56422967368         42    0.0008896945416515968    0.002850733465161635
        64                   0.0064                       0      -1066.312465057974          3974.771042447                       0      -45219.56422967368      -45219.56422967368         42    0.0008896945416515968    0.002850733465161635
WARNING: Pair style restartinfo set but has no restart support (src/pair.cpp:754)
WARNING: Pair style restartinfo set but has no restart support (src/pair.cpp:754)
        65     0.006500000000000001                       0       -1065.29978268363          4038.679703098                       0      -45219.56422990226      -45219.56422990226         42    0.0005064877142657621    0.001955094342410152
        65     0.006500000000000001                       0       -1065.29978268363          4038.679703098                       0      -45219.56422990226      -45219.56422990226         42    0.0005064877142657621    0.001955094342410152
WARNING: Pair style restartinfo set but has no restart support (src/pair.cpp:754)
WARNING: Pair style restartinfo set but has no restart support (src/pair.cpp:754)
        66                   0.0066                       0      -1066.326922658329          4134.462554321                       0      -45219.56423006549      -45219.56423006549         42    0.0001822960537759943   0.0009058824556031273
        66                   0.0066                       0      -1066.326922658329          4134.462554321                       0      -45219.56423006549      -45219.56423006549         42    0.0001822960537759943   0.0009058824556031273
Loop time of 4134.46 on 48 procs for 66 steps with 42 atoms

Loop time of 4134.46 on 48 procs for 66 steps with 42 atoms

414.4% CPU use with 4 MPI tasks x 12 OpenMP threads
414.4% CPU use with 4 MPI tasks x 12 OpenMP threads

Minimization stats:
  Stopping criterion = force tolerance
  Energy initial, next-to-last, final = 
     -45204.0487034599  -45219.5642299023  -45219.5642300655
  Force two-norm initial, final = 21.909946 0.00090588246
  Force max component initial, final = 4.7862016 0.00018229605
  Final line search alpha, max atom move = 1 0.00018229605
  Iterations, force evaluations = 66 129

Minimization stats:
  Stopping criterion = force tolerance
  Energy initial, next-to-last, final = 
     -45204.0487034599  -45219.5642299023  -45219.5642300655
  Force two-norm initial, final = 21.909946 0.00090588246
  Force max component initial, final = 4.7862016 0.00018229605
  Final line search alpha, max atom move = 1 0.00018229605
  Iterations, force evaluations = 66 129

MPI task timing breakdown:
Section |  min time  |  avg time  |  max time  |%varavg| %total
---------------------------------------------------------------

MPI task timing breakdown:
Section |  min time  |  avg time  |  max time  |%varavg| %total
---------------------------------------------------------------
Pair    | 2166.4     | 3085.8     | 4132.5     |1258.2 | 74.64
Pair    | 2166.4     | 3085.8     | 4132.5     |1258.2 | 74.64
Neigh   | 0.83547    | 1.2734     | 1.8303     |  31.7 |  0.03
Neigh   | 0.83547    | 1.2734     | 1.8303     |  31.7 |  0.03
Comm    | 0.053316   | 1047.4     | 1967.1     |2160.7 | 25.33
Comm    | 0.053316   | 1047.4     | 1967.1     |2160.7 | 25.33
Output  | 0.06118    | 0.061276   | 0.061534   |   0.1 |  0.00
Output  | 0.06118    | 0.061276   | 0.061534   |   0.1 |  0.00
Modify  | 0          | 0          | 0          |   0.0 |  0.00
Modify  | 0          | 0          | 0          |   0.0 |  0.00
Other   |            | 0.01439    |            |       |  0.00
Other   |            | 0.01439    |            |       |  0.00

Nlocal:           10.5 ave          21 max           0 min
Histogram: 1 0 0 1 0 0 1 0 0 1
Nghost:           2052 ave        2750 max        1354 min
Histogram: 1 0 0 0 1 1 0 0 0 1
Neighs:              0 ave           0 max           0 min
Histogram: 4 0 0 0 0 0 0 0 0 0
FullNghs:       6159.5 ave       12654 max           0 min
Histogram: 1 0 0 1 0 0 1 0 0 1

Nlocal:           10.5 ave          21 max           0 min
Histogram: 1 0 0 1 0 0 1 0 0 1
Nghost:           2052 ave        2750 max        1354 min
Histogram: 1 0 0 0 1 1 0 0 0 1
Neighs:              0 ave           0 max           0 min
Histogram: 4 0 0 0 0 0 0 0 0 0
FullNghs:       6159.5 ave       12654 max           0 min
Histogram: 1 0 0 1 0 0 1 0 0 1


Total # of neighbors = 24638
Ave neighs/atom = 586.61905
Neighbor list builds = 130
Dangerous builds = 0
Total # of neighbors = 24638
Ave neighs/atom = 586.61905
Neighbor list builds = 130
Dangerous builds = 0
write_dump all xyz /home/theory/phrrpq/bilayer_relaxations/MoSe2_WSe2/P/1/MoSe2_WSe2_P_1.xyz modify sort id pbc yes element Mo W Se

Total wall time: 1:10:00
Total wall time: 1:10:00
