OMP_THREADS: 12
MPI: 1
NTASKS-PER-NODE: 4
CPUS_PER_TASK: 12
LAMMPS (28 Mar 2023 - Development)
  using 12 OpenMP thread(s) per MPI task
  using 12 OpenMP thread(s) per MPI task
Reading data file ...
  triclinic box = (0 0 0) to (14.482908 12.542566 30) with tilt (7.2414538 0 0)
WARNING: Triclinic box skew is large. LAMMPS will run inefficiently. (src/domain.cpp:220)
  1 by 1 by 4 MPI processor grid
  reading atoms ...
  114 atoms
  read_data CPU = 0.015 seconds
CUDA unavailable, setting device type to torch::kCPU.
CUDA unavailable, setting device type to torch::kCPU.
CUDA unavailable, setting device type to torch::kCPU.
CUDA unavailable, setting device type to torch::kCPU.
Loading MACE model from "/home/theory/phrrpq/bilayer_relaxations/MoWSSe_bi_radius_8_reduced_all_1_swa_800_run-123_swa.model-lammps.pt" ... finished.
Loading MACE model from "/home/theory/phrrpq/bilayer_relaxations/MoWSSe_bi_radius_8_reduced_all_1_swa_800_run-123_swa.model-lammps.pt" ... finished.
Loading MACE model from "/home/theory/phrrpq/bilayer_relaxations/MoWSSe_bi_radius_8_reduced_all_1_swa_800_run-123_swa.model-lammps.pt" ... finished.
  - The torch_float_dtype is: Double
  - The torch_float_dtype is: Double
  - The r_max is: 8.
  - The model has: 2 layers.
  - The r_max is: 8.
  - The model has: 2 layers.
  - The torch_float_dtype is: Double
  - The r_max is: 8.
  - The model has: 2 layers.
  - The model atomic numbers are: 16 34 42 74.
  - The pair_coeff atomic numbers are: 42 34 74 34.
  - The model atomic numbers are: 16 34 42 74.
  - The pair_coeff atomic numbers are: 42 34 74 34.
  - The model atomic numbers are: 16 34 42 74.
  - The pair_coeff atomic numbers are: 42 34 74 34.
Generated 0 of 3 mixed pair_coeff terms from geometric mixing rule
Loading MACE model from "/home/theory/phrrpq/bilayer_relaxations/MoWSSe_bi_radius_8_reduced_all_1_swa_800_run-123_swa.model-lammps.pt" ... finished.
  - The torch_float_dtype is: Double
  - The r_max is: 8.
  - The model has: 2 layers.
  - The model atomic numbers are: 16 34 42 74.
  - The pair_coeff atomic numbers are: 42 34 74 34.
Neighbor list info ...
  update: every = 1 steps, delay = 0 steps, check = yes
  max neighbors/atom: 2000, page size: 100000
  master list distance cutoff = 18
  ghost atom cutoff = 18
  binsize = 9, bins = 3 2 4
  1 neighbor lists, perpetual/occasional/extra = 1 0 0
  (1) pair mace, perpetual
      attributes: full, newton on, ghost
      pair build: full/bin/ghost
      stencil: full/ghost/bin/3d
      bin: standard
Setting up Verlet run ...
  Unit style    : metal
  Current step  : 0
  Time step     : 0.0001
Per MPI rank memory allocation (min/avg/max) = 15.84 | 16.89 | 18.4 Mbytes
   Step          Time           Temp          Press           CPU           KinEng         PotEng         TotEng        Atoms         Fmax          Fnorm     
         0                        0                       0       11623.73655696468                       0                       0      -122719.0065205566      -122719.0065205566        114        3.969985262266972       28.83446632220864
Loop time of 2.30075e-06 on 48 procs for 0 steps with 114 atoms

108.7% CPU use with 4 MPI tasks x 12 OpenMP threads

MPI task timing breakdown:
Section |  min time  |  avg time  |  max time  |%varavg| %total
---------------------------------------------------------------
Pair    | 0          | 0          | 0          |   0.0 |  0.00
Neigh   | 0          | 0          | 0          |   0.0 |  0.00
Comm    | 0          | 0          | 0          |   0.0 |  0.00
Output  | 0          | 0          | 0          |   0.0 |  0.00
Modify  | 0          | 0          | 0          |   0.0 |  0.00
Other   |            | 2.301e-06  |            |       |100.00

Nlocal:           28.5 ave          76 max           0 min
Histogram: 1 0 2 0 0 0 0 0 0 1
Nghost:           2553 ave        3442 max        1645 min
Histogram: 1 0 0 0 0 2 0 0 0 1
Neighs:              0 ave           0 max           0 min
Histogram: 4 0 0 0 0 0 0 0 0 0
FullNghs:      16828.5 ave       45622 max           0 min
Histogram: 1 0 2 0 0 0 0 0 0 1

Total # of neighbors = 67314
Ave neighs/atom = 590.47368
Neighbor list builds = 0
Dangerous builds = 0
BEGIN LAMMPS STANDALONE MINIMIZATION; ii = 2; OMP = 12; MPI = 4
minimize 0.0 1e-3 1000 100000
Generated 0 of 3 mixed pair_coeff terms from geometric mixing rule
Generated 0 of 3 mixed pair_coeff terms from geometric mixing rule
Setting up cg style minimization ...
  Unit style    : metal
  Current step  : 0
Per MPI rank memory allocation (min/avg/max) = 16.97 | 18.01 | 19.53 Mbytes
Per MPI rank memory allocation (min/avg/max) = 16.97 | 18.01 | 19.53 Mbytes
   Step          Time           Temp          Press           CPU           KinEng         PotEng         TotEng        Atoms         Fmax          Fnorm     
   Step          Time           Temp          Press           CPU           KinEng         PotEng         TotEng        Atoms         Fmax          Fnorm     
         0                        0                       0       11623.73655696471                       0                       0      -122719.0065205566      -122719.0065205566        114        3.969985262266978       28.83446632220866
         0                        0                       0       11623.73655696471                       0                       0      -122719.0065205566      -122719.0065205566        114        3.969985262266978       28.83446632220866
WARNING: Pair style restartinfo set but has no restart support (src/pair.cpp:754)
WARNING: Pair style restartinfo set but has no restart support (src/pair.cpp:754)
         1                   0.0001                       0       -569.672963661817            41.284834284                       0      -122734.1454967425      -122734.1454967425        114        2.111999809569539       13.21789417367405
         1                   0.0001                       0       -569.672963661817            41.284834284                       0      -122734.1454967425      -122734.1454967425        114        2.111999809569539       13.21789417367405
WARNING: Pair style restartinfo set but has no restart support (src/pair.cpp:754)
WARNING: Pair style restartinfo set but has no restart support (src/pair.cpp:754)
         2                   0.0002                       0      -574.1734928931202           123.700020042                       0      -122738.0801278571      -122738.0801278571        114       0.4789669960294842       2.130286052188048
         2                   0.0002                       0      -574.1734928931202           123.700020042                       0      -122738.0801278571      -122738.0801278571        114       0.4789669960294842       2.130286052188048
WARNING: Pair style restartinfo set but has no restart support (src/pair.cpp:754)
WARNING: Pair style restartinfo set but has no restart support (src/pair.cpp:754)
         3                   0.0003                       0       3038.116107865173           205.831400479                       0      -122738.2372070894      -122738.2372070894        114       0.1553095382443385      0.9087907066666856
         3                   0.0003                       0       3038.116107865173           205.831400479                       0      -122738.2372070894      -122738.2372070894        114       0.1553095382443385      0.9087907066666856
WARNING: Pair style restartinfo set but has no restart support (src/pair.cpp:754)
WARNING: Pair style restartinfo set but has no restart support (src/pair.cpp:754)
         4                   0.0004                       0       2134.582166899713           287.845261556                       0      -122738.3308387974      -122738.3308387974        114       0.3219459714458363       1.772786254884163
         4                   0.0004                       0       2134.582166899713           287.845261556                       0      -122738.3308387974      -122738.3308387974        114       0.3219459714458363       1.772786254884163
WARNING: Pair style restartinfo set but has no restart support (src/pair.cpp:754)
WARNING: Pair style restartinfo set but has no restart support (src/pair.cpp:754)
         5                   0.0005                       0      -520.4999313984259            369.56530006                       0      -122738.5140039446      -122738.5140039446        114       0.2723849336641842       1.401623215503523
         5                   0.0005                       0      -520.4999313984259            369.56530006                       0      -122738.5140039446      -122738.5140039446        114       0.2723849336641842       1.401623215503523
WARNING: Pair style restartinfo set but has no restart support (src/pair.cpp:754)
WARNING: Pair style restartinfo set but has no restart support (src/pair.cpp:754)
         6    0.0006000000000000001                       0      -173.1426537677775           450.994574697                       0      -122738.5595719047      -122738.5595719047        114       0.1429935990456805      0.9596512144063233
         6    0.0006000000000000001                       0      -173.1426537677775           450.994574697                       0      -122738.5595719047      -122738.5595719047        114       0.1429935990456805      0.9596512144063233
WARNING: Pair style restartinfo set but has no restart support (src/pair.cpp:754)
WARNING: Pair style restartinfo set but has no restart support (src/pair.cpp:754)
         7                   0.0007                       0       1606.786403503921       532.3872841489999                       0      -122738.6207523842      -122738.6207523842        114       0.2023915198261521      0.9688033565705791
         7                   0.0007                       0       1606.786403503921       532.3872841489999                       0      -122738.6207523842      -122738.6207523842        114       0.2023915198261521      0.9688033565705791
WARNING: Pair style restartinfo set but has no restart support (src/pair.cpp:754)
WARNING: Pair style restartinfo set but has no restart support (src/pair.cpp:754)
         8                   0.0008                       0       529.7824289111898       613.5838558299999                       0      -122738.6742535208      -122738.6742535208        114       0.2239855267046968       1.186187978003991
         8                   0.0008                       0       529.7824289111898       613.5838558299999                       0      -122738.6742535208      -122738.6742535208        114       0.2239855267046968       1.186187978003991
WARNING: Pair style restartinfo set but has no restart support (src/pair.cpp:754)
WARNING: Pair style restartinfo set but has no restart support (src/pair.cpp:754)
         9    0.0009000000000000001                       0      -1338.291938170924           694.506204162                       0      -122738.7245137738      -122738.7245137738        114       0.1326372031200143      0.8576282359496501
         9    0.0009000000000000001                       0      -1338.291938170924           694.506204162                       0      -122738.7245137738      -122738.7245137738        114       0.1326372031200143      0.8576282359496501
WARNING: Pair style restartinfo set but has no restart support (src/pair.cpp:754)
WARNING: Pair style restartinfo set but has no restart support (src/pair.cpp:754)
        10                    0.001                       0      -847.1960908676623           775.317793864                       0      -122738.7595325283      -122738.7595325283        114       0.1386057621618358      0.8023436127473595
        10                    0.001                       0      -847.1960908676623           775.317793864                       0      -122738.7595325283      -122738.7595325283        114       0.1386057621618358      0.8023436127473595
WARNING: Pair style restartinfo set but has no restart support (src/pair.cpp:754)
WARNING: Pair style restartinfo set but has no restart support (src/pair.cpp:754)
        11                   0.0011                       0      -129.6356767392667           856.098112891                       0      -122738.7831374007      -122738.7831374007        114      0.08147367717697931      0.4849258274186483
        11                   0.0011                       0      -129.6356767392667           856.098112891                       0      -122738.7831374007      -122738.7831374007        114      0.08147367717697931      0.4849258274186483
WARNING: Pair style restartinfo set but has no restart support (src/pair.cpp:754)
WARNING: Pair style restartinfo set but has no restart support (src/pair.cpp:754)
        12                   0.0012                       0      -513.6421204962029           938.062346972                       0      -122738.7946077136      -122738.7946077136        114       0.1103670989333301      0.5419799187669075
        12                   0.0012                       0      -513.6421204962029           938.062346972                       0      -122738.7946077136      -122738.7946077136        114       0.1103670989333301      0.5419799187669075
WARNING: Pair style restartinfo set but has no restart support (src/pair.cpp:754)
WARNING: Pair style restartinfo set but has no restart support (src/pair.cpp:754)
        13                   0.0013                       0      -1051.470249787232          1019.569355977                       0       -122738.804380477       -122738.804380477        114      0.04156003475450734      0.2620703405345264
        13                   0.0013                       0      -1051.470249787232          1019.569355977                       0       -122738.804380477       -122738.804380477        114      0.04156003475450734      0.2620703405345264
WARNING: Pair style restartinfo set but has no restart support (src/pair.cpp:754)
WARNING: Pair style restartinfo set but has no restart support (src/pair.cpp:754)
        14                   0.0014                       0      -764.6892704483859          1101.199905575                       0      -122738.8069798723      -122738.8069798723        114      0.04935061350341386      0.2464531221765339
        14                   0.0014                       0      -764.6892704483859          1101.199905575                       0      -122738.8069798723      -122738.8069798723        114      0.04935061350341386      0.2464531221765339
WARNING: Pair style restartinfo set but has no restart support (src/pair.cpp:754)
WARNING: Pair style restartinfo set but has no restart support (src/pair.cpp:754)
        15                   0.0015                       0      -462.9495410930688          1182.648027269                       0      -122738.8097358679      -122738.8097358679        114      0.03853866263841695      0.2276789380235628
        15                   0.0015                       0      -462.9495410930688          1182.648027269                       0      -122738.8097358679      -122738.8097358679        114      0.03853866263841695      0.2276789380235628
WARNING: Pair style restartinfo set but has no restart support (src/pair.cpp:754)
WARNING: Pair style restartinfo set but has no restart support (src/pair.cpp:754)
        16                   0.0016                       0      -704.3064836446113          1263.282085495                       0      -122738.8130286669      -122738.8130286669        114      0.04195087180709016      0.2470160426664675
        16                   0.0016                       0      -704.3064836446113          1263.282085495                       0      -122738.8130286669      -122738.8130286669        114      0.04195087180709016      0.2470160426664675
WARNING: Pair style restartinfo set but has no restart support (src/pair.cpp:754)
WARNING: Pair style restartinfo set but has no restart support (src/pair.cpp:754)
        17                   0.0017                       0      -930.6111131311966          1343.736230618                       0      -122738.8146396585      -122738.8146396585        114      0.01669199599456311      0.1211108513911176
        17                   0.0017                       0      -930.6111131311966          1343.736230618                       0      -122738.8146396585      -122738.8146396585        114      0.01669199599456311      0.1211108513911176
WARNING: Pair style restartinfo set but has no restart support (src/pair.cpp:754)
WARNING: Pair style restartinfo set but has no restart support (src/pair.cpp:754)
        18                   0.0018                       0      -875.4497281066079          1424.407434648                       0      -122738.8152626234      -122738.8152626234        114      0.02191288812193956      0.1152751265396659
        18                   0.0018                       0      -875.4497281066079          1424.407434648                       0      -122738.8152626234      -122738.8152626234        114      0.02191288812193956      0.1152751265396659
WARNING: Pair style restartinfo set but has no restart support (src/pair.cpp:754)
WARNING: Pair style restartinfo set but has no restart support (src/pair.cpp:754)
        19                   0.0019                       0      -778.5063241188204          1504.868884871                       0      -122738.8159197007      -122738.8159197007        114       0.0215903770160442      0.1057465454006212
        19                   0.0019                       0      -778.5063241188204          1504.868884871                       0      -122738.8159197007      -122738.8159197007        114       0.0215903770160442      0.1057465454006212
WARNING: Pair style restartinfo set but has no restart support (src/pair.cpp:754)
WARNING: Pair style restartinfo set but has no restart support (src/pair.cpp:754)
        20                    0.002                       0      -861.3887547006273            1585.3725003                       0      -122738.8168241927      -122738.8168241927        114      0.03919050329732579      0.1752322747174514
        20                    0.002                       0      -861.3887547006273            1585.3725003                       0      -122738.8168241927      -122738.8168241927        114      0.03919050329732579      0.1752322747174514
WARNING: Pair style restartinfo set but has no restart support (src/pair.cpp:754)
WARNING: Pair style restartinfo set but has no restart support (src/pair.cpp:754)
        21                   0.0021                       0      -1010.175262875254          1665.639951605                       0      -122738.8179911251      -122738.8179911251        114      0.01835997447781432      0.1230287272385304
        21                   0.0021                       0      -1010.175262875254          1665.639951605                       0      -122738.8179911251      -122738.8179911251        114      0.01835997447781432      0.1230287272385304
WARNING: Pair style restartinfo set but has no restart support (src/pair.cpp:754)
WARNING: Pair style restartinfo set but has no restart support (src/pair.cpp:754)
        22                   0.0022                       0       -952.020566263894          1746.020912195                       0      -122738.8188832125      -122738.8188832125        114      0.03254633957415593      0.1346726194648546
        22                   0.0022                       0       -952.020566263894          1746.020912195                       0      -122738.8188832125      -122738.8188832125        114      0.03254633957415593      0.1346726194648546
WARNING: Pair style restartinfo set but has no restart support (src/pair.cpp:754)
WARNING: Pair style restartinfo set but has no restart support (src/pair.cpp:754)
        23                   0.0023                       0       -917.911011903581          1826.336593844                       0      -122738.8195838968      -122738.8195838968        114      0.03161035686914724      0.1213432536911865
        23                   0.0023                       0       -917.911011903581          1826.336593844                       0      -122738.8195838968      -122738.8195838968        114      0.03161035686914724      0.1213432536911865
WARNING: Pair style restartinfo set but has no restart support (src/pair.cpp:754)
WARNING: Pair style restartinfo set but has no restart support (src/pair.cpp:754)
        24                   0.0024                       0      -987.0547035265931          1907.655029602                       0       -122738.820335981       -122738.820335981        114      0.01720994568728916     0.09308335083841977
        24                   0.0024                       0      -987.0547035265931          1907.655029602                       0       -122738.820335981       -122738.820335981        114      0.01720994568728916     0.09308335083841977
WARNING: Pair style restartinfo set but has no restart support (src/pair.cpp:754)
WARNING: Pair style restartinfo set but has no restart support (src/pair.cpp:754)
        25                   0.0025                       0      -1026.403746258049          1988.948452032                       0      -122738.8205910352      -122738.8205910352        114      0.01179341673704584     0.05659937150471117
        25                   0.0025                       0      -1026.403746258049          1988.948452032                       0      -122738.8205910352      -122738.8205910352        114      0.01179341673704584     0.05659937150471117
WARNING: Pair style restartinfo set but has no restart support (src/pair.cpp:754)
WARNING: Pair style restartinfo set but has no restart support (src/pair.cpp:754)
        26                   0.0026                       0      -1024.899854191648          2070.049857129                       0      -122738.8207402635      -122738.8207402635        114      0.01239097764761023      0.0549244590749348
        26                   0.0026                       0      -1024.899854191648          2070.049857129                       0      -122738.8207402635      -122738.8207402635        114      0.01239097764761023      0.0549244590749348
WARNING: Pair style restartinfo set but has no restart support (src/pair.cpp:754)
WARNING: Pair style restartinfo set but has no restart support (src/pair.cpp:754)
        27                   0.0027                       0       -1018.81946054052          2151.172012455                       0      -122738.8208435517      -122738.8208435517        114     0.007441256666983483     0.04311416361649499
        27                   0.0027                       0       -1018.81946054052          2151.172012455                       0      -122738.8208435517      -122738.8208435517        114     0.007441256666983483     0.04311416361649499
WARNING: Pair style restartinfo set but has no restart support (src/pair.cpp:754)
WARNING: Pair style restartinfo set but has no restart support (src/pair.cpp:754)
        28                   0.0028                       0      -1028.827234829917          2232.154444501                       0      -122738.8209572895      -122738.8209572895        114      0.01013071069375764     0.04307726962047446
        28                   0.0028                       0      -1028.827234829917          2232.154444501                       0      -122738.8209572895      -122738.8209572895        114      0.01013071069375764     0.04307726962047446
WARNING: Pair style restartinfo set but has no restart support (src/pair.cpp:754)
WARNING: Pair style restartinfo set but has no restart support (src/pair.cpp:754)
        29                   0.0029                       0      -1039.098851174504          2313.189287996                       0      -122738.8210115364      -122738.8210115364        114     0.005831217421113186     0.02104156735735143
        29                   0.0029                       0      -1039.098851174504          2313.189287996                       0      -122738.8210115364      -122738.8210115364        114     0.005831217421113186     0.02104156735735143
WARNING: Pair style restartinfo set but has no restart support (src/pair.cpp:754)
WARNING: Pair style restartinfo set but has no restart support (src/pair.cpp:754)
        30                    0.003                       0      -1040.272788709304          2394.316154154                       0      -122738.8210262098      -122738.8210262098        114     0.002598251207194328     0.01667104022559645
        30                    0.003                       0      -1040.272788709304          2394.316154154                       0      -122738.8210262098      -122738.8210262098        114     0.002598251207194328     0.01667104022559645
WARNING: Pair style restartinfo set but has no restart support (src/pair.cpp:754)
WARNING: Pair style restartinfo set but has no restart support (src/pair.cpp:754)
        31                   0.0031                       0      -1039.990309216724          2474.912102366                       0      -122738.8210374732      -122738.8210374732        114     0.003378246151504172     0.01369171065107197
        31                   0.0031                       0      -1039.990309216724          2474.912102366                       0      -122738.8210374732      -122738.8210374732        114     0.003378246151504172     0.01369171065107197
WARNING: Pair style restartinfo set but has no restart support (src/pair.cpp:754)
WARNING: Pair style restartinfo set but has no restart support (src/pair.cpp:754)
        32                   0.0032                       0      -1040.822187232998          2555.187412466                       0      -122738.8210475997      -122738.8210475997        114      0.00262868098360305      0.0153884259543919
        32                   0.0032                       0      -1040.822187232998          2555.187412466                       0      -122738.8210475997      -122738.8210475997        114      0.00262868098360305      0.0153884259543919
WARNING: Pair style restartinfo set but has no restart support (src/pair.cpp:754)
WARNING: Pair style restartinfo set but has no restart support (src/pair.cpp:754)
        33                   0.0033                       0      -1043.434047392644          2636.125638569                       0      -122738.8210591943      -122738.8210591943        114     0.002560265017002268     0.01259800413676198
        33                   0.0033                       0      -1043.434047392644          2636.125638569                       0      -122738.8210591943      -122738.8210591943        114     0.002560265017002268     0.01259800413676198
WARNING: Pair style restartinfo set but has no restart support (src/pair.cpp:754)
WARNING: Pair style restartinfo set but has no restart support (src/pair.cpp:754)
        34                   0.0034                       0      -1044.878760119509          2717.453505459                       0      -122738.8210684374      -122738.8210684374        114     0.003483859341411447     0.01542706862618706
        34                   0.0034                       0      -1044.878760119509          2717.453505459                       0      -122738.8210684374      -122738.8210684374        114     0.003483859341411447     0.01542706862618706
WARNING: Pair style restartinfo set but has no restart support (src/pair.cpp:754)
WARNING: Pair style restartinfo set but has no restart support (src/pair.cpp:754)
        35                   0.0035                       0      -1046.741271400949          2798.771249295                       0      -122738.8210782937      -122738.8210782937        114       0.0024878836826687     0.01252043708441977
        35                   0.0035                       0      -1046.741271400949          2798.771249295                       0      -122738.8210782937      -122738.8210782937        114       0.0024878836826687     0.01252043708441977
WARNING: Pair style restartinfo set but has no restart support (src/pair.cpp:754)
WARNING: Pair style restartinfo set but has no restart support (src/pair.cpp:754)
        36                   0.0036                       0      -1048.702109043836          2880.094588422                       0      -122738.8210846922      -122738.8210846922        114     0.002203530322623513     0.01230848021061029
        36                   0.0036                       0      -1048.702109043836          2880.094588422                       0      -122738.8210846922      -122738.8210846922        114     0.002203530322623513     0.01230848021061029
WARNING: Pair style restartinfo set but has no restart support (src/pair.cpp:754)
WARNING: Pair style restartinfo set but has no restart support (src/pair.cpp:754)
        37                   0.0037                       0       -1051.11881578064          2960.379209783                       0      -122738.8210922643      -122738.8210922643        114     0.001809886794062544    0.009547868119782026
        37                   0.0037                       0       -1051.11881578064          2960.379209783                       0      -122738.8210922643      -122738.8210922643        114     0.001809886794062544    0.009547868119782026
WARNING: Pair style restartinfo set but has no restart support (src/pair.cpp:754)
WARNING: Pair style restartinfo set but has no restart support (src/pair.cpp:754)
        38                   0.0038                       0      -1051.504617335472          3040.661819976                       0      -122738.8210979607      -122738.8210979607        114      0.00297009444919968     0.01211326755059057
        38                   0.0038                       0      -1051.504617335472          3040.661819976                       0      -122738.8210979607      -122738.8210979607        114      0.00297009444919968     0.01211326755059057
WARNING: Pair style restartinfo set but has no restart support (src/pair.cpp:754)
WARNING: Pair style restartinfo set but has no restart support (src/pair.cpp:754)
        39                   0.0039                       0      -1053.693751692255          3120.904850653                       0      -122738.8211044009      -122738.8211044009        114     0.002206530502107654     0.01014707651951777
        39                   0.0039                       0      -1053.693751692255          3120.904850653                       0      -122738.8211044009      -122738.8211044009        114     0.002206530502107654     0.01014707651951777
WARNING: Pair style restartinfo set but has no restart support (src/pair.cpp:754)
WARNING: Pair style restartinfo set but has no restart support (src/pair.cpp:754)
        40                    0.004                       0      -1057.740895161622          3201.159098185                       0      -122738.8211089774      -122738.8211089774        114     0.001637097100316334    0.009666202255114323
        40                    0.004                       0      -1057.740895161622          3201.159098185                       0      -122738.8211089774      -122738.8211089774        114     0.001637097100316334    0.009666202255114323
WARNING: Pair style restartinfo set but has no restart support (src/pair.cpp:754)
WARNING: Pair style restartinfo set but has no restart support (src/pair.cpp:754)
        41                   0.0041                       0      -1060.942591259155          3281.362163757                       0       -122738.821113309       -122738.821113309        114     0.001645475603999906    0.007725370386497278
        41                   0.0041                       0      -1060.942591259155          3281.362163757                       0       -122738.821113309       -122738.821113309        114     0.001645475603999906    0.007725370386497278
WARNING: Pair style restartinfo set but has no restart support (src/pair.cpp:754)
WARNING: Pair style restartinfo set but has no restart support (src/pair.cpp:754)
        42     0.004200000000000001                       0      -1060.142323143622          3361.552351107                       0      -122738.8211153269      -122738.8211153269        114     0.001474700599203206     0.00610457434328557
        42     0.004200000000000001                       0      -1060.142323143622          3361.552351107                       0      -122738.8211153269      -122738.8211153269        114     0.001474700599203206     0.00610457434328557
WARNING: Pair style restartinfo set but has no restart support (src/pair.cpp:754)
WARNING: Pair style restartinfo set but has no restart support (src/pair.cpp:754)
        43                   0.0043                       0      -1059.462575610951          3441.801069015                       0      -122738.8211165307      -122738.8211165307        114    0.0004445420919277355    0.002872141041008045
        43                   0.0043                       0      -1059.462575610951          3441.801069015                       0      -122738.8211165307      -122738.8211165307        114    0.0004445420919277355    0.002872141041008045
WARNING: Pair style restartinfo set but has no restart support (src/pair.cpp:754)
WARNING: Pair style restartinfo set but has no restart support (src/pair.cpp:754)
        44                   0.0044                       0      -1060.991353979724          3522.064706748                       0      -122738.8211169092      -122738.8211169092        114     0.000651534635340263    0.003057254127552118
        44                   0.0044                       0      -1060.991353979724          3522.064706748                       0      -122738.8211169092      -122738.8211169092        114     0.000651534635340263    0.003057254127552118
WARNING: Pair style restartinfo set but has no restart support (src/pair.cpp:754)
WARNING: Pair style restartinfo set but has no restart support (src/pair.cpp:754)
        45     0.004500000000000001                       0      -1062.545792478953          3602.409442005                       0      -122738.8211173614      -122738.8211173614        114    0.0004698832456011971    0.002591695064285583
        45     0.004500000000000001                       0      -1062.545792478953          3602.409442005                       0      -122738.8211173614      -122738.8211173614        114    0.0004698832456011971    0.002591695064285583
WARNING: Pair style restartinfo set but has no restart support (src/pair.cpp:754)
WARNING: Pair style restartinfo set but has no restart support (src/pair.cpp:754)
        46                   0.0046                       0      -1061.603809310253          3682.709350724                       0      -122738.8211175975      -122738.8211175975        114    0.0003821595764947068    0.002067460768250126
        46                   0.0046                       0      -1061.603809310253          3682.709350724                       0      -122738.8211175975      -122738.8211175975        114    0.0003821595764947068    0.002067460768250126
WARNING: Pair style restartinfo set but has no restart support (src/pair.cpp:754)
WARNING: Pair style restartinfo set but has no restart support (src/pair.cpp:754)
        47                   0.0047                       0      -1060.298232407239           3763.12833499                       0      -122738.8211177845      -122738.8211177845        114    0.0002868569353408023    0.001502473947466544
        47                   0.0047                       0      -1060.298232407239           3763.12833499                       0      -122738.8211177845      -122738.8211177845        114    0.0002868569353408023    0.001502473947466544
WARNING: Pair style restartinfo set but has no restart support (src/pair.cpp:754)
WARNING: Pair style restartinfo set but has no restart support (src/pair.cpp:754)
        48                   0.0048                       0      -1061.081181040371          3843.412418621                       0      -122738.8211178685      -122738.8211178685        114    0.0002705123737774073    0.001280706439472792
        48                   0.0048                       0      -1061.081181040371          3843.412418621                       0      -122738.8211178685      -122738.8211178685        114    0.0002705123737774073    0.001280706439472792
WARNING: Pair style restartinfo set but has no restart support (src/pair.cpp:754)
WARNING: Pair style restartinfo set but has no restart support (src/pair.cpp:754)
        49                   0.0049                       0      -1062.465955821519          3964.051137939                       0      -122738.8211179436      -122738.8211179436        114    0.0001874432923992193   0.0009969521752550908
        49                   0.0049                       0      -1062.465955821519          3964.051137939                       0      -122738.8211179436      -122738.8211179436        114    0.0001874432923992193   0.0009969521752550908
Loop time of 3964.05 on 48 procs for 49 steps with 114 atoms

Loop time of 3964.05 on 48 procs for 49 steps with 114 atoms

411.6% CPU use with 4 MPI tasks x 12 OpenMP threads
411.6% CPU use with 4 MPI tasks x 12 OpenMP threads

Minimization stats:
  Stopping criterion = force tolerance
  Energy initial, next-to-last, final = 
     -122719.006520557  -122738.821117868  -122738.821117944
  Force two-norm initial, final = 28.834466 0.00099695218
  Force max component initial, final = 3.9699853 0.00018744329
  Final line search alpha, max atom move = 1 0.00018744329
  Iterations, force evaluations = 49 97

Minimization stats:
  Stopping criterion = force tolerance
  Energy initial, next-to-last, final = 
     -122719.006520557  -122738.821117868  -122738.821117944
  Force two-norm initial, final = 28.834466 0.00099695218
  Force max component initial, final = 3.9699853 0.00018744329
  Final line search alpha, max atom move = 1 0.00018744329
  Iterations, force evaluations = 49 97

MPI task timing breakdown:
Section |  min time  |  avg time  |  max time  |%varavg| %total
---------------------------------------------------------------

MPI task timing breakdown:
Section |  min time  |  avg time  |  max time  |%varavg| %total
---------------------------------------------------------------
Pair    | 2060.7     | 2945.1     | 3962.1     |1246.4 | 74.30
Pair    | 2060.7     | 2945.1     | 3962.1     |1246.4 | 74.30
Neigh   | 0.84231    | 1.3008     | 1.872      |  32.3 |  0.03
Neigh   | 0.84231    | 1.3008     | 1.872      |  32.3 |  0.03
Comm    | 0.028017   | 1017.6     | 1902.5     |2121.7 | 25.67
Comm    | 0.028017   | 1017.6     | 1902.5     |2121.7 | 25.67
Output  | 0.049345   | 0.04942    | 0.049628   |   0.1 |  0.00
Output  | 0.049345   | 0.04942    | 0.049628   |   0.1 |  0.00
Modify  | 0          | 0          | 0          |   0.0 |  0.00
Modify  | 0          | 0          | 0          |   0.0 |  0.00
Other   |            | 0.007604   |            |       |  0.00
Other   |            | 0.007604   |            |       |  0.00

Nlocal:           28.5 ave          57 max           0 min
Histogram: 1 0 0 1 0 0 1 0 0 1
Nghost:           2547 ave        3434 max        1660 min
Histogram: 1 0 0 0 1 1 0 0 0 1
Neighs:              0 ave           0 max           0 min
Histogram: 4 0 0 0 0 0 0 0 0 0
FullNghs:        16690 ave       34238 max           0 min
Histogram: 1 0 0 1 0 0 1 0 0 1

Nlocal:           28.5 ave          57 max           0 min
Histogram: 1 0 0 1 0 0 1 0 0 1
Nghost:           2547 ave        3434 max        1660 min
Histogram: 1 0 0 0 1 1 0 0 0 1
Neighs:              0 ave           0 max           0 min
Histogram: 4 0 0 0 0 0 0 0 0 0
FullNghs:        16690 ave       34238 max           0 min
Histogram: 1 0 0 1 0 0 1 0 0 1


Total # of neighbors = 66760
Ave neighs/atom = 585.61404
Neighbor list builds = 98
Dangerous builds = 0
Total # of neighbors = 66760
Ave neighs/atom = 585.61404
Neighbor list builds = 98
Dangerous builds = 0
write_dump all xyz /home/theory/phrrpq/bilayer_relaxations/MoSe2_WSe2/AP/2/MoSe2_WSe2_AP_2.xyz modify sort id pbc yes element Mo W Se

Total wall time: 1:07:28
Total wall time: 1:07:28
