OMP_THREADS: 12
MPI: 1
NTASKS-PER-NODE: 4
CPUS_PER_TASK: 12
LAMMPS (28 Mar 2023 - Development)
  using 12 OpenMP thread(s) per MPI task
  using 12 OpenMP thread(s) per MPI task
Reading restart file ...
  restart file = 28 Mar 2023, LAMMPS = 28 Mar 2023
  restoring atom style atomic from restart
  triclinic box = (0 0 0) to (158.26913 137.06509 30) with tilt (-79.134564 0 0)
WARNING: Triclinic box skew is large. LAMMPS will run inefficiently. (src/domain.cpp:220)
  2 by 2 by 1 MPI processor grid
  restoring pair style mace from restart
WARNING: Pair style restartinfo set but has no restart support (src/pair.cpp:746)
  13614 atoms
  read_restart CPU = 0.206 seconds
CUDA unavailable, setting device type to torch::kCPU.
CUDA unavailable, setting device type to torch::kCPU.
CUDA unavailable, setting device type to torch::kCPU.
CUDA unavailable, setting device type to torch::kCPU.
Loading MACE model from "/home/theory/phrrpq/bilayer_relaxations/MoWSSe_bi_radius_8_reduced_all_1_swa_800_run-123_swa.model-lammps.pt" ... finished.
Loading MACE model from "/home/theory/phrrpq/bilayer_relaxations/MoWSSe_bi_radius_8_reduced_all_1_swa_800_run-123_swa.model-lammps.pt" ... finished.
  - The torch_float_dtype is: Double
  - The r_max is: 8.
  - The model has: 2 layers.
  - The torch_float_dtype is: Double
  - The r_max is: 8.
  - The model has: 2 layers.
Loading MACE model from "/home/theory/phrrpq/bilayer_relaxations/MoWSSe_bi_radius_8_reduced_all_1_swa_800_run-123_swa.model-lammps.pt" ... finished.
  - The model atomic numbers are: 16 34 42 74.
  - The pair_coeff atomic numbers are: 42 34 74.
  - The model atomic numbers are: 16 34 42 74.
  - The pair_coeff atomic numbers are: 42 34 74.
  - The torch_float_dtype is: Double
  - The r_max is: 8.
  - The model has: 2 layers.
  - The model atomic numbers are: 16 34 42 74.
  - The pair_coeff atomic numbers are: 42 34 74.
Generated 0 of 3 mixed pair_coeff terms from geometric mixing rule
Loading MACE model from "/home/theory/phrrpq/bilayer_relaxations/MoWSSe_bi_radius_8_reduced_all_1_swa_800_run-123_swa.model-lammps.pt" ... finished.
  - The torch_float_dtype is: Double
  - The r_max is: 8.
  - The model has: 2 layers.
  - The model atomic numbers are: 16 34 42 74.
  - The pair_coeff atomic numbers are: 42 34 74.
Neighbor list info ...
  update: every = 1 steps, delay = 0 steps, check = yes
  max neighbors/atom: 2000, page size: 100000
  master list distance cutoff = 18
  ghost atom cutoff = 18
  binsize = 9, bins = 27 16 4
  1 neighbor lists, perpetual/occasional/extra = 1 0 0
  (1) pair mace, perpetual
      attributes: full, newton on, ghost
      pair build: full/bin/ghost
      stencil: full/ghost/bin/3d
      bin: standard
Setting up Verlet run ...
  Unit style    : metal
  Current step  : 1812
  Time step     : 0.0001
Per MPI rank memory allocation (min/avg/max) = 44.7 | 44.75 | 44.78 Mbytes
   Step          Time           Temp           CPU           TotEng          Fmax          Fnorm     
      1812                   0.1812                       0                       0      -14657634.98912186   5.043328564712088e-05    0.001233854507201291
Loop time of 2.772e-06 on 48 procs for 0 steps with 13614 atoms

99.2% CPU use with 4 MPI tasks x 12 OpenMP threads

MPI task timing breakdown:
Section |  min time  |  avg time  |  max time  |%varavg| %total
---------------------------------------------------------------
Pair    | 0          | 0          | 0          |   0.0 |  0.00
Neigh   | 0          | 0          | 0          |   0.0 |  0.00
Comm    | 0          | 0          | 0          |   0.0 |  0.00
Output  | 0          | 0          | 0          |   0.0 |  0.00
Modify  | 0          | 0          | 0          |   0.0 |  0.00
Other   |            | 2.772e-06  |            |       |100.00

Nlocal:         3403.5 ave        3420 max        3361 min
Histogram: 1 0 0 0 0 0 0 0 0 3
Nghost:        12401.5 ave       12432 max       12337 min
Histogram: 1 0 0 0 0 0 0 1 0 2
Neighs:              0 ave           0 max           0 min
Histogram: 4 0 0 0 0 0 0 0 0 0
FullNghs:  1.99983e+06 ave 2.00947e+06 max 1.97793e+06 min
Histogram: 1 0 0 0 0 0 0 0 1 2

Total # of neighbors = 7999322
Ave neighs/atom = 587.58058
Neighbor list builds = 0
Dangerous builds = 0
BEGIN LAMMPS STANDALONE MINIMIZATION; ii = 27; OMP = 12; MPI = 4
minimize 0.0 1e-3 1000 100000
Generated 0 of 3 mixed pair_coeff terms from geometric mixing rule
Generated 0 of 3 mixed pair_coeff terms from geometric mixing rule
Setting up cg style minimization ...
  Unit style    : metal
  Current step  : 1812
Per MPI rank memory allocation (min/avg/max) = 45.83 | 45.87 | 45.9 Mbytes
Per MPI rank memory allocation (min/avg/max) = 45.83 | 45.87 | 45.9 Mbytes
   Step          Time           Temp           CPU           TotEng          Fmax          Fnorm     
   Step          Time           Temp           CPU           TotEng          Fmax          Fnorm     
      1812                   0.1812                       0                       0      -14657634.98912186   5.043328564714375e-05    0.001233854507217361
      1812                   0.1812                       0                       0      -14657634.98912186   5.043328564714375e-05    0.001233854507217361
WARNING: Pair style restartinfo set but has no restart support (src/pair.cpp:754)
WARNING: Pair style restartinfo set but has no restart support (src/pair.cpp:754)
      1813                   0.1813                       0           570.925728163      -14657634.98912188   2.845342011426527e-05   0.0007585365542147979
      1813                   0.1813                       0           570.925728163      -14657634.98912188   2.845342011426527e-05   0.0007585365542147979
Loop time of 570.926 on 48 procs for 1 steps with 13614 atoms

Loop time of 570.926 on 48 procs for 1 steps with 13614 atoms

517.0% CPU use with 4 MPI tasks x 12 OpenMP threads
517.0% CPU use with 4 MPI tasks x 12 OpenMP threads

Minimization stats:
  Stopping criterion = force tolerance
  Energy initial, next-to-last, final = 
     -14657634.9891219  -14657634.9891219  -14657634.9891219
  Force two-norm initial, final = 0.0012338545 0.00075853655
  Force max component initial, final = 5.0433286e-05 2.845342e-05
  Final line search alpha, max atom move = 1 2.845342e-05
  Iterations, force evaluations = 1 2

Minimization stats:
  Stopping criterion = force tolerance
  Energy initial, next-to-last, final = 
     -14657634.9891219  -14657634.9891219  -14657634.9891219
  Force two-norm initial, final = 0.0012338545 0.00075853655
  Force max component initial, final = 5.0433286e-05 2.845342e-05
  Final line search alpha, max atom move = 1 2.845342e-05
  Iterations, force evaluations = 1 2

MPI task timing breakdown:
Section |  min time  |  avg time  |  max time  |%varavg| %total
---------------------------------------------------------------

MPI task timing breakdown:
Section |  min time  |  avg time  |  max time  |%varavg| %total
---------------------------------------------------------------
Pair    | 561.37     | 566.23     | 568.67     |  12.0 | 99.18
Pair    | 561.37     | 566.23     | 568.67     |  12.0 | 99.18
Neigh   | 0.27096    | 0.27458    | 0.27731    |   0.4 |  0.05
Neigh   | 0.27096    | 0.27458    | 0.27731    |   0.4 |  0.05
Comm    | 1.9584     | 4.3987     | 9.2678     | 136.1 |  0.77
Comm    | 1.9584     | 4.3987     | 9.2678     | 136.1 |  0.77
Output  | 0          | 0          | 0          |   0.0 |  0.00
Output  | 0          | 0          | 0          |   0.0 |  0.00
Modify  | 0          | 0          | 0          |   0.0 |  0.00
Modify  | 0          | 0          | 0          |   0.0 |  0.00
Other   |            | 0.01791    |            |       |  0.00
Other   |            | 0.01791    |            |       |  0.00

Nlocal:         3403.5 ave        3420 max        3361 min
Histogram: 1 0 0 0 0 0 0 0 0 3
Nghost:        12401.5 ave       12432 max       12337 min
Histogram: 1 0 0 0 0 0 0 1 0 2
Neighs:              0 ave           0 max           0 min
Histogram: 4 0 0 0 0 0 0 0 0 0
FullNghs:  1.99983e+06 ave 2.00947e+06 max 1.97793e+06 min
Histogram: 1 0 0 0 0 0 0 0 1 2

Nlocal:         3403.5 ave        3420 max        3361 min
Histogram: 1 0 0 0 0 0 0 0 0 3
Nghost:        12401.5 ave       12432 max       12337 min
Histogram: 1 0 0 0 0 0 0 1 0 2
Neighs:              0 ave           0 max           0 min
Histogram: 4 0 0 0 0 0 0 0 0 0
FullNghs:  1.99983e+06 ave 2.00947e+06 max 1.97793e+06 min
Histogram: 1 0 0 0 0 0 0 0 1 2


Total # of neighbors = 7999322
Ave neighs/atom = 587.58058
Neighbor list builds = 3
Dangerous builds = 0
Total # of neighbors = 7999322
Ave neighs/atom = 587.58058
Neighbor list builds = 3
Dangerous builds = 0
write_data /home/theory/phrrpq/bilayer_relaxations/MoSe2_WSe2/P/27/MoSe2_WSe2_P_27.data
System init for write_data ...
System init for write_data ...
Generated 0 of 3 mixed pair_coeff terms from geometric mixing rule
Generated 0 of 3 mixed pair_coeff terms from geometric mixing rule

Total wall time: 0:15:52
Total wall time: 0:15:52
