Python 3.10.4
OMP_THREADS: 12
MPI: 1
NTASKS-PER-NODE: 4
CPUS_PER_TASK: 12
MPI startup(): PMI server not found. Please set I_MPI_PMI_LIBRARY variable if it is not a singleton case.
MPI startup(): PMI server not found. Please set I_MPI_PMI_LIBRARY variable if it is not a singleton case.
MPI startup(): PMI server not found. Please set I_MPI_PMI_LIBRARY variable if it is not a singleton case.
MPI startup(): PMI server not found. Please set I_MPI_PMI_LIBRARY variable if it is not a singleton case.
LAMMPS (28 Mar 2023 - Development)
LAMMPS (28 Mar 2023 - Development)
LAMMPS (28 Mar 2023 - Development)
LAMMPS (28 Mar 2023 - Development)
  using 12 OpenMP thread(s) per MPI task
  using 12 OpenMP thread(s) per MPI task
  using 12 OpenMP thread(s) per MPI task
  using 12 OpenMP thread(s) per MPI task
  using 12 OpenMP thread(s) per MPI task
  using 12 OpenMP thread(s) per MPI task
  using 12 OpenMP thread(s) per MPI task
  using 12 OpenMP thread(s) per MPI task
Reading data file ...
Reading data file ...
Reading data file ...
Reading data file ...
  triclinic box = (0 0 0) to (13.90882 12.045391 30) with tilt (6.95441 0 0)
  triclinic box = (0 0 0) to (13.90882 12.045391 30) with tilt (6.95441 0 0)
  triclinic box = (0 0 0) to (13.90882 12.045391 30) with tilt (6.95441 0 0)
  triclinic box = (0 0 0) to (13.90882 12.045391 30) with tilt (6.95441 0 0)
WARNING: Triclinic box skew is large. LAMMPS will run inefficiently. (src/domain.cpp:220)
WARNING: Triclinic box skew is large. LAMMPS will run inefficiently. (src/domain.cpp:220)
WARNING: Triclinic box skew is large. LAMMPS will run inefficiently. (src/domain.cpp:220)
WARNING: Triclinic box skew is large. LAMMPS will run inefficiently. (src/domain.cpp:220)
  1 by 1 by 1 MPI processor grid
  1 by 1 by 1 MPI processor grid
  1 by 1 by 1 MPI processor grid
  1 by 1 by 1 MPI processor grid
  reading atoms ...
  reading atoms ...
  reading atoms ...
  reading atoms ...
  114 atoms
  114 atoms
  114 atoms
  114 atoms
  read_data CPU = 0.004 seconds
  read_data CPU = 0.004 seconds
  read_data CPU = 0.004 seconds
  read_data CPU = 0.004 seconds
CUDA unavailable, setting device type to torch::kCPU.
Loading MACE model from "/home/theory/phrrpq/bilayer_relaxations/MoWSSe_bi_radius_8_reduced_all_1_swa_800_run-123_swa.model-lammps.pt" ...CUDA unavailable, setting device type to torch::kCPU.
Loading MACE model from "/home/theory/phrrpq/bilayer_relaxations/MoWSSe_bi_radius_8_reduced_all_1_swa_800_run-123_swa.model-lammps.pt" ...CUDA unavailable, setting device type to torch::kCPU.
Loading MACE model from "/home/theory/phrrpq/bilayer_relaxations/MoWSSe_bi_radius_8_reduced_all_1_swa_800_run-123_swa.model-lammps.pt" ...CUDA unavailable, setting device type to torch::kCPU.
Loading MACE model from "/home/theory/phrrpq/bilayer_relaxations/MoWSSe_bi_radius_8_reduced_all_1_swa_800_run-123_swa.model-lammps.pt" ... finished.
 finished.
 finished.
  - The torch_float_dtype is: Double
  - The r_max is: 8.
  - The model has: 2 layers.
  - The model atomic numbers are: 16 34 42 74.
  - The pair_coeff atomic numbers are: 74 16.
  - The torch_float_dtype is: Double
  - The r_max is: 8.
  - The model has: 2 layers.
  - The torch_float_dtype is: Double
Generated 0 of 1 mixed pair_coeff terms from geometric mixing rule
  - The model atomic numbers are: 16 34 42 74.
  - The r_max is:   - The pair_coeff atomic numbers are: 74 16.
8.
  - The model has: 2 layers.
Neighbor list info ...
  update: every = 1 steps, delay = 0 steps, check = yes
  max neighbors/atom: 2000, page size: 100000
  master list distance cutoff = 18
  ghost atom cutoff = 18
  binsize = 9, bins = 3 2 4
  1 neighbor lists, perpetual/occasional/extra = 1 0 0
  (1) pair mace, perpetual
      attributes: full, newton on, ghost
      pair build: full/bin/ghost
      stencil: full/ghost/bin/3d
      bin: standard
  - The model atomic numbers are: 16 34 42 74.
  - The pair_coeff atomic numbers are: 74 16.
Generated 0 of 1 mixed pair_coeff terms from geometric mixing rule
Setting up Verlet run ...
  Unit style    : metal
  Current step  : 0
  Time step     : 0.0001
Neighbor list info ...
  update: every = 1 steps, delay = 0 steps, check = yes
  max neighbors/atom: 2000, page size: 100000
  master list distance cutoff = 18
  ghost atom cutoff = 18
  binsize = 9, bins = 3 2 4
  1 neighbor lists, perpetual/occasional/extra = 1 0 0
  (1) pair mace, perpetual
      attributes: full, newton on, ghost
      pair build: full/bin/ghost
      stencil: full/ghost/bin/3d
      bin: standard
Setting up Verlet run ...
  Unit style    : metal
  Current step  : 0
  Time step     : 0.0001
Generated 0 of 1 mixed pair_coeff terms from geometric mixing rule
Neighbor list info ...
  update: every = 1 steps, delay = 0 steps, check = yes
  max neighbors/atom: 2000, page size: 100000
  master list distance cutoff = 18
  ghost atom cutoff = 18
  binsize = 9, bins = 3 2 4
  1 neighbor lists, perpetual/occasional/extra = 1 0 0
  (1) pair mace, perpetual
      attributes: full, newton on, ghost
      pair build: full/bin/ghost
      stencil: full/ghost/bin/3d
      bin: standard
Setting up Verlet run ...
  Unit style    : metal
  Current step  : 0
  Time step     : 0.0001
 finished.
  - The torch_float_dtype is: Double
  - The r_max is: 8.
  - The model has: 2 layers.
  - The model atomic numbers are: 16 34 42 74.
  - The pair_coeff atomic numbers are: 74 16.
Generated 0 of 1 mixed pair_coeff terms from geometric mixing rule
Neighbor list info ...
  update: every = 1 steps, delay = 0 steps, check = yes
  max neighbors/atom: 2000, page size: 100000
  master list distance cutoff = 18
  ghost atom cutoff = 18
  binsize = 9, bins = 3 2 4
  1 neighbor lists, perpetual/occasional/extra = 1 0 0
  (1) pair mace, perpetual
      attributes: full, newton on, ghost
      pair build: full/bin/ghost
      stencil: full/ghost/bin/3d
      bin: standard
Setting up Verlet run ...
  Unit style    : metal
  Current step  : 0
  Time step     : 0.0001
Per MPI rank memory allocation (min/avg/max) = 19.76 | 19.76 | 19.76 Mbytes
   Step          Time           Temp          Press           CPU           KinEng         PotEng         TotEng        Atoms         Fmax          Fnorm     
         0                        0                       0       9497.372865201596                       0                       0      -107625.4187233552      -107625.4187233552        114        4.480282814558223       31.99776872997425
Loop time of 1.404e-06 on 12 procs for 0 steps with 114 atoms

142.5% CPU use with 1 MPI tasks x 12 OpenMP threads

MPI task timing breakdown:
Section |  min time  |  avg time  |  max time  |%varavg| %total
---------------------------------------------------------------
Pair    | 0          | 0          | 0          |   0.0 |  0.00
Neigh   | 0          | 0          | 0          |   0.0 |  0.00
Comm    | 0          | 0          | 0          |   0.0 |  0.00
Output  | 0          | 0          | 0          |   0.0 |  0.00
Modify  | 0          | 0          | 0          |   0.0 |  0.00
Other   |            | 1.404e-06  |            |       |100.00

Nlocal:            114 ave         114 max         114 min
Histogram: 1 0 0 0 0 0 0 0 0 0
Nghost:           3534 ave        3534 max        3534 min
Histogram: 1 0 0 0 0 0 0 0 0 0
Neighs:              0 ave           0 max           0 min
Histogram: 1 0 0 0 0 0 0 0 0 0
FullNghs:        73348 ave       73348 max       73348 min
Histogram: 1 0 0 0 0 0 0 0 0 0

Total # of neighbors = 73348
Ave neighs/atom = 643.40351
Neighbor list builds = 0
Dangerous builds = 0
BEGIN LAMMPS STANDALONE MINIMIZATION; ii = 2; OMP = 12; MPI = 4
minimize 0.0 1e-3 1000 100000
Generated 0 of 1 mixed pair_coeff terms from geometric mixing rule
Generated 0 of 1 mixed pair_coeff terms from geometric mixing rule
Setting up cg style minimization ...
  Unit style    : metal
  Current step  : 0
Per MPI rank memory allocation (min/avg/max) = 19.76 | 19.76 | 19.76 Mbytes
   Step          Time           Temp          Press           CPU           KinEng         PotEng         TotEng        Atoms         Fmax          Fnorm     
         0                        0                       0       9497.372865201596                       0                       0      -107625.4187233552      -107625.4187233552        114        4.480282814558223       31.99776872997425
Loop time of 9.93e-07 on 12 procs for 0 steps with 114 atoms

100.7% CPU use with 1 MPI tasks x 12 OpenMP threads

MPI task timing breakdown:
Section |  min time  |  avg time  |  max time  |%varavg| %total
---------------------------------------------------------------
Pair    | 0          | 0          | 0          |   0.0 |  0.00
Neigh   | 0          | 0          | 0          |   0.0 |  0.00
Comm    | 0          | 0          | 0          |   0.0 |  0.00
Output  | 0          | 0          | 0          |   0.0 |  0.00
Modify  | 0          | 0          | 0          |   0.0 |  0.00
Other   |            | 9.93e-07   |            |       |100.00

Nlocal:            114 ave         114 max         114 min
Histogram: 1 0 0 0 0 0 0 0 0 0
Nghost:           3534 ave        3534 max        3534 min
Histogram: 1 0 0 0 0 0 0 0 0 0
Neighs:              0 ave           0 max           0 min
Histogram: 1 0 0 0 0 0 0 0 0 0
FullNghs:        73348 ave       73348 max       73348 min
Histogram: 1 0 0 0 0 0 0 0 0 0

Total # of neighbors = 73348
Ave neighs/atom = 643.40351
Neighbor list builds = 0
Dangerous builds = 0
BEGIN LAMMPS STANDALONE MINIMIZATION; ii = 2; OMP = 12; MPI = 4
minimize 0.0 1e-3 1000 100000
Generated 0 of 1 mixed pair_coeff terms from geometric mixing rule
Generated 0 of 1 mixed pair_coeff terms from geometric mixing rule
Setting up cg style minimization ...
  Unit style    : metal
  Current step  : 0
Per MPI rank memory allocation (min/avg/max) = 19.76 | 19.76 | 19.76 Mbytes
   Step          Time           Temp          Press           CPU           KinEng         PotEng         TotEng        Atoms         Fmax          Fnorm     
         0                        0                       0       9497.372865201596                       0                       0      -107625.4187233552      -107625.4187233552        114        4.480282814558223       31.99776872997425
Loop time of 8.6e-07 on 12 procs for 0 steps with 114 atoms

116.3% CPU use with 1 MPI tasks x 12 OpenMP threads

MPI task timing breakdown:
Section |  min time  |  avg time  |  max time  |%varavg| %total
---------------------------------------------------------------
Pair    | 0          | 0          | 0          |   0.0 |  0.00
Neigh   | 0          | 0          | 0          |   0.0 |  0.00
Comm    | 0          | 0          | 0          |   0.0 |  0.00
Output  | 0          | 0          | 0          |   0.0 |  0.00
Modify  | 0          | 0          | 0          |   0.0 |  0.00
Other   |            | 8.6e-07    |            |       |100.00

Nlocal:            114 ave         114 max         114 min
Histogram: 1 0 0 0 0 0 0 0 0 0
Nghost:           3534 ave        3534 max        3534 min
Histogram: 1 0 0 0 0 0 0 0 0 0
Neighs:              0 ave           0 max           0 min
Histogram: 1 0 0 0 0 0 0 0 0 0
FullNghs:        73348 ave       73348 max       73348 min
Histogram: 1 0 0 0 0 0 0 0 0 0

Total # of neighbors = 73348
Ave neighs/atom = 643.40351
Neighbor list builds = 0
Dangerous builds = 0
BEGIN LAMMPS STANDALONE MINIMIZATION; ii = 2; OMP = 12; MPI = 4
minimize 0.0 1e-3 1000 100000
Generated 0 of 1 mixed pair_coeff terms from geometric mixing rule
Generated 0 of 1 mixed pair_coeff terms from geometric mixing rule
Setting up cg style minimization ...
  Unit style    : metal
  Current step  : 0
Per MPI rank memory allocation (min/avg/max) = 19.76 | 19.76 | 19.76 Mbytes
   Step          Time           Temp          Press           CPU           KinEng         PotEng         TotEng        Atoms         Fmax          Fnorm     
         0                        0                       0       9497.372865201596                       0                       0      -107625.4187233552      -107625.4187233552        114        4.480282814558223       31.99776872997425
Loop time of 1.0486e-05 on 12 procs for 0 steps with 114 atoms

114.4% CPU use with 1 MPI tasks x 12 OpenMP threads

MPI task timing breakdown:
Section |  min time  |  avg time  |  max time  |%varavg| %total
---------------------------------------------------------------
Pair    | 0          | 0          | 0          |   0.0 |  0.00
Neigh   | 0          | 0          | 0          |   0.0 |  0.00
Comm    | 0          | 0          | 0          |   0.0 |  0.00
Output  | 0          | 0          | 0          |   0.0 |  0.00
Modify  | 0          | 0          | 0          |   0.0 |  0.00
Other   |            | 1.049e-05  |            |       |100.00

Nlocal:            114 ave         114 max         114 min
Histogram: 1 0 0 0 0 0 0 0 0 0
Nghost:           3534 ave        3534 max        3534 min
Histogram: 1 0 0 0 0 0 0 0 0 0
Neighs:              0 ave           0 max           0 min
Histogram: 1 0 0 0 0 0 0 0 0 0
FullNghs:        73348 ave       73348 max       73348 min
Histogram: 1 0 0 0 0 0 0 0 0 0

Total # of neighbors = 73348
Ave neighs/atom = 643.40351
Neighbor list builds = 0
Dangerous builds = 0
BEGIN LAMMPS STANDALONE MINIMIZATION; ii = 2; OMP = 12; MPI = 4
minimize 0.0 1e-3 1000 100000
Generated 0 of 1 mixed pair_coeff terms from geometric mixing rule
Generated 0 of 1 mixed pair_coeff terms from geometric mixing rule
Setting up cg style minimization ...
  Unit style    : metal
  Current step  : 0
Per MPI rank memory allocation (min/avg/max) = 20.88 | 20.88 | 20.88 Mbytes
Per MPI rank memory allocation (min/avg/max) = 20.88 | 20.88 | 20.88 Mbytes
   Step          Time           Temp          Press           CPU           KinEng         PotEng         TotEng        Atoms         Fmax          Fnorm     
   Step          Time           Temp          Press           CPU           KinEng         PotEng         TotEng        Atoms         Fmax          Fnorm     
         0                        0                       0       9497.372865201598                       0                       0      -107625.4187233552      -107625.4187233552        114        4.480282814558226       31.99776872997425
         0                        0                       0       9497.372865201598                       0                       0      -107625.4187233552      -107625.4187233552        114        4.480282814558226       31.99776872997425
Per MPI rank memory allocation (min/avg/max) = 20.88 | 20.88 | 20.88 Mbytes
Per MPI rank memory allocation (min/avg/max) = 20.88 | 20.88 | 20.88 Mbytes
   Step          Time           Temp          Press           CPU           KinEng         PotEng         TotEng        Atoms         Fmax          Fnorm     
   Step          Time           Temp          Press           CPU           KinEng         PotEng         TotEng        Atoms         Fmax          Fnorm     
         0                        0                       0       9497.372865201598                       0                       0      -107625.4187233552      -107625.4187233552        114        4.480282814558226       31.99776872997425
         0                        0                       0       9497.372865201598                       0                       0      -107625.4187233552      -107625.4187233552        114        4.480282814558226       31.99776872997425
Per MPI rank memory allocation (min/avg/max) = 20.88 | 20.88 | 20.88 Mbytes
Per MPI rank memory allocation (min/avg/max) = 20.88 | 20.88 | 20.88 Mbytes
   Step          Time           Temp          Press           CPU           KinEng         PotEng         TotEng        Atoms         Fmax          Fnorm     
   Step          Time           Temp          Press           CPU           KinEng         PotEng         TotEng        Atoms         Fmax          Fnorm     
         0                        0                       0       9497.372865201598                       0                       0      -107625.4187233552      -107625.4187233552        114        4.480282814558226       31.99776872997425
         0                        0                       0       9497.372865201598                       0                       0      -107625.4187233552      -107625.4187233552        114        4.480282814558226       31.99776872997425
Per MPI rank memory allocation (min/avg/max) = 20.88 | 20.88 | 20.88 Mbytes
Per MPI rank memory allocation (min/avg/max) = 20.88 | 20.88 | 20.88 Mbytes
   Step          Time           Temp          Press           CPU           KinEng         PotEng         TotEng        Atoms         Fmax          Fnorm     
   Step          Time           Temp          Press           CPU           KinEng         PotEng         TotEng        Atoms         Fmax          Fnorm     
         0                        0                       0       9497.372865201598                       0                       0      -107625.4187233552      -107625.4187233552        114        4.480282814558226       31.99776872997425
         0                        0                       0       9497.372865201598                       0                       0      -107625.4187233552      -107625.4187233552        114        4.480282814558226       31.99776872997425
WARNING: Pair style restartinfo set but has no restart support (src/pair.cpp:754)
WARNING: Pair style restartinfo set but has no restart support (src/pair.cpp:754)
         1                   0.0001                       0        -3800.4673507311            32.041909953                       0      -107641.8629880479      -107641.8629880479        114        2.239492369471767       14.24455585525652
         1                   0.0001                       0        -3800.4673507311            32.041909953                       0      -107641.8629880479      -107641.8629880479        114        2.239492369471767       14.24455585525652
WARNING: Pair style restartinfo set but has no restart support (src/pair.cpp:754)
WARNING: Pair style restartinfo set but has no restart support (src/pair.cpp:754)
         1                   0.0001                       0        -3800.4673507311       31.98220738099999                       0      -107641.8629880479      -107641.8629880479        114        2.239492369471767       14.24455585525652
         1                   0.0001                       0        -3800.4673507311       31.98220738099999                       0      -107641.8629880479      -107641.8629880479        114        2.239492369471767       14.24455585525652
WARNING: Pair style restartinfo set but has no restart support (src/pair.cpp:754)
WARNING: Pair style restartinfo set but has no restart support (src/pair.cpp:754)
         1                   0.0001                       0        -3800.4673507311            33.310008553                       0      -107641.8629880479      -107641.8629880479        114        2.239492369471767       14.24455585525652
         1                   0.0001                       0        -3800.4673507311            33.310008553                       0      -107641.8629880479      -107641.8629880479        114        2.239492369471767       14.24455585525652
WARNING: Pair style restartinfo set but has no restart support (src/pair.cpp:754)
WARNING: Pair style restartinfo set but has no restart support (src/pair.cpp:754)
         1                   0.0001                       0        -3800.4673507311       34.96161349400001                       0      -107641.8629880479      -107641.8629880479        114        2.239492369471767       14.24455585525652
         1                   0.0001                       0        -3800.4673507311       34.96161349400001                       0      -107641.8629880479      -107641.8629880479        114        2.239492369471767       14.24455585525652
WARNING: Pair style restartinfo set but has no restart support (src/pair.cpp:754)
WARNING: Pair style restartinfo set but has no restart support (src/pair.cpp:754)
         2                   0.0002                       0      -4276.658915695776           100.510271917                       0      -107645.7223707029      -107645.7223707029        114       0.3747313120298687       1.987267848919222
         2                   0.0002                       0      -4276.658915695776           100.510271917                       0      -107645.7223707029      -107645.7223707029        114       0.3747313120298687       1.987267848919222
WARNING: Pair style restartinfo set but has no restart support (src/pair.cpp:754)
WARNING: Pair style restartinfo set but has no restart support (src/pair.cpp:754)
         2                   0.0002                       0      -4276.658915695776           100.662953668                       0      -107645.7223707029      -107645.7223707029        114       0.3747313120298687       1.987267848919222
         2                   0.0002                       0      -4276.658915695776           100.662953668                       0      -107645.7223707029      -107645.7223707029        114       0.3747313120298687       1.987267848919222
WARNING: Pair style restartinfo set but has no restart support (src/pair.cpp:754)
WARNING: Pair style restartinfo set but has no restart support (src/pair.cpp:754)
         2                   0.0002                       0      -4276.658915695776           104.085606153                       0      -107645.7223707029      -107645.7223707029        114       0.3747313120298687       1.987267848919222
         2                   0.0002                       0      -4276.658915695776           104.085606153                       0      -107645.7223707029      -107645.7223707029        114       0.3747313120298687       1.987267848919222
WARNING: Pair style restartinfo set but has no restart support (src/pair.cpp:754)
WARNING: Pair style restartinfo set but has no restart support (src/pair.cpp:754)
         2                   0.0002                       0      -4276.658915695776            109.37266487                       0      -107645.7223707029      -107645.7223707029        114       0.3747313120298687       1.987267848919222
         2                   0.0002                       0      -4276.658915695776            109.37266487                       0      -107645.7223707029      -107645.7223707029        114       0.3747313120298687       1.987267848919222
WARNING: Pair style restartinfo set but has no restart support (src/pair.cpp:754)
WARNING: Pair style restartinfo set but has no restart support (src/pair.cpp:754)
         3                   0.0003                       0      -1043.062193948479           163.106382961                       0      -107645.8278277144      -107645.8278277144        114      0.04284091676029517      0.2312254669258106
         3                   0.0003                       0      -1043.062193948479           163.106382961                       0      -107645.8278277144      -107645.8278277144        114      0.04284091676029517      0.2312254669258106
WARNING: Pair style restartinfo set but has no restart support (src/pair.cpp:754)
WARNING: Pair style restartinfo set but has no restart support (src/pair.cpp:754)
         3                   0.0003                       0      -1043.062193948479           163.261070435                       0      -107645.8278277144      -107645.8278277144        114      0.04284091676029517      0.2312254669258106
         3                   0.0003                       0      -1043.062193948479           163.261070435                       0      -107645.8278277144      -107645.8278277144        114      0.04284091676029517      0.2312254669258106
WARNING: Pair style restartinfo set but has no restart support (src/pair.cpp:754)
WARNING: Pair style restartinfo set but has no restart support (src/pair.cpp:754)
         3                   0.0003                       0      -1043.062193948479            168.25031246                       0      -107645.8278277144      -107645.8278277144        114      0.04284091676029517      0.2312254669258106
         3                   0.0003                       0      -1043.062193948479            168.25031246                       0      -107645.8278277144      -107645.8278277144        114      0.04284091676029517      0.2312254669258106
WARNING: Pair style restartinfo set but has no restart support (src/pair.cpp:754)
WARNING: Pair style restartinfo set but has no restart support (src/pair.cpp:754)
         3                   0.0003                       0      -1043.062193948479            177.09651343                       0      -107645.8278277144      -107645.8278277144        114      0.04284091676029517      0.2312254669258106
         3                   0.0003                       0      -1043.062193948479            177.09651343                       0      -107645.8278277144      -107645.8278277144        114      0.04284091676029517      0.2312254669258106
WARNING: Pair style restartinfo set but has no restart support (src/pair.cpp:754)
WARNING: Pair style restartinfo set but has no restart support (src/pair.cpp:754)
         4                   0.0004                       0      -883.8090701054385            225.68837941                       0      -107645.8298308725      -107645.8298308725        114      0.03835003603239793      0.2194880401543874
         4                   0.0004                       0      -883.8090701054385            225.68837941                       0      -107645.8298308725      -107645.8298308725        114      0.03835003603239793      0.2194880401543874
WARNING: Pair style restartinfo set but has no restart support (src/pair.cpp:754)
WARNING: Pair style restartinfo set but has no restart support (src/pair.cpp:754)
         4                   0.0004                       0      -883.8090701054385           225.967830894                       0      -107645.8298308725      -107645.8298308725        114      0.03835003603239793      0.2194880401543874
         4                   0.0004                       0      -883.8090701054385           225.967830894                       0      -107645.8298308725      -107645.8298308725        114      0.03835003603239793      0.2194880401543874
WARNING: Pair style restartinfo set but has no restart support (src/pair.cpp:754)
WARNING: Pair style restartinfo set but has no restart support (src/pair.cpp:754)
         4                   0.0004                       0      -883.8090701054385           232.614215264                       0      -107645.8298308725      -107645.8298308725        114      0.03835003603239793      0.2194880401543874
         4                   0.0004                       0      -883.8090701054385           232.614215264                       0      -107645.8298308725      -107645.8298308725        114      0.03835003603239793      0.2194880401543874
WARNING: Pair style restartinfo set but has no restart support (src/pair.cpp:754)
WARNING: Pair style restartinfo set but has no restart support (src/pair.cpp:754)
         4                   0.0004                       0      -883.8090701054385           244.381310892                       0      -107645.8298308725      -107645.8298308725        114      0.03835003603239793      0.2194880401543874
         4                   0.0004                       0      -883.8090701054385           244.381310892                       0      -107645.8298308725      -107645.8298308725        114      0.03835003603239793      0.2194880401543874
WARNING: Pair style restartinfo set but has no restart support (src/pair.cpp:754)
WARNING: Pair style restartinfo set but has no restart support (src/pair.cpp:754)
         5                   0.0005                       0      -765.5824514706967           288.428809994                       0      -107645.8332158985      -107645.8332158985        114      0.04421345706356773      0.2766984837319716
         5                   0.0005                       0      -765.5824514706967           288.428809994                       0      -107645.8332158985      -107645.8332158985        114      0.04421345706356773      0.2766984837319716
WARNING: Pair style restartinfo set but has no restart support (src/pair.cpp:754)
WARNING: Pair style restartinfo set but has no restart support (src/pair.cpp:754)
         5                   0.0005                       0      -765.5824514706967           288.550494114                       0      -107645.8332158985      -107645.8332158985        114      0.04421345706356773      0.2766984837319716
         5                   0.0005                       0      -765.5824514706967           288.550494114                       0      -107645.8332158985      -107645.8332158985        114      0.04421345706356773      0.2766984837319716
WARNING: Pair style restartinfo set but has no restart support (src/pair.cpp:754)
WARNING: Pair style restartinfo set but has no restart support (src/pair.cpp:754)
         5                   0.0005                       0      -765.5824514706967           295.922321862                       0      -107645.8332158985      -107645.8332158985        114      0.04421345706356773      0.2766984837319716
         5                   0.0005                       0      -765.5824514706967           295.922321862                       0      -107645.8332158985      -107645.8332158985        114      0.04421345706356773      0.2766984837319716
WARNING: Pair style restartinfo set but has no restart support (src/pair.cpp:754)
WARNING: Pair style restartinfo set but has no restart support (src/pair.cpp:754)
         5                   0.0005                       0      -765.5824514706967           311.922996095                       0      -107645.8332158985      -107645.8332158985        114      0.04421345706356773      0.2766984837319716
         5                   0.0005                       0      -765.5824514706967           311.922996095                       0      -107645.8332158985      -107645.8332158985        114      0.04421345706356773      0.2766984837319716
WARNING: Pair style restartinfo set but has no restart support (src/pair.cpp:754)
WARNING: Pair style restartinfo set but has no restart support (src/pair.cpp:754)
         6    0.0006000000000000001                       0      -882.2452092872094             351.3706576                       0      -107645.8350036076      -107645.8350036076        114      0.02545231096186629      0.1711125604990046
         6    0.0006000000000000001                       0      -882.2452092872094             351.3706576                       0      -107645.8350036076      -107645.8350036076        114      0.02545231096186629      0.1711125604990046
WARNING: Pair style restartinfo set but has no restart support (src/pair.cpp:754)
WARNING: Pair style restartinfo set but has no restart support (src/pair.cpp:754)
         6    0.0006000000000000001                       0      -882.2452092872094           351.432794806                       0      -107645.8350036076      -107645.8350036076        114      0.02545231096186629      0.1711125604990046
         6    0.0006000000000000001                       0      -882.2452092872094           351.432794806                       0      -107645.8350036076      -107645.8350036076        114      0.02545231096186629      0.1711125604990046
WARNING: Pair style restartinfo set but has no restart support (src/pair.cpp:754)
WARNING: Pair style restartinfo set but has no restart support (src/pair.cpp:754)
         6    0.0006000000000000001                       0      -882.2452092872094           360.246239847                       0      -107645.8350036076      -107645.8350036076        114      0.02545231096186629      0.1711125604990046
         6    0.0006000000000000001                       0      -882.2452092872094           360.246239847                       0      -107645.8350036076      -107645.8350036076        114      0.02545231096186629      0.1711125604990046
WARNING: Pair style restartinfo set but has no restart support (src/pair.cpp:754)
WARNING: Pair style restartinfo set but has no restart support (src/pair.cpp:754)
         6    0.0006000000000000001                       0      -882.2452092872094           379.721899243                       0      -107645.8350036076      -107645.8350036076        114      0.02545231096186629      0.1711125604990046
         6    0.0006000000000000001                       0      -882.2452092872094           379.721899243                       0      -107645.8350036076      -107645.8350036076        114      0.02545231096186629      0.1711125604990046
WARNING: Pair style restartinfo set but has no restart support (src/pair.cpp:754)
WARNING: Pair style restartinfo set but has no restart support (src/pair.cpp:754)
         7                   0.0007                       0      -1035.941631125711           414.142649713                       0      -107645.8357582801      -107645.8357582801        114      0.01271744085665815     0.08160604066427866
         7                   0.0007                       0      -1035.941631125711           414.142649713                       0      -107645.8357582801      -107645.8357582801        114      0.01271744085665815     0.08160604066427866
WARNING: Pair style restartinfo set but has no restart support (src/pair.cpp:754)
WARNING: Pair style restartinfo set but has no restart support (src/pair.cpp:754)
         7                   0.0007                       0      -1035.941631125711           414.181224984                       0      -107645.8357582801      -107645.8357582801        114      0.01271744085665815     0.08160604066427866
         7                   0.0007                       0      -1035.941631125711           414.181224984                       0      -107645.8357582801      -107645.8357582801        114      0.01271744085665815     0.08160604066427866
WARNING: Pair style restartinfo set but has no restart support (src/pair.cpp:754)
WARNING: Pair style restartinfo set but has no restart support (src/pair.cpp:754)
         7                   0.0007                       0      -1035.941631125711           424.400710061                       0      -107645.8357582801      -107645.8357582801        114      0.01271744085665815     0.08160604066427866
         7                   0.0007                       0      -1035.941631125711           424.400710061                       0      -107645.8357582801      -107645.8357582801        114      0.01271744085665815     0.08160604066427866
WARNING: Pair style restartinfo set but has no restart support (src/pair.cpp:754)
WARNING: Pair style restartinfo set but has no restart support (src/pair.cpp:754)
         7                   0.0007                       0      -1035.941631125711       447.3140443259999                       0      -107645.8357582801      -107645.8357582801        114      0.01271744085665815     0.08160604066427866
         7                   0.0007                       0      -1035.941631125711       447.3140443259999                       0      -107645.8357582801      -107645.8357582801        114      0.01271744085665815     0.08160604066427866
WARNING: Pair style restartinfo set but has no restart support (src/pair.cpp:754)
WARNING: Pair style restartinfo set but has no restart support (src/pair.cpp:754)
         8                   0.0008                       0      -1019.439028750392           476.995505335                       0      -107645.8361110675      -107645.8361110675        114      0.02789206087805468     0.09107026687110183
         8                   0.0008                       0      -1019.439028750392           476.995505335                       0      -107645.8361110675      -107645.8361110675        114      0.02789206087805468     0.09107026687110183
WARNING: Pair style restartinfo set but has no restart support (src/pair.cpp:754)
WARNING: Pair style restartinfo set but has no restart support (src/pair.cpp:754)
         8                   0.0008                       0      -1019.439028750392            476.97248945                       0      -107645.8361110675      -107645.8361110675        114      0.02789206087805468     0.09107026687110183
         8                   0.0008                       0      -1019.439028750392            476.97248945                       0      -107645.8361110675      -107645.8361110675        114      0.02789206087805468     0.09107026687110183
WARNING: Pair style restartinfo set but has no restart support (src/pair.cpp:754)
WARNING: Pair style restartinfo set but has no restart support (src/pair.cpp:754)
         8                   0.0008                       0      -1019.439028750392           488.581355733                       0      -107645.8361110675      -107645.8361110675        114      0.02789206087805468     0.09107026687110183
         8                   0.0008                       0      -1019.439028750392           488.581355733                       0      -107645.8361110675      -107645.8361110675        114      0.02789206087805468     0.09107026687110183
WARNING: Pair style restartinfo set but has no restart support (src/pair.cpp:754)
WARNING: Pair style restartinfo set but has no restart support (src/pair.cpp:754)
         8                   0.0008                       0      -1019.439028750392           515.612514656                       0      -107645.8361110675      -107645.8361110675        114      0.02789206087805468     0.09107026687110183
         8                   0.0008                       0      -1019.439028750392           515.612514656                       0      -107645.8361110675      -107645.8361110675        114      0.02789206087805468     0.09107026687110183
WARNING: Pair style restartinfo set but has no restart support (src/pair.cpp:754)
WARNING: Pair style restartinfo set but has no restart support (src/pair.cpp:754)
         9    0.0009000000000000001                       0      -987.8725812457362           539.748131555                       0      -107645.8363188556      -107645.8363188556        114     0.008660507961278326      0.0504379514483879
         9    0.0009000000000000001                       0      -987.8725812457362           539.748131555                       0      -107645.8363188556      -107645.8363188556        114     0.008660507961278326      0.0504379514483879
WARNING: Pair style restartinfo set but has no restart support (src/pair.cpp:754)
WARNING: Pair style restartinfo set but has no restart support (src/pair.cpp:754)
         9    0.0009000000000000001                       0      -987.8725812457362       539.8748784749999                       0      -107645.8363188556      -107645.8363188556        114     0.008660507961278326      0.0504379514483879
         9    0.0009000000000000001                       0      -987.8725812457362       539.8748784749999                       0      -107645.8363188556      -107645.8363188556        114     0.008660507961278326      0.0504379514483879
WARNING: Pair style restartinfo set but has no restart support (src/pair.cpp:754)
WARNING: Pair style restartinfo set but has no restart support (src/pair.cpp:754)
         9    0.0009000000000000001                       0      -987.8725812457362       553.4951327670001                       0      -107645.8363188556      -107645.8363188556        114     0.008660507961278326      0.0504379514483879
         9    0.0009000000000000001                       0      -987.8725812457362       553.4951327670001                       0      -107645.8363188556      -107645.8363188556        114     0.008660507961278326      0.0504379514483879
WARNING: Pair style restartinfo set but has no restart support (src/pair.cpp:754)
WARNING: Pair style restartinfo set but has no restart support (src/pair.cpp:754)
         9    0.0009000000000000001                       0      -987.8725812457362       584.4253464679999                       0      -107645.8363188556      -107645.8363188556        114     0.008660507961278326      0.0504379514483879
         9    0.0009000000000000001                       0      -987.8725812457362       584.4253464679999                       0      -107645.8363188556      -107645.8363188556        114     0.008660507961278326      0.0504379514483879
WARNING: Pair style restartinfo set but has no restart support (src/pair.cpp:754)
WARNING: Pair style restartinfo set but has no restart support (src/pair.cpp:754)
        10                    0.001                       0      -988.7642021243103           602.599173758                       0        -107645.83647624        -107645.83647624        114     0.007873307793689888     0.05005063686006415
        10                    0.001                       0      -988.7642021243103           602.599173758                       0        -107645.83647624        -107645.83647624        114     0.007873307793689888     0.05005063686006415
WARNING: Pair style restartinfo set but has no restart support (src/pair.cpp:754)
WARNING: Pair style restartinfo set but has no restart support (src/pair.cpp:754)
        10                    0.001                       0      -988.7642021243103           602.647700186                       0        -107645.83647624        -107645.83647624        114     0.007873307793689888     0.05005063686006415
        10                    0.001                       0      -988.7642021243103           602.647700186                       0        -107645.83647624        -107645.83647624        114     0.007873307793689888     0.05005063686006415
WARNING: Pair style restartinfo set but has no restart support (src/pair.cpp:754)
WARNING: Pair style restartinfo set but has no restart support (src/pair.cpp:754)
        10                    0.001                       0      -988.7642021243103       618.1273249159999                       0        -107645.83647624        -107645.83647624        114     0.007873307793689888     0.05005063686006415
        10                    0.001                       0      -988.7642021243103       618.1273249159999                       0        -107645.83647624        -107645.83647624        114     0.007873307793689888     0.05005063686006415
WARNING: Pair style restartinfo set but has no restart support (src/pair.cpp:754)
WARNING: Pair style restartinfo set but has no restart support (src/pair.cpp:754)
        10                    0.001                       0      -988.7642021243103           652.725886236                       0        -107645.83647624        -107645.83647624        114     0.007873307793689888     0.05005063686006415
        10                    0.001                       0      -988.7642021243103           652.725886236                       0        -107645.83647624        -107645.83647624        114     0.007873307793689888     0.05005063686006415
WARNING: Pair style restartinfo set but has no restart support (src/pair.cpp:754)
WARNING: Pair style restartinfo set but has no restart support (src/pair.cpp:754)
        11                   0.0011                       0      -1005.732874589984       665.3000902079999                       0      -107645.8365482095      -107645.8365482095        114     0.006782722576057363     0.03858122417154019
        11                   0.0011                       0      -1005.732874589984       665.3000902079999                       0      -107645.8365482095      -107645.8365482095        114     0.006782722576057363     0.03858122417154019
WARNING: Pair style restartinfo set but has no restart support (src/pair.cpp:754)
WARNING: Pair style restartinfo set but has no restart support (src/pair.cpp:754)
        11                   0.0011                       0      -1005.732874589984           665.406850688                       0      -107645.8365482095      -107645.8365482095        114     0.006782722576057363     0.03858122417154019
        11                   0.0011                       0      -1005.732874589984           665.406850688                       0      -107645.8365482095      -107645.8365482095        114     0.006782722576057363     0.03858122417154019
WARNING: Pair style restartinfo set but has no restart support (src/pair.cpp:754)
WARNING: Pair style restartinfo set but has no restart support (src/pair.cpp:754)
        11                   0.0011                       0      -1005.732874589984       682.6273132490001                       0      -107645.8365482095      -107645.8365482095        114     0.006782722576057363     0.03858122417154019
        11                   0.0011                       0      -1005.732874589984       682.6273132490001                       0      -107645.8365482095      -107645.8365482095        114     0.006782722576057363     0.03858122417154019
WARNING: Pair style restartinfo set but has no restart support (src/pair.cpp:754)
WARNING: Pair style restartinfo set but has no restart support (src/pair.cpp:754)
        11                   0.0011                       0      -1005.732874589984       721.2024047359999                       0      -107645.8365482095      -107645.8365482095        114     0.006782722576057363     0.03858122417154019
        11                   0.0011                       0      -1005.732874589984       721.2024047359999                       0      -107645.8365482095      -107645.8365482095        114     0.006782722576057363     0.03858122417154019
WARNING: Pair style restartinfo set but has no restart support (src/pair.cpp:754)
WARNING: Pair style restartinfo set but has no restart support (src/pair.cpp:754)
        12                   0.0012                       0      -1018.580330926651       727.7429681609999                       0      -107645.8365988373      -107645.8365988373        114     0.006261245812062376     0.04035580696058543
        12                   0.0012                       0      -1018.580330926651       727.7429681609999                       0      -107645.8365988373      -107645.8365988373        114     0.006261245812062376     0.04035580696058543
WARNING: Pair style restartinfo set but has no restart support (src/pair.cpp:754)
WARNING: Pair style restartinfo set but has no restart support (src/pair.cpp:754)
        12                   0.0012                       0      -1018.580330926651       727.7908128949999                       0      -107645.8365988373      -107645.8365988373        114     0.006261245812062376     0.04035580696058543
        12                   0.0012                       0      -1018.580330926651       727.7908128949999                       0      -107645.8365988373      -107645.8365988373        114     0.006261245812062376     0.04035580696058543
WARNING: Pair style restartinfo set but has no restart support (src/pair.cpp:754)
WARNING: Pair style restartinfo set but has no restart support (src/pair.cpp:754)
        12                   0.0012                       0      -1018.580330926651       746.7523828769999                       0      -107645.8365988373      -107645.8365988373        114     0.006261245812062376     0.04035580696058543
        12                   0.0012                       0      -1018.580330926651       746.7523828769999                       0      -107645.8365988373      -107645.8365988373        114     0.006261245812062376     0.04035580696058543
WARNING: Pair style restartinfo set but has no restart support (src/pair.cpp:754)
WARNING: Pair style restartinfo set but has no restart support (src/pair.cpp:754)
        13                   0.0013                       0      -1020.848156757125       790.5160293289999                       0      -107645.8366696999      -107645.8366696999        114      0.00419330053087227      0.0246120351237621
        13                   0.0013                       0      -1020.848156757125       790.5160293289999                       0      -107645.8366696999      -107645.8366696999        114      0.00419330053087227      0.0246120351237621
WARNING: Pair style restartinfo set but has no restart support (src/pair.cpp:754)
WARNING: Pair style restartinfo set but has no restart support (src/pair.cpp:754)
        13                   0.0013                       0      -1020.848156757125       790.5176015219999                       0      -107645.8366696999      -107645.8366696999        114      0.00419330053087227      0.0246120351237621
        13                   0.0013                       0      -1020.848156757125       790.5176015219999                       0      -107645.8366696999      -107645.8366696999        114      0.00419330053087227      0.0246120351237621
WARNING: Pair style restartinfo set but has no restart support (src/pair.cpp:754)
WARNING: Pair style restartinfo set but has no restart support (src/pair.cpp:754)
        12                   0.0012                       0      -1018.580330926651           789.051157207                       0      -107645.8365988373      -107645.8365988373        114     0.006261245812062376     0.04035580696058543
        12                   0.0012                       0      -1018.580330926651           789.051157207                       0      -107645.8365988373      -107645.8365988373        114     0.006261245812062376     0.04035580696058543
WARNING: Pair style restartinfo set but has no restart support (src/pair.cpp:754)
WARNING: Pair style restartinfo set but has no restart support (src/pair.cpp:754)
        13                   0.0013                       0      -1020.848156757125           810.789387688                       0      -107645.8366696999      -107645.8366696999        114      0.00419330053087227      0.0246120351237621
        13                   0.0013                       0      -1020.848156757125           810.789387688                       0      -107645.8366696999      -107645.8366696999        114      0.00419330053087227      0.0246120351237621
WARNING: Pair style restartinfo set but has no restart support (src/pair.cpp:754)
WARNING: Pair style restartinfo set but has no restart support (src/pair.cpp:754)
        14                   0.0014                       0      -1008.580717756354           853.285206292                       0       -107645.836698027       -107645.836698027        114     0.003650743632282804     0.02351271418090933
        14                   0.0014                       0      -1008.580717756354           853.285206292                       0       -107645.836698027       -107645.836698027        114     0.003650743632282804     0.02351271418090933
WARNING: Pair style restartinfo set but has no restart support (src/pair.cpp:754)
WARNING: Pair style restartinfo set but has no restart support (src/pair.cpp:754)
        14                   0.0014                       0      -1008.580717756354           853.363535508                       0       -107645.836698027       -107645.836698027        114     0.003650743632282804     0.02351271418090933
        14                   0.0014                       0      -1008.580717756354           853.363535508                       0       -107645.836698027       -107645.836698027        114     0.003650743632282804     0.02351271418090933
WARNING: Pair style restartinfo set but has no restart support (src/pair.cpp:754)
WARNING: Pair style restartinfo set but has no restart support (src/pair.cpp:754)
        13                   0.0013                       0      -1020.848156757125       855.8202922639999                       0      -107645.8366696999      -107645.8366696999        114      0.00419330053087227      0.0246120351237621
        13                   0.0013                       0      -1020.848156757125       855.8202922639999                       0      -107645.8366696999      -107645.8366696999        114      0.00419330053087227      0.0246120351237621
WARNING: Pair style restartinfo set but has no restart support (src/pair.cpp:754)
WARNING: Pair style restartinfo set but has no restart support (src/pair.cpp:754)
        14                   0.0014                       0      -1008.580717756354       874.4702877550001                       0       -107645.836698027       -107645.836698027        114     0.003650743632282804     0.02351271418090933
        14                   0.0014                       0      -1008.580717756354       874.4702877550001                       0       -107645.836698027       -107645.836698027        114     0.003650743632282804     0.02351271418090933
WARNING: Pair style restartinfo set but has no restart support (src/pair.cpp:754)
WARNING: Pair style restartinfo set but has no restart support (src/pair.cpp:754)
        15                   0.0015                       0      -1014.815326356934       916.2323433609999                       0      -107645.8367472366      -107645.8367472366        114     0.009388799520451088     0.04587994713517185
        15                   0.0015                       0      -1014.815326356934       916.2323433609999                       0      -107645.8367472366      -107645.8367472366        114     0.009388799520451088     0.04587994713517185
WARNING: Pair style restartinfo set but has no restart support (src/pair.cpp:754)
WARNING: Pair style restartinfo set but has no restart support (src/pair.cpp:754)
        15                   0.0015                       0      -1014.815326356934           916.302745073                       0      -107645.8367472366      -107645.8367472366        114     0.009388799520451088     0.04587994713517185
        15                   0.0015                       0      -1014.815326356934           916.302745073                       0      -107645.8367472366      -107645.8367472366        114     0.009388799520451088     0.04587994713517185
WARNING: Pair style restartinfo set but has no restart support (src/pair.cpp:754)
WARNING: Pair style restartinfo set but has no restart support (src/pair.cpp:754)
        14                   0.0014                       0      -1008.580717756354           923.059649768                       0       -107645.836698027       -107645.836698027        114     0.003650743632282804     0.02351271418090933
        14                   0.0014                       0      -1008.580717756354           923.059649768                       0       -107645.836698027       -107645.836698027        114     0.003650743632282804     0.02351271418090933
WARNING: Pair style restartinfo set but has no restart support (src/pair.cpp:754)
WARNING: Pair style restartinfo set but has no restart support (src/pair.cpp:754)
        15                   0.0015                       0      -1014.815326356934       938.1252802859999                       0      -107645.8367472366      -107645.8367472366        114     0.009388799520451088     0.04587994713517185
        15                   0.0015                       0      -1014.815326356934       938.1252802859999                       0      -107645.8367472366      -107645.8367472366        114     0.009388799520451088     0.04587994713517185
WARNING: Pair style restartinfo set but has no restart support (src/pair.cpp:754)
WARNING: Pair style restartinfo set but has no restart support (src/pair.cpp:754)
        16                   0.0016                       0      -1058.275742908986       978.8300816269999                       0      -107645.8368870541      -107645.8368870541        114     0.009114903811003244     0.06327659552036813
        16                   0.0016                       0      -1058.275742908986       978.8300816269999                       0      -107645.8368870541      -107645.8368870541        114     0.009114903811003244     0.06327659552036813
WARNING: Pair style restartinfo set but has no restart support (src/pair.cpp:754)
WARNING: Pair style restartinfo set but has no restart support (src/pair.cpp:754)
        16                   0.0016                       0      -1058.275742908986           978.795311458                       0      -107645.8368870541      -107645.8368870541        114     0.009114903811003244     0.06327659552036813
        16                   0.0016                       0      -1058.275742908986           978.795311458                       0      -107645.8368870541      -107645.8368870541        114     0.009114903811003244     0.06327659552036813
WARNING: Pair style restartinfo set but has no restart support (src/pair.cpp:754)
WARNING: Pair style restartinfo set but has no restart support (src/pair.cpp:754)
        15                   0.0015                       0      -1014.815326356934       991.3383940909999                       0      -107645.8367472366      -107645.8367472366        114     0.009388799520451088     0.04587994713517185
        15                   0.0015                       0      -1014.815326356934       991.3383940909999                       0      -107645.8367472366      -107645.8367472366        114     0.009388799520451088     0.04587994713517185
WARNING: Pair style restartinfo set but has no restart support (src/pair.cpp:754)
WARNING: Pair style restartinfo set but has no restart support (src/pair.cpp:754)
        16                   0.0016                       0      -1058.275742908986          1001.997995801                       0      -107645.8368870541      -107645.8368870541        114     0.009114903811003244     0.06327659552036813
        16                   0.0016                       0      -1058.275742908986          1001.997995801                       0      -107645.8368870541      -107645.8368870541        114     0.009114903811003244     0.06327659552036813
WARNING: Pair style restartinfo set but has no restart support (src/pair.cpp:754)
WARNING: Pair style restartinfo set but has no restart support (src/pair.cpp:754)
        17                   0.0017                       0      -1085.605771574565          1041.162348848                       0      -107645.8370079237      -107645.8370079237        114       0.0084917504997786     0.04985501232382989
        17                   0.0017                       0      -1085.605771574565          1041.162348848                       0      -107645.8370079237      -107645.8370079237        114       0.0084917504997786     0.04985501232382989
WARNING: Pair style restartinfo set but has no restart support (src/pair.cpp:754)
WARNING: Pair style restartinfo set but has no restart support (src/pair.cpp:754)
        17                   0.0017                       0      -1085.605771574565          1041.300785071                       0      -107645.8370079237      -107645.8370079237        114       0.0084917504997786     0.04985501232382989
        17                   0.0017                       0      -1085.605771574565          1041.300785071                       0      -107645.8370079237      -107645.8370079237        114       0.0084917504997786     0.04985501232382989
WARNING: Pair style restartinfo set but has no restart support (src/pair.cpp:754)
WARNING: Pair style restartinfo set but has no restart support (src/pair.cpp:754)
        16                   0.0016                       0      -1058.275742908986          1058.331799939                       0      -107645.8368870541      -107645.8368870541        114     0.009114903811003244     0.06327659552036813
        16                   0.0016                       0      -1058.275742908986          1058.331799939                       0      -107645.8368870541      -107645.8368870541        114     0.009114903811003244     0.06327659552036813
WARNING: Pair style restartinfo set but has no restart support (src/pair.cpp:754)
WARNING: Pair style restartinfo set but has no restart support (src/pair.cpp:754)
        17                   0.0017                       0      -1085.605771574565          1065.776416336                       0      -107645.8370079237      -107645.8370079237        114       0.0084917504997786     0.04985501232382989
        17                   0.0017                       0      -1085.605771574565          1065.776416336                       0      -107645.8370079237      -107645.8370079237        114       0.0084917504997786     0.04985501232382989
WARNING: Pair style restartinfo set but has no restart support (src/pair.cpp:754)
WARNING: Pair style restartinfo set but has no restart support (src/pair.cpp:754)
        18                   0.0018                       0      -1084.548196912763          1103.765193113                       0      -107645.8370798105      -107645.8370798105        114     0.007221850214108435     0.02298530027050168
        18                   0.0018                       0      -1084.548196912763          1103.765193113                       0      -107645.8370798105      -107645.8370798105        114     0.007221850214108435     0.02298530027050168
WARNING: Pair style restartinfo set but has no restart support (src/pair.cpp:754)
WARNING: Pair style restartinfo set but has no restart support (src/pair.cpp:754)
        18                   0.0018                       0      -1084.548196912763          1103.869982932                       0      -107645.8370798105      -107645.8370798105        114     0.007221850214108435     0.02298530027050168
        18                   0.0018                       0      -1084.548196912763          1103.869982932                       0      -107645.8370798105      -107645.8370798105        114     0.007221850214108435     0.02298530027050168
WARNING: Pair style restartinfo set but has no restart support (src/pair.cpp:754)
WARNING: Pair style restartinfo set but has no restart support (src/pair.cpp:754)
        17                   0.0017                       0      -1085.605771574565          1126.699653621                       0      -107645.8370079237      -107645.8370079237        114       0.0084917504997786     0.04985501232382989
        17                   0.0017                       0      -1085.605771574565          1126.699653621                       0      -107645.8370079237      -107645.8370079237        114       0.0084917504997786     0.04985501232382989
WARNING: Pair style restartinfo set but has no restart support (src/pair.cpp:754)
WARNING: Pair style restartinfo set but has no restart support (src/pair.cpp:754)
        18                   0.0018                       0      -1084.548196912763          1130.361165751                       0      -107645.8370798105      -107645.8370798105        114     0.007221850214108435     0.02298530027050168
        18                   0.0018                       0      -1084.548196912763          1130.361165751                       0      -107645.8370798105      -107645.8370798105        114     0.007221850214108435     0.02298530027050168
WARNING: Pair style restartinfo set but has no restart support (src/pair.cpp:754)
WARNING: Pair style restartinfo set but has no restart support (src/pair.cpp:754)
        19                   0.0019                       0      -1083.591463100843          1166.493885702                       0      -107645.8370885054      -107645.8370885054        114     0.001330511415744023     0.00808083844956361
        19                   0.0019                       0      -1083.591463100843          1166.493885702                       0      -107645.8370885054      -107645.8370885054        114     0.001330511415744023     0.00808083844956361
WARNING: Pair style restartinfo set but has no restart support (src/pair.cpp:754)
WARNING: Pair style restartinfo set but has no restart support (src/pair.cpp:754)
        19                   0.0019                       0      -1083.591463100843           1166.61149439                       0      -107645.8370885054      -107645.8370885054        114     0.001330511415744023     0.00808083844956361
        19                   0.0019                       0      -1083.591463100843           1166.61149439                       0      -107645.8370885054      -107645.8370885054        114     0.001330511415744023     0.00808083844956361
WARNING: Pair style restartinfo set but has no restart support (src/pair.cpp:754)
WARNING: Pair style restartinfo set but has no restart support (src/pair.cpp:754)
        19                   0.0019                       0      -1083.591463100843          1195.148084438                       0      -107645.8370885054      -107645.8370885054        114     0.001330511415744023     0.00808083844956361
        19                   0.0019                       0      -1083.591463100843          1195.148084438                       0      -107645.8370885054      -107645.8370885054        114     0.001330511415744023     0.00808083844956361
WARNING: Pair style restartinfo set but has no restart support (src/pair.cpp:754)
WARNING: Pair style restartinfo set but has no restart support (src/pair.cpp:754)
        18                   0.0018                       0      -1084.548196912763          1194.347638152                       0      -107645.8370798105      -107645.8370798105        114     0.007221850214108435     0.02298530027050168
        18                   0.0018                       0      -1084.548196912763          1194.347638152                       0      -107645.8370798105      -107645.8370798105        114     0.007221850214108435     0.02298530027050168
WARNING: Pair style restartinfo set but has no restart support (src/pair.cpp:754)
WARNING: Pair style restartinfo set but has no restart support (src/pair.cpp:754)
        20                    0.002                       0      -1084.840104111937          1229.441972055                       0      -107645.8370913067      -107645.8370913067        114     0.001044755966397653    0.006540706599222897
        20                    0.002                       0      -1084.840104111937          1229.441972055                       0      -107645.8370913067      -107645.8370913067        114     0.001044755966397653    0.006540706599222897
WARNING: Pair style restartinfo set but has no restart support (src/pair.cpp:754)
WARNING: Pair style restartinfo set but has no restart support (src/pair.cpp:754)
        20                    0.002                       0      -1084.840104111937           1229.53900835                       0      -107645.8370913067      -107645.8370913067        114     0.001044755966397653    0.006540706599222897
        20                    0.002                       0      -1084.840104111937           1229.53900835                       0      -107645.8370913067      -107645.8370913067        114     0.001044755966397653    0.006540706599222897
WARNING: Pair style restartinfo set but has no restart support (src/pair.cpp:754)
WARNING: Pair style restartinfo set but has no restart support (src/pair.cpp:754)
        20                    0.002                       0      -1084.840104111937           1259.96880689                       0      -107645.8370913067      -107645.8370913067        114     0.001044755966397653    0.006540706599222897
        20                    0.002                       0      -1084.840104111937           1259.96880689                       0      -107645.8370913067      -107645.8370913067        114     0.001044755966397653    0.006540706599222897
WARNING: Pair style restartinfo set but has no restart support (src/pair.cpp:754)
WARNING: Pair style restartinfo set but has no restart support (src/pair.cpp:754)
        19                   0.0019                       0      -1083.591463100843          1262.775993716                       0      -107645.8370885054      -107645.8370885054        114     0.001330511415744023     0.00808083844956361
        19                   0.0019                       0      -1083.591463100843          1262.775993716                       0      -107645.8370885054      -107645.8370885054        114     0.001330511415744023     0.00808083844956361
WARNING: Pair style restartinfo set but has no restart support (src/pair.cpp:754)
WARNING: Pair style restartinfo set but has no restart support (src/pair.cpp:754)
        21                   0.0021                       0      -1085.456300759288          1292.325486586                       0      -107645.8370927778      -107645.8370927778        114    0.0007242658570689731    0.003990530605131618
        21                   0.0021                       0      -1085.456300759288          1292.325486586                       0      -107645.8370927778      -107645.8370927778        114    0.0007242658570689731    0.003990530605131618
WARNING: Pair style restartinfo set but has no restart support (src/pair.cpp:754)
WARNING: Pair style restartinfo set but has no restart support (src/pair.cpp:754)
        21                   0.0021                       0      -1085.456300759288          1292.472629463                       0      -107645.8370927778      -107645.8370927778        114    0.0007242658570689731    0.003990530605131618
        21                   0.0021                       0      -1085.456300759288          1292.472629463                       0      -107645.8370927778      -107645.8370927778        114    0.0007242658570689731    0.003990530605131618
WARNING: Pair style restartinfo set but has no restart support (src/pair.cpp:754)
WARNING: Pair style restartinfo set but has no restart support (src/pair.cpp:754)
        21                   0.0021                       0      -1085.456300759288          1324.447066177                       0      -107645.8370927778      -107645.8370927778        114    0.0007242658570689731    0.003990530605131618
        21                   0.0021                       0      -1085.456300759288          1324.447066177                       0      -107645.8370927778      -107645.8370927778        114    0.0007242658570689731    0.003990530605131618
WARNING: Pair style restartinfo set but has no restart support (src/pair.cpp:754)
WARNING: Pair style restartinfo set but has no restart support (src/pair.cpp:754)
        20                    0.002                       0      -1084.840104111937          1330.976897254                       0      -107645.8370913067      -107645.8370913067        114     0.001044755966397653    0.006540706599222897
        20                    0.002                       0      -1084.840104111937          1330.976897254                       0      -107645.8370913067      -107645.8370913067        114     0.001044755966397653    0.006540706599222897
WARNING: Pair style restartinfo set but has no restart support (src/pair.cpp:754)
WARNING: Pair style restartinfo set but has no restart support (src/pair.cpp:754)
        22                   0.0022                       0       -1085.05994306233          1355.129962275                       0      -107645.8370932771      -107645.8370932771        114    0.0006808702309638835    0.003210085343088026
        22                   0.0022                       0       -1085.05994306233          1355.129962275                       0      -107645.8370932771      -107645.8370932771        114    0.0006808702309638835    0.003210085343088026
WARNING: Pair style restartinfo set but has no restart support (src/pair.cpp:754)
WARNING: Pair style restartinfo set but has no restart support (src/pair.cpp:754)
        22                   0.0022                       0       -1085.05994306233          1355.225434065                       0      -107645.8370932771      -107645.8370932771        114    0.0006808702309638835    0.003210085343088026
        22                   0.0022                       0       -1085.05994306233          1355.225434065                       0      -107645.8370932771      -107645.8370932771        114    0.0006808702309638835    0.003210085343088026
WARNING: Pair style restartinfo set but has no restart support (src/pair.cpp:754)
WARNING: Pair style restartinfo set but has no restart support (src/pair.cpp:754)
        22                   0.0022                       0       -1085.05994306233          1388.681222676                       0      -107645.8370932771      -107645.8370932771        114    0.0006808702309638835    0.003210085343088026
        22                   0.0022                       0       -1085.05994306233          1388.681222676                       0      -107645.8370932771      -107645.8370932771        114    0.0006808702309638835    0.003210085343088026
WARNING: Pair style restartinfo set but has no restart support (src/pair.cpp:754)
WARNING: Pair style restartinfo set but has no restart support (src/pair.cpp:754)
        21                   0.0021                       0      -1085.456300759288           1398.62380543                       0      -107645.8370927778      -107645.8370927778        114    0.0007242658570689731    0.003990530605131618
        21                   0.0021                       0      -1085.456300759288           1398.62380543                       0      -107645.8370927778      -107645.8370927778        114    0.0007242658570689731    0.003990530605131618
WARNING: Pair style restartinfo set but has no restart support (src/pair.cpp:754)
WARNING: Pair style restartinfo set but has no restart support (src/pair.cpp:754)
        23                   0.0023                       0      -1084.735530555717          1417.770308947                       0      -107645.8370935963      -107645.8370935963        114    0.0005735436420171205    0.003008950263925405
        23                   0.0023                       0      -1084.735530555717          1417.770308947                       0      -107645.8370935963      -107645.8370935963        114    0.0005735436420171205    0.003008950263925405
WARNING: Pair style restartinfo set but has no restart support (src/pair.cpp:754)
WARNING: Pair style restartinfo set but has no restart support (src/pair.cpp:754)
        23                   0.0023                       0      -1084.735530555717          1417.984130311                       0      -107645.8370935963      -107645.8370935963        114    0.0005735436420171205    0.003008950263925405
        23                   0.0023                       0      -1084.735530555717          1417.984130311                       0      -107645.8370935963      -107645.8370935963        114    0.0005735436420171205    0.003008950263925405
WARNING: Pair style restartinfo set but has no restart support (src/pair.cpp:754)
WARNING: Pair style restartinfo set but has no restart support (src/pair.cpp:754)
        23                   0.0023                       0      -1084.735530555717          1452.346884148                       0      -107645.8370935963      -107645.8370935963        114    0.0005735436420171205    0.003008950263925405
        23                   0.0023                       0      -1084.735530555717          1452.346884148                       0      -107645.8370935963      -107645.8370935963        114    0.0005735436420171205    0.003008950263925405
WARNING: Pair style restartinfo set but has no restart support (src/pair.cpp:754)
WARNING: Pair style restartinfo set but has no restart support (src/pair.cpp:754)
        22                   0.0022                       0       -1085.05994306233          1465.777877113                       0      -107645.8370932771      -107645.8370932771        114    0.0006808702309638835    0.003210085343088026
        22                   0.0022                       0       -1085.05994306233          1465.777877113                       0      -107645.8370932771      -107645.8370932771        114    0.0006808702309638835    0.003210085343088026
WARNING: Pair style restartinfo set but has no restart support (src/pair.cpp:754)
WARNING: Pair style restartinfo set but has no restart support (src/pair.cpp:754)
        24                   0.0024                       0       -1084.87461917044          1480.560478248                       0      -107645.8370940393      -107645.8370940393        114    0.0005553124941163481    0.002564684381055561
        24                   0.0024                       0       -1084.87461917044          1480.560478248                       0      -107645.8370940393      -107645.8370940393        114    0.0005553124941163481    0.002564684381055561
WARNING: Pair style restartinfo set but has no restart support (src/pair.cpp:754)
WARNING: Pair style restartinfo set but has no restart support (src/pair.cpp:754)
        24                   0.0024                       0       -1084.87461917044          1480.607860061                       0      -107645.8370940393      -107645.8370940393        114    0.0005553124941163481    0.002564684381055561
        24                   0.0024                       0       -1084.87461917044          1480.607860061                       0      -107645.8370940393      -107645.8370940393        114    0.0005553124941163481    0.002564684381055561
WARNING: Pair style restartinfo set but has no restart support (src/pair.cpp:754)
WARNING: Pair style restartinfo set but has no restart support (src/pair.cpp:754)
        24                   0.0024                       0       -1084.87461917044          1516.021391206                       0      -107645.8370940393      -107645.8370940393        114    0.0005553124941163481    0.002564684381055561
        24                   0.0024                       0       -1084.87461917044          1516.021391206                       0      -107645.8370940393      -107645.8370940393        114    0.0005553124941163481    0.002564684381055561
WARNING: Pair style restartinfo set but has no restart support (src/pair.cpp:754)
WARNING: Pair style restartinfo set but has no restart support (src/pair.cpp:754)
        23                   0.0023                       0      -1084.735530555717          1533.027286852                       0      -107645.8370935963      -107645.8370935963        114    0.0005735436420171205    0.003008950263925405
        23                   0.0023                       0      -1084.735530555717          1533.027286852                       0      -107645.8370935963      -107645.8370935963        114    0.0005735436420171205    0.003008950263925405
WARNING: Pair style restartinfo set but has no restart support (src/pair.cpp:754)
WARNING: Pair style restartinfo set but has no restart support (src/pair.cpp:754)
        25                   0.0025                       0      -1085.191708730784          1543.251393283                       0      -107645.8370942315      -107645.8370942315        114    0.0005036810710562003    0.001964456777196763
        25                   0.0025                       0      -1085.191708730784          1543.251393283                       0      -107645.8370942315      -107645.8370942315        114    0.0005036810710562003    0.001964456777196763
WARNING: Pair style restartinfo set but has no restart support (src/pair.cpp:754)
WARNING: Pair style restartinfo set but has no restart support (src/pair.cpp:754)
        25                   0.0025                       0      -1085.191708730784          1543.348079231                       0      -107645.8370942315      -107645.8370942315        114    0.0005036810710562003    0.001964456777196763
        25                   0.0025                       0      -1085.191708730784          1543.348079231                       0      -107645.8370942315      -107645.8370942315        114    0.0005036810710562003    0.001964456777196763
WARNING: Pair style restartinfo set but has no restart support (src/pair.cpp:754)
WARNING: Pair style restartinfo set but has no restart support (src/pair.cpp:754)
        25                   0.0025                       0      -1085.191708730784          1580.055328196                       0      -107645.8370942315      -107645.8370942315        114    0.0005036810710562003    0.001964456777196763
        25                   0.0025                       0      -1085.191708730784          1580.055328196                       0      -107645.8370942315      -107645.8370942315        114    0.0005036810710562003    0.001964456777196763
WARNING: Pair style restartinfo set but has no restart support (src/pair.cpp:754)
WARNING: Pair style restartinfo set but has no restart support (src/pair.cpp:754)
        26                   0.0026                       0      -1085.336256985763          1605.905355708                       0      -107645.8370943805      -107645.8370943805        114    0.0002362404286703171    0.001152891177402464
        26                   0.0026                       0      -1085.336256985763          1605.905355708                       0      -107645.8370943805      -107645.8370943805        114    0.0002362404286703171    0.001152891177402464
WARNING: Pair style restartinfo set but has no restart support (src/pair.cpp:754)
WARNING: Pair style restartinfo set but has no restart support (src/pair.cpp:754)
        24                   0.0024                       0       -1084.87461917044           1601.18214253                       0      -107645.8370940393      -107645.8370940393        114    0.0005553124941163481    0.002564684381055561
        24                   0.0024                       0       -1084.87461917044           1601.18214253                       0      -107645.8370940393      -107645.8370940393        114    0.0005553124941163481    0.002564684381055561
WARNING: Pair style restartinfo set but has no restart support (src/pair.cpp:754)
WARNING: Pair style restartinfo set but has no restart support (src/pair.cpp:754)
        26                   0.0026                       0      -1085.336256985763          1606.028123183                       0      -107645.8370943805      -107645.8370943805        114    0.0002362404286703171    0.001152891177402464
        26                   0.0026                       0      -1085.336256985763          1606.028123183                       0      -107645.8370943805      -107645.8370943805        114    0.0002362404286703171    0.001152891177402464
WARNING: Pair style restartinfo set but has no restart support (src/pair.cpp:754)
WARNING: Pair style restartinfo set but has no restart support (src/pair.cpp:754)
        26                   0.0026                       0      -1085.336256985763          1644.000495812                       0      -107645.8370943805      -107645.8370943805        114    0.0002362404286703171    0.001152891177402464
        26                   0.0026                       0      -1085.336256985763          1644.000495812                       0      -107645.8370943805      -107645.8370943805        114    0.0002362404286703171    0.001152891177402464
WARNING: Pair style restartinfo set but has no restart support (src/pair.cpp:754)
WARNING: Pair style restartinfo set but has no restart support (src/pair.cpp:754)
        25                   0.0025                       0      -1085.191708730784          1668.345029077                       0      -107645.8370942315      -107645.8370942315        114    0.0005036810710562003    0.001964456777196763
        25                   0.0025                       0      -1085.191708730784          1668.345029077                       0      -107645.8370942315      -107645.8370942315        114    0.0005036810710562003    0.001964456777196763
WARNING: Pair style restartinfo set but has no restart support (src/pair.cpp:754)
WARNING: Pair style restartinfo set but has no restart support (src/pair.cpp:754)
        27                   0.0027                       0      -1085.148039324465          1700.066152836                       0      -107645.8370944196      -107645.8370944196        114    0.0001399226055049722   0.0007951930517258552
        27                   0.0027                       0      -1085.148039324465          1700.066152836                       0      -107645.8370944196      -107645.8370944196        114    0.0001399226055049722   0.0007951930517258552
Loop time of 1700.07 on 12 procs for 27 steps with 114 atoms

Loop time of 1700.07 on 12 procs for 27 steps with 114 atoms

674.0% CPU use with 1 MPI tasks x 12 OpenMP threads
674.0% CPU use with 1 MPI tasks x 12 OpenMP threads

Minimization stats:
  Stopping criterion = force tolerance
  Energy initial, next-to-last, final = 
     -107625.418723355  -107645.837094381   -107645.83709442
  Force two-norm initial, final = 31.997769 0.00079519305
  Force max component initial, final = 4.4802828 0.00013992261
  Final line search alpha, max atom move = 1 0.00013992261
  Iterations, force evaluations = 27 53

Minimization stats:
  Stopping criterion = force tolerance
  Energy initial, next-to-last, final = 
     -107625.418723355  -107645.837094381   -107645.83709442
  Force two-norm initial, final = 31.997769 0.00079519305
  Force max component initial, final = 4.4802828 0.00013992261
  Final line search alpha, max atom move = 1 0.00013992261
  Iterations, force evaluations = 27 53

MPI task timing breakdown:
Section |  min time  |  avg time  |  max time  |%varavg| %total
---------------------------------------------------------------

MPI task timing breakdown:
Section |  min time  |  avg time  |  max time  |%varavg| %total
---------------------------------------------------------------
Pair    | 1698.8     | 1698.8     | 1698.8     |   0.0 | 99.93
Pair    | 1698.8     | 1698.8     | 1698.8     |   0.0 | 99.93
Neigh   | 1.1277     | 1.1277     | 1.1277     |   0.0 |  0.07
Neigh   | 1.1277     | 1.1277     | 1.1277     |   0.0 |  0.07
Comm    | 0.0043092  | 0.0043092  | 0.0043092  |   0.0 |  0.00
Comm    | 0.0043092  | 0.0043092  | 0.0043092  |   0.0 |  0.00
Output  | 0.10247    | 0.10247    | 0.10247    |   0.0 |  0.01
Output  | 0.10247    | 0.10247    | 0.10247    |   0.0 |  0.01
Modify  | 0          | 0          | 0          |   0.0 |  0.00
Modify  | 0          | 0          | 0          |   0.0 |  0.00
Other   |            | 0.01182    |            |       |  0.00
Other   |            | 0.01182    |            |       |  0.00

Nlocal:            114 ave         114 max         114 min
Histogram: 1 0 0 0 0 0 0 0 0 0
Nghost:           3526 ave        3526 max        3526 min
Histogram: 1 0 0 0 0 0 0 0 0 0
Neighs:              0 ave           0 max           0 min
Histogram: 1 0 0 0 0 0 0 0 0 0
FullNghs:        73166 ave       73166 max       73166 min
Histogram: 1 0 0 0 0 0 0 0 0 0

Nlocal:            114 ave         114 max         114 min
Histogram: 1 0 0 0 0 0 0 0 0 0
Nghost:           3526 ave        3526 max        3526 min
Histogram: 1 0 0 0 0 0 0 0 0 0
Neighs:              0 ave           0 max           0 min
Histogram: 1 0 0 0 0 0 0 0 0 0
FullNghs:        73166 ave       73166 max       73166 min
Histogram: 1 0 0 0 0 0 0 0 0 0


Total # of neighbors = 73166
Ave neighs/atom = 641.80702
Neighbor list builds = 54
Dangerous builds = 0
Total # of neighbors = 73166
Ave neighs/atom = 641.80702
Neighbor list builds = 54
Dangerous builds = 0
write_dump all xyz /home/theory/phrrpq/bilayer_relaxations/WS2_WS2/AP/2/WS2_WS2_AP_2.xyz modify sort id pbc yes element W S

Total wall time: 0:29:21
Total wall time: 0:29:21
WARNING: Pair style restartinfo set but has no restart support (src/pair.cpp:754)
WARNING: Pair style restartinfo set but has no restart support (src/pair.cpp:754)
        27                   0.0027                       0      -1085.148039324465          1700.191489797                       0      -107645.8370944196      -107645.8370944196        114    0.0001399226055049722   0.0007951930517258552
        27                   0.0027                       0      -1085.148039324465          1700.191489797                       0      -107645.8370944196      -107645.8370944196        114    0.0001399226055049722   0.0007951930517258552
Loop time of 1700.19 on 12 procs for 27 steps with 114 atoms

Loop time of 1700.19 on 12 procs for 27 steps with 114 atoms

671.6% CPU use with 1 MPI tasks x 12 OpenMP threads
671.6% CPU use with 1 MPI tasks x 12 OpenMP threads

Minimization stats:
  Stopping criterion = force tolerance
  Energy initial, next-to-last, final = 
     -107625.418723355  -107645.837094381   -107645.83709442
  Force two-norm initial, final = 31.997769 0.00079519305
  Force max component initial, final = 4.4802828 0.00013992261
  Final line search alpha, max atom move = 1 0.00013992261
  Iterations, force evaluations = 27 53

Minimization stats:
  Stopping criterion = force tolerance
  Energy initial, next-to-last, final = 
     -107625.418723355  -107645.837094381   -107645.83709442
  Force two-norm initial, final = 31.997769 0.00079519305
  Force max component initial, final = 4.4802828 0.00013992261
  Final line search alpha, max atom move = 1 0.00013992261
  Iterations, force evaluations = 27 53

MPI task timing breakdown:
Section |  min time  |  avg time  |  max time  |%varavg| %total
---------------------------------------------------------------

MPI task timing breakdown:
Section |  min time  |  avg time  |  max time  |%varavg| %total
---------------------------------------------------------------
Pair    | 1698.9     | 1698.9     | 1698.9     |   0.0 | 99.92
Pair    | 1698.9     | 1698.9     | 1698.9     |   0.0 | 99.92
Neigh   | 1.1331     | 1.1331     | 1.1331     |   0.0 |  0.07
Neigh   | 1.1331     | 1.1331     | 1.1331     |   0.0 |  0.07
Comm    | 0.0048036  | 0.0048036  | 0.0048036  |   0.0 |  0.00
Comm    | 0.0048036  | 0.0048036  | 0.0048036  |   0.0 |  0.00
Output  | 0.12116    | 0.12116    | 0.12116    |   0.0 |  0.01
Output  | 0.12116    | 0.12116    | 0.12116    |   0.0 |  0.01
Modify  | 0          | 0          | 0          |   0.0 |  0.00
Modify  | 0          | 0          | 0          |   0.0 |  0.00
Other   |            | 0.01991    |            |       |  0.00
Other   |            | 0.01991    |            |       |  0.00

Nlocal:            114 ave         114 max         114 min
Histogram: 1 0 0 0 0 0 0 0 0 0
Nghost:           3526 ave        3526 max        3526 min
Histogram: 1 0 0 0 0 0 0 0 0 0
Neighs:              0 ave           0 max           0 min
Histogram: 1 0 0 0 0 0 0 0 0 0
FullNghs:        73166 ave       73166 max       73166 min
Histogram: 1 0 0 0 0 0 0 0 0 0

Nlocal:            114 ave         114 max         114 min
Histogram: 1 0 0 0 0 0 0 0 0 0
Nghost:           3526 ave        3526 max        3526 min
Histogram: 1 0 0 0 0 0 0 0 0 0
Neighs:              0 ave           0 max           0 min
Histogram: 1 0 0 0 0 0 0 0 0 0
FullNghs:        73166 ave       73166 max       73166 min
Histogram: 1 0 0 0 0 0 0 0 0 0


Total # of neighbors = 73166
Ave neighs/atom = 641.80702
Neighbor list builds = 54
Dangerous builds = 0
Total # of neighbors = 73166
Ave neighs/atom = 641.80702
Neighbor list builds = 54
Dangerous builds = 0
write_dump all xyz /home/theory/phrrpq/bilayer_relaxations/WS2_WS2/AP/2/WS2_WS2_AP_2.xyz modify sort id pbc yes element W S

Total wall time: 0:29:21
Total wall time: 0:29:21
WARNING: Pair style restartinfo set but has no restart support (src/pair.cpp:754)
WARNING: Pair style restartinfo set but has no restart support (src/pair.cpp:754)
        26                   0.0026                       0      -1085.336256985763          1736.455662535                       0      -107645.8370943805      -107645.8370943805        114    0.0002362404286703171    0.001152891177402464
        26                   0.0026                       0      -1085.336256985763          1736.455662535                       0      -107645.8370943805      -107645.8370943805        114    0.0002362404286703171    0.001152891177402464
WARNING: Pair style restartinfo set but has no restart support (src/pair.cpp:754)
WARNING: Pair style restartinfo set but has no restart support (src/pair.cpp:754)
        27                   0.0027                       0      -1085.148039324465          1740.221365453                       0      -107645.8370944196      -107645.8370944196        114    0.0001399226055049722   0.0007951930517258552
        27                   0.0027                       0      -1085.148039324465          1740.221365453                       0      -107645.8370944196      -107645.8370944196        114    0.0001399226055049722   0.0007951930517258552
Loop time of 1740.22 on 12 procs for 27 steps with 114 atoms

Loop time of 1740.22 on 12 procs for 27 steps with 114 atoms

672.3% CPU use with 1 MPI tasks x 12 OpenMP threads
672.3% CPU use with 1 MPI tasks x 12 OpenMP threads

Minimization stats:
  Stopping criterion = force tolerance
  Energy initial, next-to-last, final = 
     -107625.418723355  -107645.837094381   -107645.83709442
  Force two-norm initial, final = 31.997769 0.00079519305
  Force max component initial, final = 4.4802828 0.00013992261
  Final line search alpha, max atom move = 1 0.00013992261
  Iterations, force evaluations = 27 53

Minimization stats:
  Stopping criterion = force tolerance
  Energy initial, next-to-last, final = 
     -107625.418723355  -107645.837094381   -107645.83709442
  Force two-norm initial, final = 31.997769 0.00079519305
  Force max component initial, final = 4.4802828 0.00013992261
  Final line search alpha, max atom move = 1 0.00013992261
  Iterations, force evaluations = 27 53

MPI task timing breakdown:
Section |  min time  |  avg time  |  max time  |%varavg| %total
---------------------------------------------------------------

MPI task timing breakdown:
Section |  min time  |  avg time  |  max time  |%varavg| %total
---------------------------------------------------------------
Pair    | 1738.6     | 1738.6     | 1738.6     |   0.0 | 99.91
Pair    | 1738.6     | 1738.6     | 1738.6     |   0.0 | 99.91
Neigh   | 1.1288     | 1.1288     | 1.1288     |   0.0 |  0.06
Neigh   | 1.1288     | 1.1288     | 1.1288     |   0.0 |  0.06
Comm    | 0.0052866  | 0.0052866  | 0.0052866  |   0.0 |  0.00
Comm    | 0.0052866  | 0.0052866  | 0.0052866  |   0.0 |  0.00
Output  | 0.43181    | 0.43181    | 0.43181    |   0.0 |  0.02
Output  | 0.43181    | 0.43181    | 0.43181    |   0.0 |  0.02
Modify  | 0          | 0          | 0          |   0.0 |  0.00
Modify  | 0          | 0          | 0          |   0.0 |  0.00
Other   |            | 0.03488    |            |       |  0.00
Other   |            | 0.03488    |            |       |  0.00

Nlocal:            114 ave         114 max         114 min
Histogram: 1 0 0 0 0 0 0 0 0 0
Nghost:           3526 ave        3526 max        3526 min
Histogram: 1 0 0 0 0 0 0 0 0 0
Neighs:              0 ave           0 max           0 min
Histogram: 1 0 0 0 0 0 0 0 0 0
FullNghs:        73166 ave       73166 max       73166 min
Histogram: 1 0 0 0 0 0 0 0 0 0

Nlocal:            114 ave         114 max         114 min
Histogram: 1 0 0 0 0 0 0 0 0 0
Nghost:           3526 ave        3526 max        3526 min
Histogram: 1 0 0 0 0 0 0 0 0 0
Neighs:              0 ave           0 max           0 min
Histogram: 1 0 0 0 0 0 0 0 0 0
FullNghs:        73166 ave       73166 max       73166 min
Histogram: 1 0 0 0 0 0 0 0 0 0


Total # of neighbors = 73166
Ave neighs/atom = 641.80702
Neighbor list builds = 54
Dangerous builds = 0
Total # of neighbors = 73166
Ave neighs/atom = 641.80702
Neighbor list builds = 54
Dangerous builds = 0
write_dump all xyz /home/theory/phrrpq/bilayer_relaxations/WS2_WS2/AP/2/WS2_WS2_AP_2.xyz modify sort id pbc yes element W S

Total wall time: 0:30:03
Total wall time: 0:30:03
WARNING: Pair style restartinfo set but has no restart support (src/pair.cpp:754)
WARNING: Pair style restartinfo set but has no restart support (src/pair.cpp:754)
        27                   0.0027                       0      -1085.148039324465          1827.356404511                       0      -107645.8370944196      -107645.8370944196        114    0.0001399226055049722   0.0007951930517258552
        27                   0.0027                       0      -1085.148039324465          1827.356404511                       0      -107645.8370944196      -107645.8370944196        114    0.0001399226055049722   0.0007951930517258552
Loop time of 1827.36 on 12 procs for 27 steps with 114 atoms

Loop time of 1827.36 on 12 procs for 27 steps with 114 atoms

614.6% CPU use with 1 MPI tasks x 12 OpenMP threads
614.6% CPU use with 1 MPI tasks x 12 OpenMP threads

Minimization stats:
  Stopping criterion = force tolerance
  Energy initial, next-to-last, final = 
     -107625.418723355  -107645.837094381   -107645.83709442
  Force two-norm initial, final = 31.997769 0.00079519305
  Force max component initial, final = 4.4802828 0.00013992261
  Final line search alpha, max atom move = 1 0.00013992261
  Iterations, force evaluations = 27 53

Minimization stats:
  Stopping criterion = force tolerance
  Energy initial, next-to-last, final = 
     -107625.418723355  -107645.837094381   -107645.83709442
  Force two-norm initial, final = 31.997769 0.00079519305
  Force max component initial, final = 4.4802828 0.00013992261
  Final line search alpha, max atom move = 1 0.00013992261
  Iterations, force evaluations = 27 53

MPI task timing breakdown:
Section |  min time  |  avg time  |  max time  |%varavg| %total
---------------------------------------------------------------

MPI task timing breakdown:
Section |  min time  |  avg time  |  max time  |%varavg| %total
---------------------------------------------------------------
Pair    | 1826.1     | 1826.1     | 1826.1     |   0.0 | 99.93
Pair    | 1826.1     | 1826.1     | 1826.1     |   0.0 | 99.93
Neigh   | 1.1388     | 1.1388     | 1.1388     |   0.0 |  0.06
Neigh   | 1.1388     | 1.1388     | 1.1388     |   0.0 |  0.06
Comm    | 0.0050838  | 0.0050838  | 0.0050838  |   0.0 |  0.00
Comm    | 0.0050838  | 0.0050838  | 0.0050838  |   0.0 |  0.00
Output  | 0.075032   | 0.075032   | 0.075032   |   0.0 |  0.00
Output  | 0.075032   | 0.075032   | 0.075032   |   0.0 |  0.00
Modify  | 0          | 0          | 0          |   0.0 |  0.00
Modify  | 0          | 0          | 0          |   0.0 |  0.00
Other   |            | 0.03359    |            |       |  0.00
Other   |            | 0.03359    |            |       |  0.00

Nlocal:            114 ave         114 max         114 min
Histogram: 1 0 0 0 0 0 0 0 0 0
Nghost:           3526 ave        3526 max        3526 min
Histogram: 1 0 0 0 0 0 0 0 0 0
Neighs:              0 ave           0 max           0 min
Histogram: 1 0 0 0 0 0 0 0 0 0
FullNghs:        73166 ave       73166 max       73166 min
Histogram: 1 0 0 0 0 0 0 0 0 0

Nlocal:            114 ave         114 max         114 min
Histogram: 1 0 0 0 0 0 0 0 0 0
Nghost:           3526 ave        3526 max        3526 min
Histogram: 1 0 0 0 0 0 0 0 0 0
Neighs:              0 ave           0 max           0 min
Histogram: 1 0 0 0 0 0 0 0 0 0
FullNghs:        73166 ave       73166 max       73166 min
Histogram: 1 0 0 0 0 0 0 0 0 0


Total # of neighbors = 73166
Ave neighs/atom = 641.80702
Neighbor list builds = 54
Dangerous builds = 0
Total # of neighbors = 73166
Ave neighs/atom = 641.80702
Neighbor list builds = 54
Dangerous builds = 0
write_dump all xyz /home/theory/phrrpq/bilayer_relaxations/WS2_WS2/AP/2/WS2_WS2_AP_2.xyz modify sort id pbc yes element W S

Total wall time: 0:31:33
Total wall time: 0:31:33
