OMP_THREADS: 12
MPI: 1
NTASKS-PER-NODE: 4
CPUS_PER_TASK: 12
LAMMPS (28 Mar 2023 - Development)
  using 12 OpenMP thread(s) per MPI task
  using 12 OpenMP thread(s) per MPI task
Reading data file ...
  triclinic box = (0 0 0) to (85.680327 74.20134 30) with tilt (42.840164 0 0)
WARNING: Triclinic box skew is large. LAMMPS will run inefficiently. (src/domain.cpp:220)
  2 by 2 by 1 MPI processor grid
  reading atoms ...
  4326 atoms
  read_data CPU = 0.052 seconds
CUDA unavailable, setting device type to torch::kCPU.
CUDA unavailable, setting device type to torch::kCPU.
CUDA unavailable, setting device type to torch::kCPU.
CUDA unavailable, setting device type to torch::kCPU.
Loading MACE model from "/home/theory/phrrpq/bilayer_relaxations/MoWSSe_bi_radius_8_reduced_all_1_swa_800_run-123_swa.model-lammps.pt" ... finished.
Loading MACE model from "/home/theory/phrrpq/bilayer_relaxations/MoWSSe_bi_radius_8_reduced_all_1_swa_800_run-123_swa.model-lammps.pt" ... finished.
Loading MACE model from "/home/theory/phrrpq/bilayer_relaxations/MoWSSe_bi_radius_8_reduced_all_1_swa_800_run-123_swa.model-lammps.pt" ... finished.
Loading MACE model from "/home/theory/phrrpq/bilayer_relaxations/MoWSSe_bi_radius_8_reduced_all_1_swa_800_run-123_swa.model-lammps.pt" ... finished.
  - The torch_float_dtype is: Double
  - The torch_float_dtype is: Double
  - The torch_float_dtype is: Double
  - The r_max is: 8.
  - The torch_float_dtype is: Double
  - The model has: 2 layers.
  - The r_max is: 8.
  - The r_max is: 8.
  - The model has: 2 layers.
  - The model has: 2 layers.
  - The r_max is: 8.
  - The model has: 2 layers.
  - The model atomic numbers are: 16 34 42 74.
  - The pair_coeff atomic numbers are: 74 16.
  - The model atomic numbers are: 16 34 42 74.
  - The pair_coeff atomic numbers are: 74 16.
  - The model atomic numbers are: 16 34 42 74.
  - The pair_coeff atomic numbers are: 74 16.
  - The model atomic numbers are: 16 34 42 74.
  - The pair_coeff atomic numbers are: 74 16.
Generated 0 of 1 mixed pair_coeff terms from geometric mixing rule
Neighbor list info ...
  update: every = 1 steps, delay = 0 steps, check = yes
  max neighbors/atom: 2000, page size: 100000
  master list distance cutoff = 18
  ghost atom cutoff = 18
  binsize = 9, bins = 15 9 4
  1 neighbor lists, perpetual/occasional/extra = 1 0 0
  (1) pair mace, perpetual
      attributes: full, newton on, ghost
      pair build: full/bin/ghost
      stencil: full/ghost/bin/3d
      bin: standard
Setting up Verlet run ...
  Unit style    : metal
  Current step  : 0
  Time step     : 0.0001
Per MPI rank memory allocation (min/avg/max) = 30.14 | 30.14 | 30.14 Mbytes
   Step          Time           CPU           TotEng          Fmax          Fnorm     
         0                        0                       0      -4084850.669765572         1.0138055775034       38.55305530685707
Loop time of 4.2445e-06 on 48 procs for 0 steps with 4326 atoms

123.7% CPU use with 4 MPI tasks x 12 OpenMP threads

MPI task timing breakdown:
Section |  min time  |  avg time  |  max time  |%varavg| %total
---------------------------------------------------------------
Pair    | 0          | 0          | 0          |   0.0 |  0.00
Neigh   | 0          | 0          | 0          |   0.0 |  0.00
Comm    | 0          | 0          | 0          |   0.0 |  0.00
Output  | 0          | 0          | 0          |   0.0 |  0.00
Modify  | 0          | 0          | 0          |   0.0 |  0.00
Other   |            | 4.244e-06  |            |       |100.00

Nlocal:         1081.5 ave        1107 max        1058 min
Histogram: 2 0 0 0 0 0 0 0 0 2
Nghost:         7311.5 ave        7338 max        7285 min
Histogram: 2 0 0 0 0 0 0 0 0 2
Neighs:              0 ave           0 max           0 min
Histogram: 4 0 0 0 0 0 0 0 0 0
FullNghs:       694600 ave      711187 max      679267 min
Histogram: 2 0 0 0 0 0 0 0 0 2

Total # of neighbors = 2778402
Ave neighs/atom = 642.25659
Neighbor list builds = 0
Dangerous builds = 0
BEGIN LAMMPS STANDALONE MINIMIZATION; ii = 15; OMP = 12; MPI = 4
minimize 0.0 1e-3 1000 100000
Generated 0 of 1 mixed pair_coeff terms from geometric mixing rule
Generated 0 of 1 mixed pair_coeff terms from geometric mixing rule
Setting up cg style minimization ...
  Unit style    : metal
  Current step  : 0
Per MPI rank memory allocation (min/avg/max) = 31.27 | 31.27 | 31.27 Mbytes
Per MPI rank memory allocation (min/avg/max) = 31.27 | 31.27 | 31.27 Mbytes
   Step          Time           CPU           TotEng          Fmax          Fnorm     
   Step          Time           CPU           TotEng          Fmax          Fnorm     
         0                        0                       0      -4084850.669765572       1.013805577503397       38.55305530685715
         0                        0                       0      -4084850.669765572       1.013805577503397       38.55305530685715
WARNING: Pair style restartinfo set but has no restart support (src/pair.cpp:754)
WARNING: Pair style restartinfo set but has no restart support (src/pair.cpp:754)
         1                   0.0001           204.772416549      -4084875.693031063     0.08871079334772797       2.078822956686773
         1                   0.0001           204.772416549      -4084875.693031063     0.08871079334772797       2.078822956686773
WARNING: Pair style restartinfo set but has no restart support (src/pair.cpp:754)
WARNING: Pair style restartinfo set but has no restart support (src/pair.cpp:754)
         2                   0.0002       408.1058305940001      -4084875.917965694      0.1238473224525306       2.544520026168563
         2                   0.0002       408.1058305940001      -4084875.917965694      0.1238473224525306       2.544520026168563
WARNING: Pair style restartinfo set but has no restart support (src/pair.cpp:754)
WARNING: Pair style restartinfo set but has no restart support (src/pair.cpp:754)
         3                   0.0003            611.42496206      -4084876.281449491      0.1721818946348674       4.243374748842374
         3                   0.0003            611.42496206      -4084876.281449491      0.1721818946348674       4.243374748842374
WARNING: Pair style restartinfo set but has no restart support (src/pair.cpp:754)
WARNING: Pair style restartinfo set but has no restart support (src/pair.cpp:754)
         4                   0.0004       816.4228652109999      -4084877.687234163      0.1751812643458259       5.833203049853348
         4                   0.0004       816.4228652109999      -4084877.687234163      0.1751812643458259       5.833203049853348
WARNING: Pair style restartinfo set but has no restart support (src/pair.cpp:754)
WARNING: Pair style restartinfo set but has no restart support (src/pair.cpp:754)
         5                   0.0005          1020.974293192      -4084879.250133883      0.1325567548034293       5.312293637326984
         5                   0.0005          1020.974293192      -4084879.250133883      0.1325567548034293       5.312293637326984
WARNING: Pair style restartinfo set but has no restart support (src/pair.cpp:754)
WARNING: Pair style restartinfo set but has no restart support (src/pair.cpp:754)
         6    0.0006000000000000001          1226.460803337      -4084880.660636077       0.142063230193497       2.771109524228811
         6    0.0006000000000000001          1226.460803337      -4084880.660636077       0.142063230193497       2.771109524228811
WARNING: Pair style restartinfo set but has no restart support (src/pair.cpp:754)
WARNING: Pair style restartinfo set but has no restart support (src/pair.cpp:754)
         7                   0.0007          1430.465959935      -4084880.757120412     0.02613253334285698      0.9658156797806314
         7                   0.0007          1430.465959935      -4084880.757120412     0.02613253334285698      0.9658156797806314
WARNING: Pair style restartinfo set but has no restart support (src/pair.cpp:754)
WARNING: Pair style restartinfo set but has no restart support (src/pair.cpp:754)
         8                   0.0008          1635.352839286      -4084880.834889885     0.03313498820352032       1.275979841985943
         8                   0.0008          1635.352839286      -4084880.834889885     0.03313498820352032       1.275979841985943
WARNING: Pair style restartinfo set but has no restart support (src/pair.cpp:754)
WARNING: Pair style restartinfo set but has no restart support (src/pair.cpp:754)
         9    0.0009000000000000001          1841.624342024      -4084880.893875355     0.05231725906587598       1.417377919598444
         9    0.0009000000000000001          1841.624342024      -4084880.893875355     0.05231725906587598       1.417377919598444
WARNING: Pair style restartinfo set but has no restart support (src/pair.cpp:754)
WARNING: Pair style restartinfo set but has no restart support (src/pair.cpp:754)
        10                    0.001          2049.081397799       -4084880.99977294      0.0518096224965713       2.242082942353269
        10                    0.001          2049.081397799       -4084880.99977294      0.0518096224965713       2.242082942353269
WARNING: Pair style restartinfo set but has no restart support (src/pair.cpp:754)
WARNING: Pair style restartinfo set but has no restart support (src/pair.cpp:754)
        11                   0.0011          2256.540687887      -4084881.572785858       0.103265805735862       3.081121380424153
        11                   0.0011          2256.540687887      -4084881.572785858       0.103265805735862       3.081121380424153
WARNING: Pair style restartinfo set but has no restart support (src/pair.cpp:754)
WARNING: Pair style restartinfo set but has no restart support (src/pair.cpp:754)
        12                   0.0012          2462.707274597      -4084881.927310458     0.08746926133931041       2.185813390990107
        12                   0.0012          2462.707274597      -4084881.927310458     0.08746926133931041       2.185813390990107
WARNING: Pair style restartinfo set but has no restart support (src/pair.cpp:754)
WARNING: Pair style restartinfo set but has no restart support (src/pair.cpp:754)
        13                   0.0013          2669.310264753      -4084882.008792959     0.02287547345732877      0.8977839517417759
        13                   0.0013          2669.310264753      -4084882.008792959     0.02287547345732877      0.8977839517417759
WARNING: Pair style restartinfo set but has no restart support (src/pair.cpp:754)
WARNING: Pair style restartinfo set but has no restart support (src/pair.cpp:754)
        14                   0.0014          2875.925217055      -4084882.068442928     0.03510858045440608       0.868761049007317
        14                   0.0014          2875.925217055      -4084882.068442928     0.03510858045440608       0.868761049007317
WARNING: Pair style restartinfo set but has no restart support (src/pair.cpp:754)
WARNING: Pair style restartinfo set but has no restart support (src/pair.cpp:754)
        15                   0.0015          3083.368532589      -4084882.087037563     0.04948736630424269       0.862185269434291
        15                   0.0015          3083.368532589      -4084882.087037563     0.04948736630424269       0.862185269434291
WARNING: Pair style restartinfo set but has no restart support (src/pair.cpp:754)
WARNING: Pair style restartinfo set but has no restart support (src/pair.cpp:754)
        16                   0.0016          3291.266266971      -4084882.165249517     0.08464475341965244       1.806031505870426
        16                   0.0016          3291.266266971      -4084882.165249517     0.08464475341965244       1.806031505870426
WARNING: Pair style restartinfo set but has no restart support (src/pair.cpp:754)
WARNING: Pair style restartinfo set but has no restart support (src/pair.cpp:754)
        17                   0.0017          3498.274591047      -4084882.372479467     0.07819117648514265       1.609333156930278
        17                   0.0017          3498.274591047      -4084882.372479467     0.07819117648514265       1.609333156930278
WARNING: Pair style restartinfo set but has no restart support (src/pair.cpp:754)
WARNING: Pair style restartinfo set but has no restart support (src/pair.cpp:754)
        18                   0.0018          3706.019520789      -4084882.450057616      0.1078811378664111        1.63824528133693
        18                   0.0018          3706.019520789      -4084882.450057616      0.1078811378664111        1.63824528133693
WARNING: Pair style restartinfo set but has no restart support (src/pair.cpp:754)
WARNING: Pair style restartinfo set but has no restart support (src/pair.cpp:754)
        19                   0.0019           3913.30417537      -4084882.554643984     0.05571171869392647       1.005239186921249
        19                   0.0019           3913.30417537      -4084882.554643984     0.05571171869392647       1.005239186921249
WARNING: Pair style restartinfo set but has no restart support (src/pair.cpp:754)
WARNING: Pair style restartinfo set but has no restart support (src/pair.cpp:754)
        20                    0.002          4120.216662483       -4084882.58750168     0.04656647178063126      0.8017628417238364
        20                    0.002          4120.216662483       -4084882.58750168     0.04656647178063126      0.8017628417238364
WARNING: Pair style restartinfo set but has no restart support (src/pair.cpp:754)
WARNING: Pair style restartinfo set but has no restart support (src/pair.cpp:754)
        21                   0.0021          4326.730827302      -4084882.601801404     0.02413709914114627      0.6043494510737257
        21                   0.0021          4326.730827302      -4084882.601801404     0.02413709914114627      0.6043494510737257
WARNING: Pair style restartinfo set but has no restart support (src/pair.cpp:754)
WARNING: Pair style restartinfo set but has no restart support (src/pair.cpp:754)
        22                   0.0022          4533.297308803      -4084882.658374951     0.05981452842190232       1.299237635426114
        22                   0.0022          4533.297308803      -4084882.658374951     0.05981452842190232       1.299237635426114
WARNING: Pair style restartinfo set but has no restart support (src/pair.cpp:754)
WARNING: Pair style restartinfo set but has no restart support (src/pair.cpp:754)
        23                   0.0023          4740.343224243       -4084882.70625218     0.05424386531235417       1.147171906469226
        23                   0.0023          4740.343224243       -4084882.70625218     0.05424386531235417       1.147171906469226
WARNING: Pair style restartinfo set but has no restart support (src/pair.cpp:754)
WARNING: Pair style restartinfo set but has no restart support (src/pair.cpp:754)
        24                   0.0024          4947.817424563       -4084882.76624005      0.0533206018781849       1.309256129444275
        24                   0.0024          4947.817424563       -4084882.76624005      0.0533206018781849       1.309256129444275
WARNING: Pair style restartinfo set but has no restart support (src/pair.cpp:754)
WARNING: Pair style restartinfo set but has no restart support (src/pair.cpp:754)
        25                   0.0025          5155.717217601      -4084882.828203543     0.03344525742274235      0.7524929104271825
        25                   0.0025          5155.717217601      -4084882.828203543     0.03344525742274235      0.7524929104271825
WARNING: Pair style restartinfo set but has no restart support (src/pair.cpp:754)
WARNING: Pair style restartinfo set but has no restart support (src/pair.cpp:754)
        26                   0.0026          5362.351029921      -4084882.839914692     0.02471882744231493      0.5367077485930535
        26                   0.0026          5362.351029921      -4084882.839914692     0.02471882744231493      0.5367077485930535
WARNING: Pair style restartinfo set but has no restart support (src/pair.cpp:754)
WARNING: Pair style restartinfo set but has no restart support (src/pair.cpp:754)
        27                   0.0027          5568.667817342      -4084882.852839546     0.03375177403318448      0.5414236876008541
        27                   0.0027          5568.667817342      -4084882.852839546     0.03375177403318448      0.5414236876008541
WARNING: Pair style restartinfo set but has no restart support (src/pair.cpp:754)
WARNING: Pair style restartinfo set but has no restart support (src/pair.cpp:754)
        28                   0.0028          5779.189705263      -4084882.866868299     0.06601647378202452       0.750020308109368
        28                   0.0028          5779.189705263      -4084882.866868299     0.06601647378202452       0.750020308109368
WARNING: Pair style restartinfo set but has no restart support (src/pair.cpp:754)
WARNING: Pair style restartinfo set but has no restart support (src/pair.cpp:754)
        29                   0.0029          5984.937174062      -4084882.886234139     0.01930426320972025      0.4924823792082267
        29                   0.0029          5984.937174062      -4084882.886234139     0.01930426320972025      0.4924823792082267
WARNING: Pair style restartinfo set but has no restart support (src/pair.cpp:754)
WARNING: Pair style restartinfo set but has no restart support (src/pair.cpp:754)
        30                    0.003          6190.815002756      -4084882.895695174     0.05009421651541154      0.6058850514612731
        30                    0.003          6190.815002756      -4084882.895695174     0.05009421651541154      0.6058850514612731
WARNING: Pair style restartinfo set but has no restart support (src/pair.cpp:754)
WARNING: Pair style restartinfo set but has no restart support (src/pair.cpp:754)
        31                   0.0031          6398.946262189      -4084882.907656313     0.02072327577691387      0.3506439144608801
        31                   0.0031          6398.946262189      -4084882.907656313     0.02072327577691387      0.3506439144608801
WARNING: Pair style restartinfo set but has no restart support (src/pair.cpp:754)
WARNING: Pair style restartinfo set but has no restart support (src/pair.cpp:754)
        32                   0.0032          6605.944522604      -4084882.911403302     0.02321135139793287      0.3676875884177672
        32                   0.0032          6605.944522604      -4084882.911403302     0.02321135139793287      0.3676875884177672
WARNING: Pair style restartinfo set but has no restart support (src/pair.cpp:754)
WARNING: Pair style restartinfo set but has no restart support (src/pair.cpp:754)
        33                   0.0033          6813.193198188      -4084882.918445945     0.01933381055944779      0.4239735908955266
        33                   0.0033          6813.193198188      -4084882.918445945     0.01933381055944779      0.4239735908955266
WARNING: Pair style restartinfo set but has no restart support (src/pair.cpp:754)
WARNING: Pair style restartinfo set but has no restart support (src/pair.cpp:754)
        34                   0.0034          7019.497599087      -4084882.924332557     0.02829225459897131      0.3773672136115129
        34                   0.0034          7019.497599087      -4084882.924332557     0.02829225459897131      0.3773672136115129
WARNING: Pair style restartinfo set but has no restart support (src/pair.cpp:754)
WARNING: Pair style restartinfo set but has no restart support (src/pair.cpp:754)
        35                   0.0035          7226.489220182      -4084882.928885263     0.01758501792159388      0.3030717659296454
        35                   0.0035          7226.489220182      -4084882.928885263     0.01758501792159388      0.3030717659296454
WARNING: Pair style restartinfo set but has no restart support (src/pair.cpp:754)
WARNING: Pair style restartinfo set but has no restart support (src/pair.cpp:754)
        36                   0.0036          7432.828334782      -4084882.931846341     0.01079218513461632      0.2947987864173651
        36                   0.0036          7432.828334782      -4084882.931846341     0.01079218513461632      0.2947987864173651
WARNING: Pair style restartinfo set but has no restart support (src/pair.cpp:754)
WARNING: Pair style restartinfo set but has no restart support (src/pair.cpp:754)
        37                   0.0037          7640.255098784      -4084882.936368293     0.02022126022860391      0.3309144021851156
        37                   0.0037          7640.255098784      -4084882.936368293     0.02022126022860391      0.3309144021851156
WARNING: Pair style restartinfo set but has no restart support (src/pair.cpp:754)
WARNING: Pair style restartinfo set but has no restart support (src/pair.cpp:754)
        38                   0.0038          7847.484190316      -4084882.939118707      0.0132145798779361      0.2609553304838589
        38                   0.0038          7847.484190316      -4084882.939118707      0.0132145798779361      0.2609553304838589
WARNING: Pair style restartinfo set but has no restart support (src/pair.cpp:754)
WARNING: Pair style restartinfo set but has no restart support (src/pair.cpp:754)
        39                   0.0039          8053.810676899       -4084882.94342298     0.02643155598510807      0.3320155861939548
        39                   0.0039          8053.810676899       -4084882.94342298     0.02643155598510807      0.3320155861939548
WARNING: Pair style restartinfo set but has no restart support (src/pair.cpp:754)
WARNING: Pair style restartinfo set but has no restart support (src/pair.cpp:754)
        40                    0.004       8260.437337068999       -4084882.94573163    0.006868310490741383      0.1582796558416381
        40                    0.004       8260.437337068999       -4084882.94573163    0.006868310490741383      0.1582796558416381
WARNING: Pair style restartinfo set but has no restart support (src/pair.cpp:754)
WARNING: Pair style restartinfo set but has no restart support (src/pair.cpp:754)
        41                   0.0041       8466.116534606001      -4084882.946585277     0.01224922696992962      0.1523772269763448
        41                   0.0041       8466.116534606001      -4084882.946585277     0.01224922696992962      0.1523772269763448
WARNING: Pair style restartinfo set but has no restart support (src/pair.cpp:754)
WARNING: Pair style restartinfo set but has no restart support (src/pair.cpp:754)
        42     0.004200000000000001          8672.524785038      -4084882.947235355    0.007469143413308418      0.1180704035909831
        42     0.004200000000000001          8672.524785038      -4084882.947235355    0.007469143413308418      0.1180704035909831
WARNING: Pair style restartinfo set but has no restart support (src/pair.cpp:754)
WARNING: Pair style restartinfo set but has no restart support (src/pair.cpp:754)
        43                   0.0043          8879.359191288      -4084882.947894815    0.008400578702560422      0.1326196344308522
        43                   0.0043          8879.359191288      -4084882.947894815    0.008400578702560422      0.1326196344308522
WARNING: Pair style restartinfo set but has no restart support (src/pair.cpp:754)
WARNING: Pair style restartinfo set but has no restart support (src/pair.cpp:754)
        44                   0.0044          9085.206003214      -4084882.948388712       0.005823039082584      0.1024536096041617
        44                   0.0044          9085.206003214      -4084882.948388712       0.005823039082584      0.1024536096041617
WARNING: Pair style restartinfo set but has no restart support (src/pair.cpp:754)
WARNING: Pair style restartinfo set but has no restart support (src/pair.cpp:754)
        45     0.004500000000000001       9292.467915638999      -4084882.948850734    0.006756684416435874      0.1148467827095401
        45     0.004500000000000001       9292.467915638999      -4084882.948850734    0.006756684416435874      0.1148467827095401
WARNING: Pair style restartinfo set but has no restart support (src/pair.cpp:754)
WARNING: Pair style restartinfo set but has no restart support (src/pair.cpp:754)
        46                   0.0046       9498.549855032999      -4084882.949202195    0.003618956364808002     0.07281332031147084
        46                   0.0046       9498.549855032999      -4084882.949202195    0.003618956364808002     0.07281332031147084
WARNING: Pair style restartinfo set but has no restart support (src/pair.cpp:754)
WARNING: Pair style restartinfo set but has no restart support (src/pair.cpp:754)
        47                   0.0047          9704.688314408      -4084882.949421036    0.005007563448577274     0.09368397727336143
        47                   0.0047          9704.688314408      -4084882.949421036    0.005007563448577274     0.09368397727336143
WARNING: Pair style restartinfo set but has no restart support (src/pair.cpp:754)
WARNING: Pair style restartinfo set but has no restart support (src/pair.cpp:754)
        48                   0.0048       9912.443019926999      -4084882.949857453    0.004695201541822295     0.09846000493543149
        48                   0.0048       9912.443019926999      -4084882.949857453    0.004695201541822295     0.09846000493543149
WARNING: Pair style restartinfo set but has no restart support (src/pair.cpp:754)
WARNING: Pair style restartinfo set but has no restart support (src/pair.cpp:754)
        49                   0.0049         10117.994269016      -4084882.950189075    0.006763483379593845      0.1030324972610095
        49                   0.0049         10117.994269016      -4084882.950189075    0.006763483379593845      0.1030324972610095
WARNING: Pair style restartinfo set but has no restart support (src/pair.cpp:754)
WARNING: Pair style restartinfo set but has no restart support (src/pair.cpp:754)
        50                    0.005         10324.146638639      -4084882.950605164    0.004143377163108069     0.07989215789713305
        50                    0.005         10324.146638639      -4084882.950605164    0.004143377163108069     0.07989215789713305
WARNING: Pair style restartinfo set but has no restart support (src/pair.cpp:754)
WARNING: Pair style restartinfo set but has no restart support (src/pair.cpp:754)
        51                   0.0051         10530.197466599      -4084882.950759216    0.002842653097350222     0.05715432856409145
        51                   0.0051         10530.197466599      -4084882.950759216    0.002842653097350222     0.05715432856409145
WARNING: Pair style restartinfo set but has no restart support (src/pair.cpp:754)
WARNING: Pair style restartinfo set but has no restart support (src/pair.cpp:754)
        52     0.005200000000000001         10738.196171062      -4084882.950861755    0.002262131935732991     0.04072819110290345
        52     0.005200000000000001         10738.196171062      -4084882.950861755    0.002262131935732991     0.04072819110290345
WARNING: Pair style restartinfo set but has no restart support (src/pair.cpp:754)
WARNING: Pair style restartinfo set but has no restart support (src/pair.cpp:754)
        53                   0.0053         10945.353778569      -4084882.950910134    0.002294586221658472     0.03957976930196939
        53                   0.0053         10945.353778569      -4084882.950910134    0.002294586221658472     0.03957976930196939
WARNING: Pair style restartinfo set but has no restart support (src/pair.cpp:754)
WARNING: Pair style restartinfo set but has no restart support (src/pair.cpp:754)
        54                   0.0054         11150.802856153       -4084882.95099295    0.001983627656336993     0.04301981669760532
        54                   0.0054         11150.802856153       -4084882.95099295    0.001983627656336993     0.04301981669760532
WARNING: Pair style restartinfo set but has no restart support (src/pair.cpp:754)
WARNING: Pair style restartinfo set but has no restart support (src/pair.cpp:754)
        55     0.005500000000000001         11357.762570215      -4084882.951050138    0.002063380134695157     0.04308059573373239
        55     0.005500000000000001         11357.762570215      -4084882.951050138    0.002063380134695157     0.04308059573373239
WARNING: Pair style restartinfo set but has no restart support (src/pair.cpp:754)
WARNING: Pair style restartinfo set but has no restart support (src/pair.cpp:754)
        56                   0.0056         11565.125338424      -4084882.951156685    0.002753245019112307      0.0516790882606432
        56                   0.0056         11565.125338424      -4084882.951156685    0.002753245019112307      0.0516790882606432
WARNING: Pair style restartinfo set but has no restart support (src/pair.cpp:754)
WARNING: Pair style restartinfo set but has no restart support (src/pair.cpp:754)
        57                   0.0057         11771.395554007      -4084882.951228541    0.001644337547033228     0.04131820666869818
        57                   0.0057         11771.395554007      -4084882.951228541    0.001644337547033228     0.04131820666869818
WARNING: Pair style restartinfo set but has no restart support (src/pair.cpp:754)
WARNING: Pair style restartinfo set but has no restart support (src/pair.cpp:754)
        58                   0.0058         11978.014987037      -4084882.951324922    0.003489202510837818     0.05632624035947496
        58                   0.0058         11978.014987037      -4084882.951324922    0.003489202510837818     0.05632624035947496
WARNING: Pair style restartinfo set but has no restart support (src/pair.cpp:754)
WARNING: Pair style restartinfo set but has no restart support (src/pair.cpp:754)
        59                   0.0059         12183.980496996      -4084882.951430704    0.002258811822088494     0.04958733282859626
        59                   0.0059         12183.980496996      -4084882.951430704    0.002258811822088494     0.04958733282859626
WARNING: Pair style restartinfo set but has no restart support (src/pair.cpp:754)
WARNING: Pair style restartinfo set but has no restart support (src/pair.cpp:754)
        60                    0.006         12390.423447012      -4084882.951534439    0.002903978887446877     0.05314054138339036
        60                    0.006         12390.423447012      -4084882.951534439    0.002903978887446877     0.05314054138339036
WARNING: Pair style restartinfo set but has no restart support (src/pair.cpp:754)
WARNING: Pair style restartinfo set but has no restart support (src/pair.cpp:754)
        61                   0.0061         12597.076765445      -4084882.951615339    0.002060931571906476     0.03980138552791607
        61                   0.0061         12597.076765445      -4084882.951615339    0.002060931571906476     0.03980138552791607
WARNING: Pair style restartinfo set but has no restart support (src/pair.cpp:754)
WARNING: Pair style restartinfo set but has no restart support (src/pair.cpp:754)
        62     0.006200000000000001         12803.294505308      -4084882.951682246    0.002611934764898042     0.04253516131881354
        62     0.006200000000000001         12803.294505308      -4084882.951682246    0.002611934764898042     0.04253516131881354
WARNING: Pair style restartinfo set but has no restart support (src/pair.cpp:754)
WARNING: Pair style restartinfo set but has no restart support (src/pair.cpp:754)
        63                   0.0063         13010.794735181      -4084882.951731564    0.001728801801270739     0.03186818417993222
        63                   0.0063         13010.794735181      -4084882.951731564    0.001728801801270739     0.03186818417993222
WARNING: Pair style restartinfo set but has no restart support (src/pair.cpp:754)
WARNING: Pair style restartinfo set but has no restart support (src/pair.cpp:754)
        64                   0.0064         13217.730622236      -4084882.951785447    0.003354054756882403     0.04449716388096243
        64                   0.0064         13217.730622236      -4084882.951785447    0.003354054756882403     0.04449716388096243
WARNING: Pair style restartinfo set but has no restart support (src/pair.cpp:754)
WARNING: Pair style restartinfo set but has no restart support (src/pair.cpp:754)
        65     0.006500000000000001         13423.429899641      -4084882.951853995    0.001702456782385143     0.03521403067975858
        65     0.006500000000000001         13423.429899641      -4084882.951853995    0.001702456782385143     0.03521403067975858
WARNING: Pair style restartinfo set but has no restart support (src/pair.cpp:754)
WARNING: Pair style restartinfo set but has no restart support (src/pair.cpp:754)
        66                   0.0066         13631.318131028       -4084882.95190458    0.002908302351352747     0.04470679320231275
        66                   0.0066         13631.318131028       -4084882.95190458    0.002908302351352747     0.04470679320231275
WARNING: Pair style restartinfo set but has no restart support (src/pair.cpp:754)
WARNING: Pair style restartinfo set but has no restart support (src/pair.cpp:754)
        67                   0.0067         13837.610622777      -4084882.951995874    0.002140576592584721     0.04274463014444362
        67                   0.0067         13837.610622777      -4084882.951995874    0.002140576592584721     0.04274463014444362
WARNING: Pair style restartinfo set but has no restart support (src/pair.cpp:754)
WARNING: Pair style restartinfo set but has no restart support (src/pair.cpp:754)
        68                   0.0068         14043.807756057      -4084882.952061792    0.002348372325702686     0.04635451940817387
        68                   0.0068         14043.807756057      -4084882.952061792    0.002348372325702686     0.04635451940817387
WARNING: Pair style restartinfo set but has no restart support (src/pair.cpp:754)
WARNING: Pair style restartinfo set but has no restart support (src/pair.cpp:754)
        69     0.006900000000000001         14252.740927793      -4084882.952143781    0.002264761137078561     0.04075027443085386
        69     0.006900000000000001         14252.740927793      -4084882.952143781    0.002264761137078561     0.04075027443085386
WARNING: Pair style restartinfo set but has no restart support (src/pair.cpp:754)
WARNING: Pair style restartinfo set but has no restart support (src/pair.cpp:754)
        70                    0.007          14460.98742174      -4084882.952198858    0.002028603459538376     0.03991300296077564
        70                    0.007          14460.98742174      -4084882.952198858    0.002028603459538376     0.03991300296077564
WARNING: Pair style restartinfo set but has no restart support (src/pair.cpp:754)
WARNING: Pair style restartinfo set but has no restart support (src/pair.cpp:754)
        71                   0.0071         14667.801284052       -4084882.95225743    0.001466751298525582     0.03283324562377882
        71                   0.0071         14667.801284052       -4084882.95225743    0.001466751298525582     0.03283324562377882
WARNING: Pair style restartinfo set but has no restart support (src/pair.cpp:754)
WARNING: Pair style restartinfo set but has no restart support (src/pair.cpp:754)
        72     0.007200000000000001         14873.999069602      -4084882.952294077    0.001781542303394696     0.03664514393880968
        72     0.007200000000000001         14873.999069602      -4084882.952294077    0.001781542303394696     0.03664514393880968
WARNING: Pair style restartinfo set but has no restart support (src/pair.cpp:754)
WARNING: Pair style restartinfo set but has no restart support (src/pair.cpp:754)
        73                   0.0073         15080.931996908      -4084882.952366004    0.002102225809166882     0.03900890488375792
        73                   0.0073         15080.931996908      -4084882.952366004    0.002102225809166882     0.03900890488375792
WARNING: Pair style restartinfo set but has no restart support (src/pair.cpp:754)
WARNING: Pair style restartinfo set but has no restart support (src/pair.cpp:754)
        74                   0.0074          15288.24264083      -4084882.952406873    0.001465809146602775     0.03316406212358807
        74                   0.0074          15288.24264083      -4084882.952406873    0.001465809146602775     0.03316406212358807
WARNING: Pair style restartinfo set but has no restart support (src/pair.cpp:754)
WARNING: Pair style restartinfo set but has no restart support (src/pair.cpp:754)
        75     0.007500000000000001         15494.526113337      -4084882.952461331    0.002161012872067313     0.03376308522569536
        75     0.007500000000000001         15494.526113337      -4084882.952461331    0.002161012872067313     0.03376308522569536
WARNING: Pair style restartinfo set but has no restart support (src/pair.cpp:754)
WARNING: Pair style restartinfo set but has no restart support (src/pair.cpp:754)
        76                   0.0076         15701.720126587      -4084882.952490041    0.001484876238876301     0.02652041888697436
        76                   0.0076         15701.720126587      -4084882.952490041    0.001484876238876301     0.02652041888697436
WARNING: Pair style restartinfo set but has no restart support (src/pair.cpp:754)
WARNING: Pair style restartinfo set but has no restart support (src/pair.cpp:754)
        77                   0.0077         15907.471204588      -4084882.952524676    0.002074086366494859     0.03118679268873986
        77                   0.0077         15907.471204588      -4084882.952524676    0.002074086366494859     0.03118679268873986
WARNING: Pair style restartinfo set but has no restart support (src/pair.cpp:754)
WARNING: Pair style restartinfo set but has no restart support (src/pair.cpp:754)
        78     0.007800000000000001         16113.826616395      -4084882.952556017    0.001393074822812393     0.02874124245083415
        78     0.007800000000000001         16113.826616395      -4084882.952556017    0.001393074822812393     0.02874124245083415
WARNING: Pair style restartinfo set but has no restart support (src/pair.cpp:754)
WARNING: Pair style restartinfo set but has no restart support (src/pair.cpp:754)
        79     0.007900000000000001         16319.719790203      -4084882.952597876    0.001990531939078256     0.03394481847700808
        79     0.007900000000000001         16319.719790203      -4084882.952597876    0.001990531939078256     0.03394481847700808
WARNING: Pair style restartinfo set but has no restart support (src/pair.cpp:754)
WARNING: Pair style restartinfo set but has no restart support (src/pair.cpp:754)
        80                    0.008         16526.422205526      -4084882.952630317    0.001256776806317403     0.02744525617004677
        80                    0.008         16526.422205526      -4084882.952630317    0.001256776806317403     0.02744525617004677
WARNING: Pair style restartinfo set but has no restart support (src/pair.cpp:754)
WARNING: Pair style restartinfo set but has no restart support (src/pair.cpp:754)
        81                   0.0081         16733.681086413      -4084882.952668051    0.001887530027504514     0.03243089541710507
        81                   0.0081         16733.681086413      -4084882.952668051    0.001887530027504514     0.03243089541710507
WARNING: Pair style restartinfo set but has no restart support (src/pair.cpp:754)
WARNING: Pair style restartinfo set but has no restart support (src/pair.cpp:754)
        82     0.008200000000000001         16940.822873211      -4084882.952697894     0.00105076730195602       0.025551125014894
        82     0.008200000000000001         16940.822873211      -4084882.952697894     0.00105076730195602       0.025551125014894
WARNING: Pair style restartinfo set but has no restart support (src/pair.cpp:754)
WARNING: Pair style restartinfo set but has no restart support (src/pair.cpp:754)
        83                   0.0083         17145.981529346      -4084882.952730883    0.002249925815980866     0.03282891461304823
        83                   0.0083         17145.981529346      -4084882.952730883    0.002249925815980866     0.03282891461304823
WARNING: Pair style restartinfo set but has no restart support (src/pair.cpp:754)
WARNING: Pair style restartinfo set but has no restart support (src/pair.cpp:754)
        84     0.008400000000000001         17352.409237296       -4084882.95276294    0.001096922984011026     0.02408405292173901
        84     0.008400000000000001         17352.409237296       -4084882.95276294    0.001096922984011026     0.02408405292173901
WARNING: Pair style restartinfo set but has no restart support (src/pair.cpp:754)
WARNING: Pair style restartinfo set but has no restart support (src/pair.cpp:754)
        85     0.008500000000000001         17558.639119976        -4084882.9527885    0.001838275738172863     0.02960279468581961
        85     0.008500000000000001         17558.639119976        -4084882.9527885    0.001838275738172863     0.02960279468581961
WARNING: Pair style restartinfo set but has no restart support (src/pair.cpp:754)
WARNING: Pair style restartinfo set but has no restart support (src/pair.cpp:754)
        86                   0.0086          17764.72462704      -4084882.952820427    0.001424215958883104      0.0262353788464994
        86                   0.0086          17764.72462704      -4084882.952820427    0.001424215958883104      0.0262353788464994
WARNING: Pair style restartinfo set but has no restart support (src/pair.cpp:754)
WARNING: Pair style restartinfo set but has no restart support (src/pair.cpp:754)
        87     0.008700000000000001         17970.831076576      -4084882.952849715    0.001752710245997649     0.03295473178489065
        87     0.008700000000000001         17970.831076576      -4084882.952849715    0.001752710245997649     0.03295473178489065
WARNING: Pair style restartinfo set but has no restart support (src/pair.cpp:754)
WARNING: Pair style restartinfo set but has no restart support (src/pair.cpp:754)
        88     0.008800000000000001         18177.795251164      -4084882.952894113    0.001346813241293742     0.02994062285286526
        88     0.008800000000000001         18177.795251164      -4084882.952894113    0.001346813241293742     0.02994062285286526
WARNING: Pair style restartinfo set but has no restart support (src/pair.cpp:754)
WARNING: Pair style restartinfo set but has no restart support (src/pair.cpp:754)
        89                   0.0089         18384.135282054      -4084882.952928031    0.001802913620366144     0.03268102236025241
        89                   0.0089         18384.135282054      -4084882.952928031    0.001802913620366144     0.03268102236025241
WARNING: Pair style restartinfo set but has no restart support (src/pair.cpp:754)
WARNING: Pair style restartinfo set but has no restart support (src/pair.cpp:754)
        90     0.009000000000000001         18590.185214155      -4084882.952965849    0.001479277245968877     0.02616324056492733
        90     0.009000000000000001         18590.185214155      -4084882.952965849    0.001479277245968877     0.02616324056492733
WARNING: Pair style restartinfo set but has no restart support (src/pair.cpp:754)
WARNING: Pair style restartinfo set but has no restart support (src/pair.cpp:754)
        91                   0.0091         18796.917941559      -4084882.952988695     0.00127180771024346     0.02848022657187614
        91                   0.0091         18796.917941559      -4084882.952988695     0.00127180771024346     0.02848022657187614
WARNING: Pair style restartinfo set but has no restart support (src/pair.cpp:754)
WARNING: Pair style restartinfo set but has no restart support (src/pair.cpp:754)
        92                   0.0092         19002.977472565      -4084882.953026195    0.001178260388085945     0.02675762825945065
        92                   0.0092         19002.977472565      -4084882.953026195    0.001178260388085945     0.02675762825945065
WARNING: Pair style restartinfo set but has no restart support (src/pair.cpp:754)
WARNING: Pair style restartinfo set but has no restart support (src/pair.cpp:754)
        93     0.009300000000000001          19210.95890029      -4084882.953051672    0.001811642202788765     0.03021803027024312
        93     0.009300000000000001          19210.95890029      -4084882.953051672    0.001811642202788765     0.03021803027024312
WARNING: Pair style restartinfo set but has no restart support (src/pair.cpp:754)
WARNING: Pair style restartinfo set but has no restart support (src/pair.cpp:754)
        94                   0.0094         19418.855375319      -4084882.953094453    0.001608242829810785     0.03031970925876812
        94                   0.0094         19418.855375319      -4084882.953094453    0.001608242829810785     0.03031970925876812
WARNING: Pair style restartinfo set but has no restart support (src/pair.cpp:754)
WARNING: Pair style restartinfo set but has no restart support (src/pair.cpp:754)
        95                   0.0095         19625.362978247      -4084882.953121776    0.001321672796952203     0.02838461611259975
        95                   0.0095         19625.362978247      -4084882.953121776    0.001321672796952203     0.02838461611259975
WARNING: Pair style restartinfo set but has no restart support (src/pair.cpp:754)
WARNING: Pair style restartinfo set but has no restart support (src/pair.cpp:754)
        96     0.009600000000000001         19831.947471184      -4084882.953161617     0.00150935855641698      0.0297936983469041
        96     0.009600000000000001         19831.947471184      -4084882.953161617     0.00150935855641698      0.0297936983469041
WARNING: Pair style restartinfo set but has no restart support (src/pair.cpp:754)
WARNING: Pair style restartinfo set but has no restart support (src/pair.cpp:754)
        97                   0.0097         20037.691721992      -4084882.953187524    0.001174093918310002     0.02746842374261356
        97                   0.0097         20037.691721992      -4084882.953187524    0.001174093918310002     0.02746842374261356
WARNING: Pair style restartinfo set but has no restart support (src/pair.cpp:754)
WARNING: Pair style restartinfo set but has no restart support (src/pair.cpp:754)
        98                   0.0098         20244.329918296      -4084882.953226454    0.001887757128578308     0.03078366954614395
        98                   0.0098         20244.329918296      -4084882.953226454    0.001887757128578308     0.03078366954614395
WARNING: Pair style restartinfo set but has no restart support (src/pair.cpp:754)
WARNING: Pair style restartinfo set but has no restart support (src/pair.cpp:754)
        99     0.009900000000000001         20452.819459866      -4084882.953253845    0.001213779007751922     0.02737041113108504
        99     0.009900000000000001         20452.819459866      -4084882.953253845    0.001213779007751922     0.02737041113108504
WARNING: Too many warnings: 101 vs 100. All future warnings will be suppressed (src/thermo.cpp:466)
WARNING: Too many warnings: 101 vs 100. All future warnings will be suppressed (src/thermo.cpp:466)
       100                     0.01         20659.377032629      -4084882.953291619    0.001719365882455653     0.03122988811561911
       100                     0.01         20659.377032629      -4084882.953291619    0.001719365882455653     0.03122988811561911
       101                   0.0101         20865.492150074      -4084882.953319461    0.001285085190671545     0.02507205219004737
       101                   0.0101         20865.492150074      -4084882.953319461    0.001285085190671545     0.02507205219004737
       102                   0.0102         21071.284888831       -4084882.95334808    0.001456943492271445     0.02732456019183297
       102                   0.0102         21071.284888831       -4084882.95334808    0.001456943492271445     0.02732456019183297
       103                   0.0103         21278.010482341      -4084882.953367503    0.000833820914041964      0.0195865544801279
       103                   0.0103         21278.010482341      -4084882.953367503    0.000833820914041964      0.0195865544801279
       104                   0.0104         21483.135785317       -4084882.95338516    0.001745514738397228     0.02315226267223051
       104                   0.0104         21483.135785317       -4084882.95338516    0.001745514738397228     0.02315226267223051
       105                   0.0105           21688.5755091      -4084882.953401577   0.0009918850134886525     0.01823610427241503
       105                   0.0105           21688.5755091      -4084882.953401577   0.0009918850134886525     0.01823610427241503
       106                   0.0106         21895.360683845      -4084882.953417039    0.001232525849674142     0.02275484644128375
       106                   0.0106         21895.360683845      -4084882.953417039    0.001232525849674142     0.02275484644128375
       107                   0.0107         22101.922222646      -4084882.953433428   0.0007607835661131863     0.01708414721181417
       107                   0.0107         22101.922222646      -4084882.953433428   0.0007607835661131863     0.01708414721181417
       108                   0.0108         22308.143245163      -4084882.953444062    0.001110679604971863     0.01781618636325103
       108                   0.0108         22308.143245163      -4084882.953444062    0.001110679604971863     0.01781618636325103
       109                   0.0109         22514.099734067      -4084882.953454104    0.000631562252916747     0.01238913736933525
       109                   0.0109         22514.099734067      -4084882.953454104    0.000631562252916747     0.01238913736933525
       110                    0.011         22721.657866018      -4084882.953459468   0.0006701880798096956     0.01364441172630552
       110                    0.011         22721.657866018      -4084882.953459468   0.0006701880798096956     0.01364441172630552
       111                   0.0111         22927.759007923      -4084882.953466745    0.000580183223101425      0.0119895979571836
       111                   0.0111         22927.759007923      -4084882.953466745    0.000580183223101425      0.0119895979571836
       112                   0.0112         23134.759547771      -4084882.953472131   0.0008949797604229692     0.01377704849271332
       112                   0.0112         23134.759547771      -4084882.953472131   0.0008949797604229692     0.01377704849271332
       113                   0.0113         23341.826300123      -4084882.953480334   0.0006382952114471217     0.01240933474021284
       113                   0.0113         23341.826300123      -4084882.953480334   0.0006382952114471217     0.01240933474021284
       114                   0.0114         23549.538303181        -4084882.9534852   0.0007110501875102777     0.01213402102792992
       114                   0.0114         23549.538303181        -4084882.9534852   0.0007110501875102777     0.01213402102792992
       115                   0.0115         23755.146960552      -4084882.953490455   0.0005450943148941941    0.008985871419948331
       115                   0.0115         23755.146960552      -4084882.953490455   0.0005450943148941941    0.008985871419948331
       116                   0.0116         23961.049386776      -4084882.953492524   0.0003633556932199191    0.007316673417353283
       116                   0.0116         23961.049386776      -4084882.953492524   0.0003633556932199191    0.007316673417353283
       117                   0.0117         24167.601728633      -4084882.953494901   0.0003896716096799895    0.006852814529548369
       117                   0.0117         24167.601728633      -4084882.953494901   0.0003896716096799895    0.006852814529548369
       118                   0.0118         24376.125028372      -4084882.953496119   0.0002982300984349616    0.005741419130233683
       118                   0.0118         24376.125028372      -4084882.953496119   0.0002982300984349616    0.005741419130233683
       119                   0.0119         24583.418440125      -4084882.953497833   0.0003633693914498679    0.006586095104418184
       119                   0.0119         24583.418440125      -4084882.953497833   0.0003633693914498679    0.006586095104418184
       120                    0.012         24791.304730431       -4084882.95349909   0.0002713225304619496    0.005598973621034233
       120                    0.012         24791.304730431       -4084882.95349909   0.0002713225304619496    0.005598973621034233
       121                   0.0121         24997.471207195      -4084882.953500558   0.0003744304486806935     0.00606852016545971
       121                   0.0121         24997.471207195      -4084882.953500558   0.0003744304486806935     0.00606852016545971
       122                   0.0122         25204.705479077      -4084882.953501565   0.0002084476471455147    0.004790306547070135
       122                   0.0122         25204.705479077      -4084882.953501565   0.0002084476471455147    0.004790306547070135
       123                   0.0123          25410.43850836      -4084882.953502637   0.0002903923222321511    0.005317780803353765
       123                   0.0123          25410.43850836      -4084882.953502637   0.0002903923222321511    0.005317780803353765
       124                   0.0124         25616.874075589      -4084882.953503397   0.0001777665597419618     0.00390986901998001
       124                   0.0124         25616.874075589      -4084882.953503397   0.0001777665597419618     0.00390986901998001
       125                   0.0125          25824.00254539      -4084882.953504117   0.0002449177138588852    0.004818084704487018
       125                   0.0125          25824.00254539      -4084882.953504117   0.0002449177138588852    0.004818084704487018
       126                   0.0126         26030.249084956      -4084882.953504862    0.000150750371805078    0.003875947028254083
       126                   0.0126         26030.249084956      -4084882.953504862    0.000150750371805078    0.003875947028254083
       127                   0.0127         26236.635074458      -4084882.953505537   0.0002990927502713488    0.004876430030989886
       127                   0.0127         26236.635074458      -4084882.953505537   0.0002990927502713488    0.004876430030989886
       128                   0.0128         26443.411565748      -4084882.953506348   0.0001552108773287654    0.003770568514038858
       128                   0.0128         26443.411565748      -4084882.953506348   0.0001552108773287654    0.003770568514038858
       129                   0.0129         26650.279940048      -4084882.953506866   0.0002276184727395538    0.003913809591827487
       129                   0.0129         26650.279940048      -4084882.953506866   0.0002276184727395538    0.003913809591827487
       130                    0.013         26856.774849996      -4084882.953507348    0.000114309018130556    0.002817835237075795
       130                    0.013         26856.774849996      -4084882.953507348    0.000114309018130556    0.002817835237075795
       131                   0.0131         27063.149568431       -4084882.95350762   0.0001660059276511715    0.003108727656927936
       131                   0.0131         27063.149568431       -4084882.95350762   0.0001660059276511715    0.003108727656927936
       132                   0.0132         27269.114769025      -4084882.953508046    0.000126313751923963    0.002912007012708642
       132                   0.0132         27269.114769025      -4084882.953508046    0.000126313751923963    0.002912007012708642
       133                   0.0133         27476.539482586      -4084882.953508358   0.0001763797684263372    0.003347103029311247
       133                   0.0133         27476.539482586      -4084882.953508358   0.0001763797684263372    0.003347103029311247
       134                   0.0134         27683.079603982      -4084882.953508853   0.0001720300848915834    0.003110253426155286
       134                   0.0134         27683.079603982      -4084882.953508853   0.0001720300848915834    0.003110253426155286
       135                   0.0135         27889.666311709      -4084882.953509135   0.0001666422625809794    0.002891862755791128
       135                   0.0135         27889.666311709      -4084882.953509135   0.0001666422625809794    0.002891862755791128
       136                   0.0136         28097.061585503      -4084882.953509513   0.0001351054708966581    0.002718498031080031
       136                   0.0136         28097.061585503      -4084882.953509513   0.0001351054708966581    0.002718498031080031
       137                   0.0137         28302.543437756      -4084882.953509746   0.0001639313570250822    0.002835355816439723
       137                   0.0137         28302.543437756      -4084882.953509746   0.0001639313570250822    0.002835355816439723
       138                   0.0138         28509.105302157      -4084882.953510145   0.0001850728196181733    0.002855973142886924
       138                   0.0138         28509.105302157      -4084882.953510145   0.0001850728196181733    0.002855973142886924
       139                   0.0139         28715.619087999      -4084882.953510357   0.0001021123482011736    0.002275628618065478
       139                   0.0139         28715.619087999      -4084882.953510357   0.0001021123482011736    0.002275628618065478
       140                    0.014         28921.444407419      -4084882.953510575   0.0001236545476227535    0.002153074478721132
       140                    0.014         28921.444407419      -4084882.953510575   0.0001236545476227535    0.002153074478721132
       141                   0.0141         29127.628474441      -4084882.953510696   9.186471203283253e-05    0.001649716857126654
       141                   0.0141         29127.628474441      -4084882.953510696   9.186471203283253e-05    0.001649716857126654
       142                   0.0142         29333.451494378      -4084882.953510831   0.0001115254109616527    0.001901273552625497
       142                   0.0142         29333.451494378      -4084882.953510831   0.0001115254109616527    0.001901273552625497
       143                   0.0143         29539.720007436      -4084882.953510935   7.205706586664663e-05    0.001651947670434689
       143                   0.0143         29539.720007436      -4084882.953510935   7.205706586664663e-05    0.001651947670434689
       144                   0.0144         29745.767478877      -4084882.953511075   0.0001298906642553596    0.001918065569487573
       144                   0.0144         29745.767478877      -4084882.953511075   0.0001298906642553596    0.001918065569487573
       145                   0.0145         29951.957586542      -4084882.953511169   6.130876642976578e-05    0.001339243401520601
       145                   0.0145         29951.957586542      -4084882.953511169   6.130876642976578e-05    0.001339243401520601
       146                   0.0146          30158.15817256      -4084882.953511246   7.763596798017937e-05    0.001452449543021019
       146                   0.0146          30158.15817256      -4084882.953511246   7.763596798017937e-05    0.001452449543021019
       147                   0.0147         30364.420298594      -4084882.953511311   5.502917717314998e-05    0.001105076643371446
       147                   0.0147         30364.420298594      -4084882.953511311   5.502917717314998e-05    0.001105076643371446
       148                   0.0148         30570.720369585      -4084882.953511358   6.574641100084294e-05    0.001244289909323274
       148                   0.0148         30570.720369585      -4084882.953511358   6.574641100084294e-05    0.001244289909323274
       149                   0.0149         30880.073037817      -4084882.953511405   3.941952558772297e-05   0.0008730546049454425
       149                   0.0149         30880.073037817      -4084882.953511405   3.941952558772297e-05   0.0008730546049454425
Loop time of 30880.1 on 48 procs for 149 steps with 4326 atoms

Loop time of 30880.1 on 48 procs for 149 steps with 4326 atoms

519.5% CPU use with 4 MPI tasks x 12 OpenMP threads
519.5% CPU use with 4 MPI tasks x 12 OpenMP threads

Minimization stats:
  Stopping criterion = force tolerance
  Energy initial, next-to-last, final = 
     -4084850.66976557  -4084882.95351136   -4084882.9535114
  Force two-norm initial, final = 38.553055 0.0008730546
  Force max component initial, final = 1.0138056 3.9419526e-05
  Final line search alpha, max atom move = 1 3.9419526e-05
  Iterations, force evaluations = 149 298

Minimization stats:
  Stopping criterion = force tolerance
  Energy initial, next-to-last, final = 
     -4084850.66976557  -4084882.95351136   -4084882.9535114
  Force two-norm initial, final = 38.553055 0.0008730546
  Force max component initial, final = 1.0138056 3.9419526e-05
  Final line search alpha, max atom move = 1 3.9419526e-05
  Iterations, force evaluations = 149 298

MPI task timing breakdown:
Section |  min time  |  avg time  |  max time  |%varavg| %total
---------------------------------------------------------------

MPI task timing breakdown:
Section |  min time  |  avg time  |  max time  |%varavg| %total
---------------------------------------------------------------
Pair    | 30614      | 30669      | 30753      |  31.0 | 99.32
Pair    | 30614      | 30669      | 30753      |  31.0 | 99.32
Neigh   | 13.886     | 13.916     | 13.943     |   0.6 |  0.05
Neigh   | 13.886     | 13.916     | 13.943     |   0.6 |  0.05
Comm    | 112.6      | 196.7      | 251.84     | 387.4 |  0.64
Comm    | 112.6      | 196.7      | 251.84     | 387.4 |  0.64
Output  | 0.26991    | 0.27024    | 0.27118    |   0.1 |  0.00
Output  | 0.26991    | 0.27024    | 0.27118    |   0.1 |  0.00
Modify  | 0          | 0          | 0          |   0.0 |  0.00
Modify  | 0          | 0          | 0          |   0.0 |  0.00
Other   |            | 0.06618    |            |       |  0.00
Other   |            | 0.06618    |            |       |  0.00

Nlocal:         1081.5 ave        1105 max        1056 min
Histogram: 1 1 0 0 0 0 0 0 0 2
Nghost:         7279.5 ave        7314 max        7255 min
Histogram: 2 0 0 0 0 0 1 0 0 1
Neighs:              0 ave           0 max           0 min
Histogram: 4 0 0 0 0 0 0 0 0 0
FullNghs:       698254 ave      713097 max      681659 min
Histogram: 1 1 0 0 0 0 0 0 0 2

Nlocal:         1081.5 ave        1105 max        1056 min
Histogram: 1 1 0 0 0 0 0 0 0 2
Nghost:         7279.5 ave        7314 max        7255 min
Histogram: 2 0 0 0 0 0 1 0 0 1
Neighs:              0 ave           0 max           0 min
Histogram: 4 0 0 0 0 0 0 0 0 0
FullNghs:       698254 ave      713097 max      681659 min
Histogram: 1 1 0 0 0 0 0 0 0 2


Total # of neighbors = 2793016
Ave neighs/atom = 645.63477
Neighbor list builds = 299
Dangerous builds = 0
Total # of neighbors = 2793016
Ave neighs/atom = 645.63477
Neighbor list builds = 299
Dangerous builds = 0
write_data /home/theory/phrrpq/bilayer_relaxations/WS2_WS2/AP/15/WS2_WS2_AP_15.data
System init for write_data ...
System init for write_data ...
Generated 0 of 1 mixed pair_coeff terms from geometric mixing rule
Generated 0 of 1 mixed pair_coeff terms from geometric mixing rule
Total wall time: 8:38:07
Total wall time: 8:38:07
