Python 3.10.4
OMP_THREADS: 12
MPI: 1
NTASKS-PER-NODE: 4
CPUS_PER_TASK: 12
MPI startup(): PMI server not found. Please set I_MPI_PMI_LIBRARY variable if it is not a singleton case.
MPI startup(): PMI server not found. Please set I_MPI_PMI_LIBRARY variable if it is not a singleton case.
MPI startup(): PMI server not found. Please set I_MPI_PMI_LIBRARY variable if it is not a singleton case.
MPI startup(): PMI server not found. Please set I_MPI_PMI_LIBRARY variable if it is not a singleton case.
LAMMPS (28 Mar 2023 - Development)
LAMMPS (28 Mar 2023 - Development)
LAMMPS (28 Mar 2023 - Development)
LAMMPS (28 Mar 2023 - Development)
  using 12 OpenMP thread(s) per MPI task
  using 12 OpenMP thread(s) per MPI task
  using 12 OpenMP thread(s) per MPI task
  using 12 OpenMP thread(s) per MPI task
  using 12 OpenMP thread(s) per MPI task
  using 12 OpenMP thread(s) per MPI task
  using 12 OpenMP thread(s) per MPI task
  using 12 OpenMP thread(s) per MPI task
Reading data file ...
Reading data file ...
Reading data file ...
Reading data file ...
  triclinic box = (0 0 0) to (8.4423335 7.3112753 30) with tilt (-4.2211667 0 0)
  triclinic box = (0 0 0) to (8.4423335 7.3112753 30) with tilt (-4.2211667 0 0)
  triclinic box = (0 0 0) to (8.4423335 7.3112753 30) with tilt (-4.2211667 0 0)
  triclinic box = (0 0 0) to (8.4423335 7.3112753 30) with tilt (-4.2211667 0 0)
WARNING: Triclinic box skew is large. LAMMPS will run inefficiently. (src/domain.cpp:220)
WARNING: Triclinic box skew is large. LAMMPS will run inefficiently. (src/domain.cpp:220)
WARNING: Triclinic box skew is large. LAMMPS will run inefficiently. (src/domain.cpp:220)
WARNING: Triclinic box skew is large. LAMMPS will run inefficiently. (src/domain.cpp:220)
  1 by 1 by 1 MPI processor grid
  1 by 1 by 1 MPI processor grid
  1 by 1 by 1 MPI processor grid
  1 by 1 by 1 MPI processor grid
  reading atoms ...
  reading atoms ...
  reading atoms ...
  reading atoms ...
  42 atoms
  42 atoms
  42 atoms
  42 atoms
  read_data CPU = 0.003 seconds
  read_data CPU = 0.003 seconds
  read_data CPU = 0.003 seconds
  read_data CPU = 0.003 seconds
CUDA unavailable, setting device type to torch::kCPU.CUDA unavailable, setting device type to torch::kCPU.
Loading MACE model from "/home/theory/phrrpq/bilayer_relaxations/MoWSSe_bi_radius_8_reduced_all_1_swa_800_run-123_swa.model-lammps.pt" ...CUDA unavailable, setting device type to torch::kCPU.
Loading MACE model from "/home/theory/phrrpq/bilayer_relaxations/MoWSSe_bi_radius_8_reduced_all_1_swa_800_run-123_swa.model-lammps.pt" ...CUDA unavailable, setting device type to torch::kCPU.
Loading MACE model from "/home/theory/phrrpq/bilayer_relaxations/MoWSSe_bi_radius_8_reduced_all_1_swa_800_run-123_swa.model-lammps.pt" ...
Loading MACE model from "/home/theory/phrrpq/bilayer_relaxations/MoWSSe_bi_radius_8_reduced_all_1_swa_800_run-123_swa.model-lammps.pt" ... finished.
 finished.
  - The torch_float_dtype is: Double
  - The r_max is:   - The torch_float_dtype is: Double
8.
  - The r_max is:   - The model has: 2 layers.
8.
  - The model has: 2 layers.
 finished.
 finished.
  - The model atomic numbers are: 16 34 42   - The model atomic numbers are: 16 34 42 74.74.

  - The pair_coeff atomic numbers are: 74 16.
  - The pair_coeff atomic numbers are: 74 16.
Generated 0 of 1 mixed pair_coeff terms from geometric mixing rule
Generated 0 of 1 mixed pair_coeff terms from geometric mixing rule
Neighbor list info ...
  update: every = 1 steps, delay = 0 steps, check = yes
  max neighbors/atom: 2000, page size: 100000
  master list distance cutoff = 18
  ghost atom cutoff = 18
  binsize = 9, bins = 2 1 4
  1 neighbor lists, perpetual/occasional/extra = 1 0 0
  (1) pair mace, perpetual
      attributes: full, newton on, ghost
      pair build: full/bin/ghost
      stencil: full/ghost/bin/3d
      bin: standard
Neighbor list info ...
  update: every = 1 steps, delay = 0 steps, check = yes
  max neighbors/atom: 2000, page size: 100000
  master list distance cutoff = 18
  ghost atom cutoff = 18
  binsize = 9, bins = 2 1 4
  1 neighbor lists, perpetual/occasional/extra = 1 0 0
  (1) pair mace, perpetual
      attributes: full, newton on, ghost
      pair build: full/bin/ghost
      stencil: full/ghost/bin/3d
      bin: standard
  - The torch_float_dtype is: Double
  - The r_max is: 8.
  - The model has: 2 layers.
  - The model atomic numbers are: 16 34 42 74.
  - The pair_coeff atomic numbers are: 74 16.
Generated 0 of 1 mixed pair_coeff terms from geometric mixing rule
Neighbor list info ...
  update: every = 1 steps, delay = 0 steps, check = yes
  max neighbors/atom: 2000, page size: 100000
  master list distance cutoff = 18
  ghost atom cutoff = 18
  binsize = 9, bins = 2 1 4
  1 neighbor lists, perpetual/occasional/extra = 1 0 0
  (1) pair mace, perpetual
      attributes: full, newton on, ghost
      pair build: full/bin/ghost
      stencil: full/ghost/bin/3d
      bin: standard
Setting up Verlet run ...
  Unit style    : metal
  Current step  : 0
  Time step     : 0.0001
  - The torch_float_dtype is: Double
  - The r_max is: 8.
  - The model has: 2 layers.
  - The model atomic numbers are: 16 34 42 74.
  - The pair_coeff atomic numbers are: 74 16.
Generated 0 of 1 mixed pair_coeff terms from geometric mixing rule
Neighbor list info ...
  update: every = 1 steps, delay = 0 steps, check = yes
  max neighbors/atom: 2000, page size: 100000
  master list distance cutoff = 18
  ghost atom cutoff = 18
  binsize = 9, bins = 2 1 4
  1 neighbor lists, perpetual/occasional/extra = 1 0 0
  (1) pair mace, perpetual
      attributes: full, newton on, ghost
      pair build: full/bin/ghost
      stencil: full/ghost/bin/3d
      bin: standard
Setting up Verlet run ...
  Unit style    : metal
  Current step  : 0
  Time step     : 0.0001
Setting up Verlet run ...
  Unit style    : metal
  Current step  : 0
  Time step     : 0.0001
Setting up Verlet run ...
  Unit style    : metal
  Current step  : 0
  Time step     : 0.0001
Per MPI rank memory allocation (min/avg/max) = 18.2 | 18.2 | 18.2 Mbytes
   Step          Time           Temp          Press           CPU           KinEng         PotEng         TotEng        Atoms         Fmax          Fnorm     
         0                        0                       0       16249.88084922606                       0                       0      -39642.81188585857      -39642.81188585857         42         5.01836320198176       23.69834309980755
Loop time of 1.192e-06 on 12 procs for 0 steps with 42 atoms

167.8% CPU use with 1 MPI tasks x 12 OpenMP threads

MPI task timing breakdown:
Section |  min time  |  avg time  |  max time  |%varavg| %total
---------------------------------------------------------------
Pair    | 0          | 0          | 0          |   0.0 |  0.00
Neigh   | 0          | 0          | 0          |   0.0 |  0.00
Comm    | 0          | 0          | 0          |   0.0 |  0.00
Output  | 0          | 0          | 0          |   0.0 |  0.00
Modify  | 0          | 0          | 0          |   0.0 |  0.00
Other   |            | 1.192e-06  |            |       |100.00

Nlocal:             42 ave          42 max          42 min
Histogram: 1 0 0 0 0 0 0 0 0 0
Nghost:           2946 ave        2946 max        2946 min
Histogram: 1 0 0 0 0 0 0 0 0 0
Neighs:              0 ave           0 max           0 min
Histogram: 1 0 0 0 0 0 0 0 0 0
FullNghs:        26952 ave       26952 max       26952 min
Histogram: 1 0 0 0 0 0 0 0 0 0

Total # of neighbors = 26952
Ave neighs/atom = 641.71429
Neighbor list builds = 0
Dangerous builds = 0
BEGIN LAMMPS STANDALONE MINIMIZATION; ii = 1; OMP = 12; MPI = 4
minimize 0.0 1e-3 1000 100000
Generated 0 of 1 mixed pair_coeff terms from geometric mixing rule
Generated 0 of 1 mixed pair_coeff terms from geometric mixing rule
Setting up cg style minimization ...
  Unit style    : metal
  Current step  : 0
Per MPI rank memory allocation (min/avg/max) = 18.2 | 18.2 | 18.2 Mbytes
   Step          Time           Temp          Press           CPU           KinEng         PotEng         TotEng        Atoms         Fmax          Fnorm     
         0                        0                       0       16249.88084922606                       0                       0      -39642.81188585857      -39642.81188585857         42         5.01836320198176       23.69834309980755
Loop time of 8.79e-07 on 12 procs for 0 steps with 42 atoms

113.8% CPU use with 1 MPI tasks x 12 OpenMP threads

MPI task timing breakdown:
Section |  min time  |  avg time  |  max time  |%varavg| %total
---------------------------------------------------------------
Pair    | 0          | 0          | 0          |   0.0 |  0.00
Neigh   | 0          | 0          | 0          |   0.0 |  0.00
Comm    | 0          | 0          | 0          |   0.0 |  0.00
Output  | 0          | 0          | 0          |   0.0 |  0.00
Modify  | 0          | 0          | 0          |   0.0 |  0.00
Other   |            | 8.79e-07   |            |       |100.00

Nlocal:             42 ave          42 max          42 min
Histogram: 1 0 0 0 0 0 0 0 0 0
Nghost:           2946 ave        2946 max        2946 min
Histogram: 1 0 0 0 0 0 0 0 0 0
Neighs:              0 ave           0 max           0 min
Histogram: 1 0 0 0 0 0 0 0 0 0
FullNghs:        26952 ave       26952 max       26952 min
Histogram: 1 0 0 0 0 0 0 0 0 0

Total # of neighbors = 26952
Ave neighs/atom = 641.71429
Neighbor list builds = 0
Dangerous builds = 0
BEGIN LAMMPS STANDALONE MINIMIZATION; ii = 1; OMP = 12; MPI = 4
minimize 0.0 1e-3 1000 100000
Generated 0 of 1 mixed pair_coeff terms from geometric mixing rule
Generated 0 of 1 mixed pair_coeff terms from geometric mixing rule
Setting up cg style minimization ...
  Unit style    : metal
  Current step  : 0
Per MPI rank memory allocation (min/avg/max) = 18.2 | 18.2 | 18.2 Mbytes
   Step          Time           Temp          Press           CPU           KinEng         PotEng         TotEng        Atoms         Fmax          Fnorm     
         0                        0                       0       16249.88084922606                       0                       0      -39642.81188585857      -39642.81188585857         42         5.01836320198176       23.69834309980755
Loop time of 1.003e-06 on 12 procs for 0 steps with 42 atoms

99.7% CPU use with 1 MPI tasks x 12 OpenMP threads

MPI task timing breakdown:
Section |  min time  |  avg time  |  max time  |%varavg| %total
---------------------------------------------------------------
Pair    | 0          | 0          | 0          |   0.0 |  0.00
Neigh   | 0          | 0          | 0          |   0.0 |  0.00
Comm    | 0          | 0          | 0          |   0.0 |  0.00
Output  | 0          | 0          | 0          |   0.0 |  0.00
Modify  | 0          | 0          | 0          |   0.0 |  0.00
Other   |            | 1.003e-06  |            |       |100.00

Nlocal:             42 ave          42 max          42 min
Histogram: 1 0 0 0 0 0 0 0 0 0
Nghost:           2946 ave        2946 max        2946 min
Histogram: 1 0 0 0 0 0 0 0 0 0
Neighs:              0 ave           0 max           0 min
Histogram: 1 0 0 0 0 0 0 0 0 0
FullNghs:        26952 ave       26952 max       26952 min
Histogram: 1 0 0 0 0 0 0 0 0 0

Total # of neighbors = 26952
Ave neighs/atom = 641.71429
Neighbor list builds = 0
Dangerous builds = 0
BEGIN LAMMPS STANDALONE MINIMIZATION; ii = 1; OMP = 12; MPI = 4
minimize 0.0 1e-3 1000 100000
Generated 0 of 1 mixed pair_coeff terms from geometric mixing rule
Generated 0 of 1 mixed pair_coeff terms from geometric mixing rule
Setting up cg style minimization ...
  Unit style    : metal
  Current step  : 0
Per MPI rank memory allocation (min/avg/max) = 18.2 | 18.2 | 18.2 Mbytes
   Step          Time           Temp          Press           CPU           KinEng         PotEng         TotEng        Atoms         Fmax          Fnorm     
         0                        0                       0       16249.88084922606                       0                       0      -39642.81188585857      -39642.81188585857         42         5.01836320198176       23.69834309980755
Loop time of 9.8e-07 on 12 procs for 0 steps with 42 atoms

102.0% CPU use with 1 MPI tasks x 12 OpenMP threads

MPI task timing breakdown:
Section |  min time  |  avg time  |  max time  |%varavg| %total
---------------------------------------------------------------
Pair    | 0          | 0          | 0          |   0.0 |  0.00
Neigh   | 0          | 0          | 0          |   0.0 |  0.00
Comm    | 0          | 0          | 0          |   0.0 |  0.00
Output  | 0          | 0          | 0          |   0.0 |  0.00
Modify  | 0          | 0          | 0          |   0.0 |  0.00
Other   |            | 9.8e-07    |            |       |100.00

Nlocal:             42 ave          42 max          42 min
Histogram: 1 0 0 0 0 0 0 0 0 0
Nghost:           2946 ave        2946 max        2946 min
Histogram: 1 0 0 0 0 0 0 0 0 0
Neighs:              0 ave           0 max           0 min
Histogram: 1 0 0 0 0 0 0 0 0 0
FullNghs:        26952 ave       26952 max       26952 min
Histogram: 1 0 0 0 0 0 0 0 0 0

Total # of neighbors = 26952
Ave neighs/atom = 641.71429
Neighbor list builds = 0
Dangerous builds = 0
BEGIN LAMMPS STANDALONE MINIMIZATION; ii = 1; OMP = 12; MPI = 4
minimize 0.0 1e-3 1000 100000
Generated 0 of 1 mixed pair_coeff terms from geometric mixing rule
Generated 0 of 1 mixed pair_coeff terms from geometric mixing rule
Setting up cg style minimization ...
  Unit style    : metal
  Current step  : 0
Per MPI rank memory allocation (min/avg/max) = 19.32 | 19.32 | 19.32 Mbytes
Per MPI rank memory allocation (min/avg/max) = 19.32 | 19.32 | 19.32 Mbytes
   Step          Time           Temp          Press           CPU           KinEng         PotEng         TotEng        Atoms         Fmax          Fnorm     
   Step          Time           Temp          Press           CPU           KinEng         PotEng         TotEng        Atoms         Fmax          Fnorm     
         0                        0                       0       16249.88084922603                       0                       0      -39642.81188585857      -39642.81188585857         42         5.01836320198175       23.69834309980754
         0                        0                       0       16249.88084922603                       0                       0      -39642.81188585857      -39642.81188585857         42         5.01836320198175       23.69834309980754
Per MPI rank memory allocation (min/avg/max) = 19.32 | 19.32 | 19.32 Mbytes
Per MPI rank memory allocation (min/avg/max) = 19.32 | 19.32 | 19.32 Mbytes
   Step          Time           Temp          Press           CPU           KinEng         PotEng         TotEng        Atoms         Fmax          Fnorm     
   Step          Time           Temp          Press           CPU           KinEng         PotEng         TotEng        Atoms         Fmax          Fnorm     
         0                        0                       0       16249.88084922603                       0                       0      -39642.81188585857      -39642.81188585857         42         5.01836320198175       23.69834309980754
         0                        0                       0       16249.88084922603                       0                       0      -39642.81188585857      -39642.81188585857         42         5.01836320198175       23.69834309980754
Per MPI rank memory allocation (min/avg/max) = 19.32 | 19.32 | 19.32 Mbytes
Per MPI rank memory allocation (min/avg/max) = 19.32 | 19.32 | 19.32 Mbytes
   Step          Time           Temp          Press           CPU           KinEng         PotEng         TotEng        Atoms         Fmax          Fnorm     
   Step          Time           Temp          Press           CPU           KinEng         PotEng         TotEng        Atoms         Fmax          Fnorm     
         0                        0                       0       16249.88084922603                       0                       0      -39642.81188585857      -39642.81188585857         42         5.01836320198175       23.69834309980754
         0                        0                       0       16249.88084922603                       0                       0      -39642.81188585857      -39642.81188585857         42         5.01836320198175       23.69834309980754
Per MPI rank memory allocation (min/avg/max) = 19.32 | 19.32 | 19.32 Mbytes
Per MPI rank memory allocation (min/avg/max) = 19.32 | 19.32 | 19.32 Mbytes
   Step          Time           Temp          Press           CPU           KinEng         PotEng         TotEng        Atoms         Fmax          Fnorm     
   Step          Time           Temp          Press           CPU           KinEng         PotEng         TotEng        Atoms         Fmax          Fnorm     
         0                        0                       0       16249.88084922603                       0                       0      -39642.81188585857      -39642.81188585857         42         5.01836320198175       23.69834309980754
         0                        0                       0       16249.88084922603                       0                       0      -39642.81188585857      -39642.81188585857         42         5.01836320198175       23.69834309980754
WARNING: Pair style restartinfo set but has no restart support (src/pair.cpp:754)
WARNING: Pair style restartinfo set but has no restart support (src/pair.cpp:754)
         1                   0.0001                       0      -2015.937734259514       26.50646006200001                       0       -39652.1344490105       -39652.1344490105         42        4.015457436613235       16.55040107168194
         1                   0.0001                       0      -2015.937734259514       26.50646006200001                       0       -39652.1344490105       -39652.1344490105         42        4.015457436613235       16.55040107168194
WARNING: Pair style restartinfo set but has no restart support (src/pair.cpp:754)
WARNING: Pair style restartinfo set but has no restart support (src/pair.cpp:754)
         1                   0.0001                       0      -2015.937734259514            26.499125322                       0       -39652.1344490105       -39652.1344490105         42        4.015457436613235       16.55040107168194
         1                   0.0001                       0      -2015.937734259514            26.499125322                       0       -39652.1344490105       -39652.1344490105         42        4.015457436613235       16.55040107168194
WARNING: Pair style restartinfo set but has no restart support (src/pair.cpp:754)
WARNING: Pair style restartinfo set but has no restart support (src/pair.cpp:754)
         1                   0.0001                       0      -2015.937734259514             26.64554673                       0       -39652.1344490105       -39652.1344490105         42        4.015457436613235       16.55040107168194
         1                   0.0001                       0      -2015.937734259514             26.64554673                       0       -39652.1344490105       -39652.1344490105         42        4.015457436613235       16.55040107168194
WARNING: Pair style restartinfo set but has no restart support (src/pair.cpp:754)
WARNING: Pair style restartinfo set but has no restart support (src/pair.cpp:754)
         1                   0.0001                       0      -2015.937734259514            26.731661839                       0       -39652.1344490105       -39652.1344490105         42        4.015457436613235       16.55040107168194
         1                   0.0001                       0      -2015.937734259514            26.731661839                       0       -39652.1344490105       -39652.1344490105         42        4.015457436613235       16.55040107168194
WARNING: Pair style restartinfo set but has no restart support (src/pair.cpp:754)
WARNING: Pair style restartinfo set but has no restart support (src/pair.cpp:754)
         2                   0.0002                       0      -9661.472842733257            52.393751171                       0      -39657.31492765506      -39657.31492765506         42        2.075633839498829       8.540276682179149
         2                   0.0002                       0      -9661.472842733257            52.393751171                       0      -39657.31492765506      -39657.31492765506         42        2.075633839498829       8.540276682179149
WARNING: Pair style restartinfo set but has no restart support (src/pair.cpp:754)
WARNING: Pair style restartinfo set but has no restart support (src/pair.cpp:754)
         2                   0.0002                       0      -9661.472842733257            52.587671603                       0      -39657.31492765506      -39657.31492765506         42        2.075633839498829       8.540276682179149
         2                   0.0002                       0      -9661.472842733257            52.587671603                       0      -39657.31492765506      -39657.31492765506         42        2.075633839498829       8.540276682179149
WARNING: Pair style restartinfo set but has no restart support (src/pair.cpp:754)
WARNING: Pair style restartinfo set but has no restart support (src/pair.cpp:754)
         2                   0.0002                       0      -9661.472842733257            52.769340401                       0      -39657.31492765506      -39657.31492765506         42        2.075633839498829       8.540276682179149
         2                   0.0002                       0      -9661.472842733257            52.769340401                       0      -39657.31492765506      -39657.31492765506         42        2.075633839498829       8.540276682179149
WARNING: Pair style restartinfo set but has no restart support (src/pair.cpp:754)
WARNING: Pair style restartinfo set but has no restart support (src/pair.cpp:754)
         2                   0.0002                       0      -9661.472842733257            53.034085505                       0      -39657.31492765506      -39657.31492765506         42        2.075633839498829       8.540276682179149
         2                   0.0002                       0      -9661.472842733257            53.034085505                       0      -39657.31492765506      -39657.31492765506         42        2.075633839498829       8.540276682179149
WARNING: Pair style restartinfo set but has no restart support (src/pair.cpp:754)
WARNING: Pair style restartinfo set but has no restart support (src/pair.cpp:754)
         3                   0.0003                       0      -5609.644765380149           108.872093974                       0      -39658.91133739265      -39658.91133739265         42       0.4758430819803899       1.721482487727298
         3                   0.0003                       0      -5609.644765380149           108.872093974                       0      -39658.91133739265      -39658.91133739265         42       0.4758430819803899       1.721482487727298
WARNING: Pair style restartinfo set but has no restart support (src/pair.cpp:754)
WARNING: Pair style restartinfo set but has no restart support (src/pair.cpp:754)
         3                   0.0003                       0      -5609.644765380149           108.909362532                       0      -39658.91133739265      -39658.91133739265         42       0.4758430819803899       1.721482487727298
         3                   0.0003                       0      -5609.644765380149           108.909362532                       0      -39658.91133739265      -39658.91133739265         42       0.4758430819803899       1.721482487727298
WARNING: Pair style restartinfo set but has no restart support (src/pair.cpp:754)
WARNING: Pair style restartinfo set but has no restart support (src/pair.cpp:754)
         3                   0.0003                       0      -5609.644765380149           109.921205907                       0      -39658.91133739265      -39658.91133739265         42       0.4758430819803899       1.721482487727298
         3                   0.0003                       0      -5609.644765380149           109.921205907                       0      -39658.91133739265      -39658.91133739265         42       0.4758430819803899       1.721482487727298
WARNING: Pair style restartinfo set but has no restart support (src/pair.cpp:754)
WARNING: Pair style restartinfo set but has no restart support (src/pair.cpp:754)
         3                   0.0003                       0      -5609.644765380149           110.126805509                       0      -39658.91133739265      -39658.91133739265         42       0.4758430819803899       1.721482487727298
         3                   0.0003                       0      -5609.644765380149           110.126805509                       0      -39658.91133739265      -39658.91133739265         42       0.4758430819803899       1.721482487727298
WARNING: Pair style restartinfo set but has no restart support (src/pair.cpp:754)
WARNING: Pair style restartinfo set but has no restart support (src/pair.cpp:754)
         4                   0.0004                       0      -1202.858214290558           159.883632394                       0       -39658.9894984354       -39658.9894984354         42      0.03686636544791842      0.1287979001663754
         4                   0.0004                       0      -1202.858214290558           159.883632394                       0       -39658.9894984354       -39658.9894984354         42      0.03686636544791842      0.1287979001663754
WARNING: Pair style restartinfo set but has no restart support (src/pair.cpp:754)
WARNING: Pair style restartinfo set but has no restart support (src/pair.cpp:754)
         4                   0.0004                       0      -1202.858214290558           159.959186593                       0       -39658.9894984354       -39658.9894984354         42      0.03686636544791842      0.1287979001663754
         4                   0.0004                       0      -1202.858214290558           159.959186593                       0       -39658.9894984354       -39658.9894984354         42      0.03686636544791842      0.1287979001663754
WARNING: Pair style restartinfo set but has no restart support (src/pair.cpp:754)
WARNING: Pair style restartinfo set but has no restart support (src/pair.cpp:754)
         4                   0.0004                       0      -1202.858214290558            161.72013657                       0       -39658.9894984354       -39658.9894984354         42      0.03686636544791842      0.1287979001663754
         4                   0.0004                       0      -1202.858214290558            161.72013657                       0       -39658.9894984354       -39658.9894984354         42      0.03686636544791842      0.1287979001663754
WARNING: Pair style restartinfo set but has no restart support (src/pair.cpp:754)
WARNING: Pair style restartinfo set but has no restart support (src/pair.cpp:754)
         4                   0.0004                       0      -1202.858214290558           161.942288794                       0       -39658.9894984354       -39658.9894984354         42      0.03686636544791842      0.1287979001663754
         4                   0.0004                       0      -1202.858214290558           161.942288794                       0       -39658.9894984354       -39658.9894984354         42      0.03686636544791842      0.1287979001663754
WARNING: Pair style restartinfo set but has no restart support (src/pair.cpp:754)
WARNING: Pair style restartinfo set but has no restart support (src/pair.cpp:754)
         5                   0.0005                       0      -952.4339203585762           210.619393749                       0      -39658.98994182708      -39658.98994182708         42      0.01134440499888397     0.05086653360637704
         5                   0.0005                       0      -952.4339203585762           210.619393749                       0      -39658.98994182708      -39658.98994182708         42      0.01134440499888397     0.05086653360637704
WARNING: Pair style restartinfo set but has no restart support (src/pair.cpp:754)
WARNING: Pair style restartinfo set but has no restart support (src/pair.cpp:754)
         5                   0.0005                       0      -952.4339203585762           210.651170842                       0      -39658.98994182708      -39658.98994182708         42      0.01134440499888397     0.05086653360637704
         5                   0.0005                       0      -952.4339203585762           210.651170842                       0      -39658.98994182708      -39658.98994182708         42      0.01134440499888397     0.05086653360637704
WARNING: Pair style restartinfo set but has no restart support (src/pair.cpp:754)
WARNING: Pair style restartinfo set but has no restart support (src/pair.cpp:754)
         5                   0.0005                       0      -952.4339203585762           213.327266678                       0      -39658.98994182708      -39658.98994182708         42      0.01134440499888397     0.05086653360637704
         5                   0.0005                       0      -952.4339203585762           213.327266678                       0      -39658.98994182708      -39658.98994182708         42      0.01134440499888397     0.05086653360637704
WARNING: Pair style restartinfo set but has no restart support (src/pair.cpp:754)
WARNING: Pair style restartinfo set but has no restart support (src/pair.cpp:754)
         5                   0.0005                       0      -952.4339203585762           213.491624567                       0      -39658.98994182708      -39658.98994182708         42      0.01134440499888397     0.05086653360637704
         5                   0.0005                       0      -952.4339203585762           213.491624567                       0      -39658.98994182708      -39658.98994182708         42      0.01134440499888397     0.05086653360637704
WARNING: Pair style restartinfo set but has no restart support (src/pair.cpp:754)
WARNING: Pair style restartinfo set but has no restart support (src/pair.cpp:754)
         6    0.0006000000000000001                       0      -914.8947429534834            261.37279142                       0      -39658.99003308718      -39658.99003308718         42      0.01908598557117211     0.04727710736754789
         6    0.0006000000000000001                       0      -914.8947429534834            261.37279142                       0      -39658.99003308718      -39658.99003308718         42      0.01908598557117211     0.04727710736754789
WARNING: Pair style restartinfo set but has no restart support (src/pair.cpp:754)
WARNING: Pair style restartinfo set but has no restart support (src/pair.cpp:754)
         6    0.0006000000000000001                       0      -914.8947429534834           261.471362178                       0      -39658.99003308718      -39658.99003308718         42      0.01908598557117211     0.04727710736754789
         6    0.0006000000000000001                       0      -914.8947429534834           261.471362178                       0      -39658.99003308718      -39658.99003308718         42      0.01908598557117211     0.04727710736754789
WARNING: Pair style restartinfo set but has no restart support (src/pair.cpp:754)
WARNING: Pair style restartinfo set but has no restart support (src/pair.cpp:754)
         6    0.0006000000000000001                       0      -914.8947429534834           265.005392614                       0      -39658.99003308718      -39658.99003308718         42      0.01908598557117211     0.04727710736754789
         6    0.0006000000000000001                       0      -914.8947429534834           265.005392614                       0      -39658.99003308718      -39658.99003308718         42      0.01908598557117211     0.04727710736754789
WARNING: Pair style restartinfo set but has no restart support (src/pair.cpp:754)
WARNING: Pair style restartinfo set but has no restart support (src/pair.cpp:754)
         6    0.0006000000000000001                       0      -914.8947429534834           265.203192476                       0      -39658.99003308718      -39658.99003308718         42      0.01908598557117211     0.04727710736754789
         6    0.0006000000000000001                       0      -914.8947429534834           265.203192476                       0      -39658.99003308718      -39658.99003308718         42      0.01908598557117211     0.04727710736754789
WARNING: Pair style restartinfo set but has no restart support (src/pair.cpp:754)
WARNING: Pair style restartinfo set but has no restart support (src/pair.cpp:754)
         7                   0.0007                       0      -937.6179515367423           312.349278277                       0      -39658.99011474332      -39658.99011474332         42      0.01181922970064556     0.03999342875047186
         7                   0.0007                       0      -937.6179515367423           312.349278277                       0      -39658.99011474332      -39658.99011474332         42      0.01181922970064556     0.03999342875047186
WARNING: Pair style restartinfo set but has no restart support (src/pair.cpp:754)
WARNING: Pair style restartinfo set but has no restart support (src/pair.cpp:754)
         7                   0.0007                       0      -937.6179515367423           312.397874765                       0      -39658.99011474332      -39658.99011474332         42      0.01181922970064556     0.03999342875047186
         7                   0.0007                       0      -937.6179515367423           312.397874765                       0      -39658.99011474332      -39658.99011474332         42      0.01181922970064556     0.03999342875047186
WARNING: Pair style restartinfo set but has no restart support (src/pair.cpp:754)
WARNING: Pair style restartinfo set but has no restart support (src/pair.cpp:754)
         7                   0.0007                       0      -937.6179515367423           316.491739571                       0      -39658.99011474332      -39658.99011474332         42      0.01181922970064556     0.03999342875047186
         7                   0.0007                       0      -937.6179515367423           316.491739571                       0      -39658.99011474332      -39658.99011474332         42      0.01181922970064556     0.03999342875047186
WARNING: Pair style restartinfo set but has no restart support (src/pair.cpp:754)
WARNING: Pair style restartinfo set but has no restart support (src/pair.cpp:754)
         7                   0.0007                       0      -937.6179515367423           316.592479743                       0      -39658.99011474332      -39658.99011474332         42      0.01181922970064556     0.03999342875047186
         7                   0.0007                       0      -937.6179515367423           316.592479743                       0      -39658.99011474332      -39658.99011474332         42      0.01181922970064556     0.03999342875047186
WARNING: Pair style restartinfo set but has no restart support (src/pair.cpp:754)
WARNING: Pair style restartinfo set but has no restart support (src/pair.cpp:754)
         8                   0.0008                       0      -969.1449628691197           363.303882464                       0      -39658.99014869627      -39658.99014869627         42     0.005670962727510005     0.01930121139508882
         8                   0.0008                       0      -969.1449628691197           363.303882464                       0      -39658.99014869627      -39658.99014869627         42     0.005670962727510005     0.01930121139508882
WARNING: Pair style restartinfo set but has no restart support (src/pair.cpp:754)
WARNING: Pair style restartinfo set but has no restart support (src/pair.cpp:754)
         8                   0.0008                       0      -969.1449628691197           363.391458013                       0      -39658.99014869627      -39658.99014869627         42     0.005670962727510005     0.01930121139508882
         8                   0.0008                       0      -969.1449628691197           363.391458013                       0      -39658.99014869627      -39658.99014869627         42     0.005670962727510005     0.01930121139508882
WARNING: Pair style restartinfo set but has no restart support (src/pair.cpp:754)
WARNING: Pair style restartinfo set but has no restart support (src/pair.cpp:754)
         8                   0.0008                       0      -969.1449628691197           367.978509747                       0      -39658.99014869627      -39658.99014869627         42     0.005670962727510005     0.01930121139508882
         8                   0.0008                       0      -969.1449628691197           367.978509747                       0      -39658.99014869627      -39658.99014869627         42     0.005670962727510005     0.01930121139508882
WARNING: Pair style restartinfo set but has no restart support (src/pair.cpp:754)
WARNING: Pair style restartinfo set but has no restart support (src/pair.cpp:754)
         8                   0.0008                       0      -969.1449628691197           368.189582475                       0      -39658.99014869627      -39658.99014869627         42     0.005670962727510005     0.01930121139508882
         8                   0.0008                       0      -969.1449628691197           368.189582475                       0      -39658.99014869627      -39658.99014869627         42     0.005670962727510005     0.01930121139508882
WARNING: Pair style restartinfo set but has no restart support (src/pair.cpp:754)
WARNING: Pair style restartinfo set but has no restart support (src/pair.cpp:754)
         9    0.0009000000000000001                       0      -1008.490319184553           414.161064676                       0      -39658.99019777065      -39658.99019777065         42       0.0143839005266883      0.0401093819773936
         9    0.0009000000000000001                       0      -1008.490319184553           414.161064676                       0      -39658.99019777065      -39658.99019777065         42       0.0143839005266883      0.0401093819773936
WARNING: Pair style restartinfo set but has no restart support (src/pair.cpp:754)
WARNING: Pair style restartinfo set but has no restart support (src/pair.cpp:754)
         9    0.0009000000000000001                       0      -1008.490319184553           414.207595189                       0      -39658.99019777065      -39658.99019777065         42       0.0143839005266883      0.0401093819773936
         9    0.0009000000000000001                       0      -1008.490319184553           414.207595189                       0      -39658.99019777065      -39658.99019777065         42       0.0143839005266883      0.0401093819773936
WARNING: Pair style restartinfo set but has no restart support (src/pair.cpp:754)
WARNING: Pair style restartinfo set but has no restart support (src/pair.cpp:754)
         9    0.0009000000000000001                       0      -1008.490319184553           419.518052817                       0      -39658.99019777065      -39658.99019777065         42       0.0143839005266883      0.0401093819773936
         9    0.0009000000000000001                       0      -1008.490319184553           419.518052817                       0      -39658.99019777065      -39658.99019777065         42       0.0143839005266883      0.0401093819773936
WARNING: Pair style restartinfo set but has no restart support (src/pair.cpp:754)
WARNING: Pair style restartinfo set but has no restart support (src/pair.cpp:754)
         9    0.0009000000000000001                       0      -1008.490319184553           419.658060056                       0      -39658.99019777065      -39658.99019777065         42       0.0143839005266883      0.0401093819773936
         9    0.0009000000000000001                       0      -1008.490319184553           419.658060056                       0      -39658.99019777065      -39658.99019777065         42       0.0143839005266883      0.0401093819773936
WARNING: Pair style restartinfo set but has no restart support (src/pair.cpp:754)
WARNING: Pair style restartinfo set but has no restart support (src/pair.cpp:754)
        10                    0.001                       0      -1016.106032161425             464.7997723                       0      -39658.99029415996      -39658.99029415996         42      0.01379388606568373     0.04682697458913662
        10                    0.001                       0      -1016.106032161425             464.7997723                       0      -39658.99029415996      -39658.99029415996         42      0.01379388606568373     0.04682697458913662
WARNING: Pair style restartinfo set but has no restart support (src/pair.cpp:754)
WARNING: Pair style restartinfo set but has no restart support (src/pair.cpp:754)
        10                    0.001                       0      -1016.106032161425       464.7600580540001                       0      -39658.99029415996      -39658.99029415996         42      0.01379388606568373     0.04682697458913662
        10                    0.001                       0      -1016.106032161425       464.7600580540001                       0      -39658.99029415996      -39658.99029415996         42      0.01379388606568373     0.04682697458913662
WARNING: Pair style restartinfo set but has no restart support (src/pair.cpp:754)
WARNING: Pair style restartinfo set but has no restart support (src/pair.cpp:754)
        10                    0.001                       0      -1016.106032161425           470.926732411                       0      -39658.99029415996      -39658.99029415996         42      0.01379388606568373     0.04682697458913662
        10                    0.001                       0      -1016.106032161425           470.926732411                       0      -39658.99029415996      -39658.99029415996         42      0.01379388606568373     0.04682697458913662
WARNING: Pair style restartinfo set but has no restart support (src/pair.cpp:754)
WARNING: Pair style restartinfo set but has no restart support (src/pair.cpp:754)
        10                    0.001                       0      -1016.106032161425           471.121730104                       0      -39658.99029415996      -39658.99029415996         42      0.01379388606568373     0.04682697458913662
        10                    0.001                       0      -1016.106032161425           471.121730104                       0      -39658.99029415996      -39658.99029415996         42      0.01379388606568373     0.04682697458913662
WARNING: Pair style restartinfo set but has no restart support (src/pair.cpp:754)
WARNING: Pair style restartinfo set but has no restart support (src/pair.cpp:754)
        11                   0.0011                       0       -984.701163975754           515.504920715                       0      -39658.99047461102      -39658.99047461102         42      0.01490024999601637     0.05460421542327235
        11                   0.0011                       0       -984.701163975754           515.504920715                       0      -39658.99047461102      -39658.99047461102         42      0.01490024999601637     0.05460421542327235
WARNING: Pair style restartinfo set but has no restart support (src/pair.cpp:754)
WARNING: Pair style restartinfo set but has no restart support (src/pair.cpp:754)
        11                   0.0011                       0       -984.701163975754       515.6103688530001                       0      -39658.99047461102      -39658.99047461102         42      0.01490024999601637     0.05460421542327235
        11                   0.0011                       0       -984.701163975754       515.6103688530001                       0      -39658.99047461102      -39658.99047461102         42      0.01490024999601637     0.05460421542327235
WARNING: Pair style restartinfo set but has no restart support (src/pair.cpp:754)
WARNING: Pair style restartinfo set but has no restart support (src/pair.cpp:754)
        11                   0.0011                       0       -984.701163975754           522.249876997                       0      -39658.99047461102      -39658.99047461102         42      0.01490024999601637     0.05460421542327235
        11                   0.0011                       0       -984.701163975754           522.249876997                       0      -39658.99047461102      -39658.99047461102         42      0.01490024999601637     0.05460421542327235
WARNING: Pair style restartinfo set but has no restart support (src/pair.cpp:754)
WARNING: Pair style restartinfo set but has no restart support (src/pair.cpp:754)
        11                   0.0011                       0       -984.701163975754           522.452355229                       0      -39658.99047461102      -39658.99047461102         42      0.01490024999601637     0.05460421542327235
        11                   0.0011                       0       -984.701163975754           522.452355229                       0      -39658.99047461102      -39658.99047461102         42      0.01490024999601637     0.05460421542327235
WARNING: Pair style restartinfo set but has no restart support (src/pair.cpp:754)
WARNING: Pair style restartinfo set but has no restart support (src/pair.cpp:754)
        12                   0.0012                       0      -1075.468350598717       566.2989041550001                       0      -39658.99060018187      -39658.99060018187         42      0.01450669497705322     0.04298180258779647
        12                   0.0012                       0      -1075.468350598717       566.2989041550001                       0      -39658.99060018187      -39658.99060018187         42      0.01450669497705322     0.04298180258779647
WARNING: Pair style restartinfo set but has no restart support (src/pair.cpp:754)
WARNING: Pair style restartinfo set but has no restart support (src/pair.cpp:754)
        12                   0.0012                       0      -1075.468350598717           566.409534201                       0      -39658.99060018187      -39658.99060018187         42      0.01450669497705322     0.04298180258779647
        12                   0.0012                       0      -1075.468350598717           566.409534201                       0      -39658.99060018187      -39658.99060018187         42      0.01450669497705322     0.04298180258779647
WARNING: Pair style restartinfo set but has no restart support (src/pair.cpp:754)
WARNING: Pair style restartinfo set but has no restart support (src/pair.cpp:754)
        12                   0.0012                       0      -1075.468350598717            573.62274784                       0      -39658.99060018187      -39658.99060018187         42      0.01450669497705322     0.04298180258779647
        12                   0.0012                       0      -1075.468350598717            573.62274784                       0      -39658.99060018187      -39658.99060018187         42      0.01450669497705322     0.04298180258779647
WARNING: Pair style restartinfo set but has no restart support (src/pair.cpp:754)
WARNING: Pair style restartinfo set but has no restart support (src/pair.cpp:754)
        12                   0.0012                       0      -1075.468350598717           573.791223857                       0      -39658.99060018187      -39658.99060018187         42      0.01450669497705322     0.04298180258779647
        12                   0.0012                       0      -1075.468350598717           573.791223857                       0      -39658.99060018187      -39658.99060018187         42      0.01450669497705322     0.04298180258779647
WARNING: Pair style restartinfo set but has no restart support (src/pair.cpp:754)
WARNING: Pair style restartinfo set but has no restart support (src/pair.cpp:754)
        13                   0.0013                       0      -1102.488032947802           617.027043517                       0      -39658.99062960081      -39658.99062960081         42     0.005311435811249483     0.01986950276935269
        13                   0.0013                       0      -1102.488032947802           617.027043517                       0      -39658.99062960081      -39658.99062960081         42     0.005311435811249483     0.01986950276935269
WARNING: Pair style restartinfo set but has no restart support (src/pair.cpp:754)
WARNING: Pair style restartinfo set but has no restart support (src/pair.cpp:754)
        13                   0.0013                       0      -1102.488032947802           617.057667454                       0      -39658.99062960081      -39658.99062960081         42     0.005311435811249483     0.01986950276935269
        13                   0.0013                       0      -1102.488032947802           617.057667454                       0      -39658.99062960081      -39658.99062960081         42     0.005311435811249483     0.01986950276935269
WARNING: Pair style restartinfo set but has no restart support (src/pair.cpp:754)
WARNING: Pair style restartinfo set but has no restart support (src/pair.cpp:754)
        13                   0.0013                       0      -1102.488032947802       625.0468146869999                       0      -39658.99062960081      -39658.99062960081         42     0.005311435811249483     0.01986950276935269
        13                   0.0013                       0      -1102.488032947802       625.0468146869999                       0      -39658.99062960081      -39658.99062960081         42     0.005311435811249483     0.01986950276935269
WARNING: Pair style restartinfo set but has no restart support (src/pair.cpp:754)
WARNING: Pair style restartinfo set but has no restart support (src/pair.cpp:754)
        13                   0.0013                       0      -1102.488032947802       625.2121097630001                       0      -39658.99062960081      -39658.99062960081         42     0.005311435811249483     0.01986950276935269
        13                   0.0013                       0      -1102.488032947802       625.2121097630001                       0      -39658.99062960081      -39658.99062960081         42     0.005311435811249483     0.01986950276935269
WARNING: Pair style restartinfo set but has no restart support (src/pair.cpp:754)
WARNING: Pair style restartinfo set but has no restart support (src/pair.cpp:754)
        14                   0.0014                       0      -1101.725520195145       667.7028641620001                       0      -39658.99064842342      -39658.99064842342         42     0.004728572257946914     0.01646644937633194
        14                   0.0014                       0      -1101.725520195145       667.7028641620001                       0      -39658.99064842342      -39658.99064842342         42     0.004728572257946914     0.01646644937633194
WARNING: Pair style restartinfo set but has no restart support (src/pair.cpp:754)
WARNING: Pair style restartinfo set but has no restart support (src/pair.cpp:754)
        14                   0.0014                       0      -1101.725520195145           667.729439159                       0      -39658.99064842342      -39658.99064842342         42     0.004728572257946914     0.01646644937633194
        14                   0.0014                       0      -1101.725520195145           667.729439159                       0      -39658.99064842342      -39658.99064842342         42     0.004728572257946914     0.01646644937633194
WARNING: Pair style restartinfo set but has no restart support (src/pair.cpp:754)
WARNING: Pair style restartinfo set but has no restart support (src/pair.cpp:754)
        14                   0.0014                       0      -1101.725520195145       676.3581452699999                       0      -39658.99064842342      -39658.99064842342         42     0.004728572257946914     0.01646644937633194
        14                   0.0014                       0      -1101.725520195145       676.3581452699999                       0      -39658.99064842342      -39658.99064842342         42     0.004728572257946914     0.01646644937633194
WARNING: Pair style restartinfo set but has no restart support (src/pair.cpp:754)
WARNING: Pair style restartinfo set but has no restart support (src/pair.cpp:754)
        14                   0.0014                       0      -1101.725520195145       676.5091845320001                       0      -39658.99064842342      -39658.99064842342         42     0.004728572257946914     0.01646644937633194
        14                   0.0014                       0      -1101.725520195145       676.5091845320001                       0      -39658.99064842342      -39658.99064842342         42     0.004728572257946914     0.01646644937633194
WARNING: Pair style restartinfo set but has no restart support (src/pair.cpp:754)
WARNING: Pair style restartinfo set but has no restart support (src/pair.cpp:754)
        15                   0.0015                       0      -1098.114483127244           718.081383071                       0      -39658.99065647314      -39658.99065647314         42     0.002071757606233292    0.006821490724919387
        15                   0.0015                       0      -1098.114483127244           718.081383071                       0      -39658.99065647314      -39658.99065647314         42     0.002071757606233292    0.006821490724919387
WARNING: Pair style restartinfo set but has no restart support (src/pair.cpp:754)
WARNING: Pair style restartinfo set but has no restart support (src/pair.cpp:754)
        15                   0.0015                       0      -1098.114483127244       718.2218682610001                       0      -39658.99065647314      -39658.99065647314         42     0.002071757606233292    0.006821490724919387
        15                   0.0015                       0      -1098.114483127244       718.2218682610001                       0      -39658.99065647314      -39658.99065647314         42     0.002071757606233292    0.006821490724919387
WARNING: Pair style restartinfo set but has no restart support (src/pair.cpp:754)
WARNING: Pair style restartinfo set but has no restart support (src/pair.cpp:754)
        15                   0.0015                       0      -1098.114483127244           727.835784925                       0      -39658.99065647314      -39658.99065647314         42     0.002071757606233292    0.006821490724919387
        15                   0.0015                       0      -1098.114483127244           727.835784925                       0      -39658.99065647314      -39658.99065647314         42     0.002071757606233292    0.006821490724919387
WARNING: Pair style restartinfo set but has no restart support (src/pair.cpp:754)
WARNING: Pair style restartinfo set but has no restart support (src/pair.cpp:754)
        15                   0.0015                       0      -1098.114483127244           728.055697987                       0      -39658.99065647314      -39658.99065647314         42     0.002071757606233292    0.006821490724919387
        15                   0.0015                       0      -1098.114483127244           728.055697987                       0      -39658.99065647314      -39658.99065647314         42     0.002071757606233292    0.006821490724919387
WARNING: Pair style restartinfo set but has no restart support (src/pair.cpp:754)
WARNING: Pair style restartinfo set but has no restart support (src/pair.cpp:754)
        16                   0.0016                       0      -1101.230664963277           768.356424285                       0      -39658.99065808492      -39658.99065808492         42    0.0009206963132020662    0.003282254839199565
        16                   0.0016                       0      -1101.230664963277           768.356424285                       0      -39658.99065808492      -39658.99065808492         42    0.0009206963132020662    0.003282254839199565
WARNING: Pair style restartinfo set but has no restart support (src/pair.cpp:754)
WARNING: Pair style restartinfo set but has no restart support (src/pair.cpp:754)
        16                   0.0016                       0      -1101.230664963277       768.4863812540001                       0      -39658.99065808492      -39658.99065808492         42    0.0009206963132020662    0.003282254839199565
        16                   0.0016                       0      -1101.230664963277       768.4863812540001                       0      -39658.99065808492      -39658.99065808492         42    0.0009206963132020662    0.003282254839199565
WARNING: Pair style restartinfo set but has no restart support (src/pair.cpp:754)
WARNING: Pair style restartinfo set but has no restart support (src/pair.cpp:754)
        16                   0.0016                       0      -1101.230664963277           779.374606761                       0      -39658.99065808492      -39658.99065808492         42    0.0009206963132020662    0.003282254839199565
        16                   0.0016                       0      -1101.230664963277           779.374606761                       0      -39658.99065808492      -39658.99065808492         42    0.0009206963132020662    0.003282254839199565
WARNING: Pair style restartinfo set but has no restart support (src/pair.cpp:754)
WARNING: Pair style restartinfo set but has no restart support (src/pair.cpp:754)
        16                   0.0016                       0      -1101.230664963277       779.5280046930001                       0      -39658.99065808492      -39658.99065808492         42    0.0009206963132020662    0.003282254839199565
        16                   0.0016                       0      -1101.230664963277       779.5280046930001                       0      -39658.99065808492      -39658.99065808492         42    0.0009206963132020662    0.003282254839199565
WARNING: Pair style restartinfo set but has no restart support (src/pair.cpp:754)
WARNING: Pair style restartinfo set but has no restart support (src/pair.cpp:754)
        17                   0.0017                       0      -1101.564149295417           818.710554732                       0      -39658.99065824255      -39658.99065824255         42    0.0003381755187310032    0.001079680874847513
        17                   0.0017                       0      -1101.564149295417           818.710554732                       0      -39658.99065824255      -39658.99065824255         42    0.0003381755187310032    0.001079680874847513
WARNING: Pair style restartinfo set but has no restart support (src/pair.cpp:754)
WARNING: Pair style restartinfo set but has no restart support (src/pair.cpp:754)
        17                   0.0017                       0      -1101.564149295417       818.8792822840001                       0      -39658.99065824255      -39658.99065824255         42    0.0003381755187310032    0.001079680874847513
        17                   0.0017                       0      -1101.564149295417       818.8792822840001                       0      -39658.99065824255      -39658.99065824255         42    0.0003381755187310032    0.001079680874847513
WARNING: Pair style restartinfo set but has no restart support (src/pair.cpp:754)
WARNING: Pair style restartinfo set but has no restart support (src/pair.cpp:754)
        17                   0.0017                       0      -1101.564149295417       830.9118617729999                       0      -39658.99065824255      -39658.99065824255         42    0.0003381755187310032    0.001079680874847513
        17                   0.0017                       0      -1101.564149295417       830.9118617729999                       0      -39658.99065824255      -39658.99065824255         42    0.0003381755187310032    0.001079680874847513
WARNING: Pair style restartinfo set but has no restart support (src/pair.cpp:754)
WARNING: Pair style restartinfo set but has no restart support (src/pair.cpp:754)
        17                   0.0017                       0      -1101.564149295417       831.0975375840001                       0      -39658.99065824255      -39658.99065824255         42    0.0003381755187310032    0.001079680874847513
        17                   0.0017                       0      -1101.564149295417       831.0975375840001                       0      -39658.99065824255      -39658.99065824255         42    0.0003381755187310032    0.001079680874847513
WARNING: Pair style restartinfo set but has no restart support (src/pair.cpp:754)
WARNING: Pair style restartinfo set but has no restart support (src/pair.cpp:754)
        18                   0.0018                       0      -1101.391604295011            894.80836389                       0      -39658.99065827607      -39658.99065827607         42    0.0002364314448853808   0.0008090254385004859
        18                   0.0018                       0      -1101.391604295011            894.80836389                       0      -39658.99065827607      -39658.99065827607         42    0.0002364314448853808   0.0008090254385004859
Loop time of 894.808 on 12 procs for 18 steps with 42 atoms

Loop time of 894.808 on 12 procs for 18 steps with 42 atoms

675.7% CPU use with 1 MPI tasks x 12 OpenMP threads
675.7% CPU use with 1 MPI tasks x 12 OpenMP threads

Minimization stats:
  Stopping criterion = force tolerance
  Energy initial, next-to-last, final = 
     -39642.8118858586  -39658.9906582425  -39658.9906582761
  Force two-norm initial, final = 23.698343 0.00080902544
  Force max component initial, final = 5.0183632 0.00023643144
  Final line search alpha, max atom move = 1 0.00023643144
  Iterations, force evaluations = 18 34

Minimization stats:
  Stopping criterion = force tolerance
  Energy initial, next-to-last, final = 
     -39642.8118858586  -39658.9906582425  -39658.9906582761
  Force two-norm initial, final = 23.698343 0.00080902544
  Force max component initial, final = 5.0183632 0.00023643144
  Final line search alpha, max atom move = 1 0.00023643144
  Iterations, force evaluations = 18 34

MPI task timing breakdown:
Section |  min time  |  avg time  |  max time  |%varavg| %total
---------------------------------------------------------------

MPI task timing breakdown:
Section |  min time  |  avg time  |  max time  |%varavg| %total
---------------------------------------------------------------
Pair    | 894.14     | 894.14     | 894.14     |   0.0 | 99.93
Pair    | 894.14     | 894.14     | 894.14     |   0.0 | 99.93
Neigh   | 0.59208    | 0.59208    | 0.59208    |   0.0 |  0.07
Neigh   | 0.59208    | 0.59208    | 0.59208    |   0.0 |  0.07
Comm    | 0.0023933  | 0.0023933  | 0.0023933  |   0.0 |  0.00
Comm    | 0.0023933  | 0.0023933  | 0.0023933  |   0.0 |  0.00
Output  | 0.070579   | 0.070579   | 0.070579   |   0.0 |  0.01
Output  | 0.070579   | 0.070579   | 0.070579   |   0.0 |  0.01
Modify  | 0          | 0          | 0          |   0.0 |  0.00
Modify  | 0          | 0          | 0          |   0.0 |  0.00
Other   |            | 0.003387   |            |       |  0.00
Other   |            | 0.003387   |            |       |  0.00

Nlocal:             42 ave          42 max          42 min
Histogram: 1 0 0 0 0 0 0 0 0 0
Nghost:           2946 ave        2946 max        2946 min
Histogram: 1 0 0 0 0 0 0 0 0 0
Neighs:              0 ave           0 max           0 min
Histogram: 1 0 0 0 0 0 0 0 0 0
FullNghs:        26930 ave       26930 max       26930 min
Histogram: 1 0 0 0 0 0 0 0 0 0

Nlocal:             42 ave          42 max          42 min
Histogram: 1 0 0 0 0 0 0 0 0 0
Nghost:           2946 ave        2946 max        2946 min
Histogram: 1 0 0 0 0 0 0 0 0 0
Neighs:              0 ave           0 max           0 min
Histogram: 1 0 0 0 0 0 0 0 0 0
FullNghs:        26930 ave       26930 max       26930 min
Histogram: 1 0 0 0 0 0 0 0 0 0


Total # of neighbors = 26930
Ave neighs/atom = 641.19048
Neighbor list builds = 35
Dangerous builds = 0
Total # of neighbors = 26930
Ave neighs/atom = 641.19048
Neighbor list builds = 35
Dangerous builds = 0
write_dump all xyz /home/theory/phrrpq/bilayer_relaxations/WS2_WS2/AP/1/WS2_WS2_AP_1.xyz modify sort id pbc yes element W S

WARNING: Pair style restartinfo set but has no restart support (src/pair.cpp:754)
WARNING: Pair style restartinfo set but has no restart support (src/pair.cpp:754)
        18                   0.0018                       0      -1101.391604295011           894.947649198                       0      -39658.99065827607      -39658.99065827607         42    0.0002364314448853808   0.0008090254385004859
        18                   0.0018                       0      -1101.391604295011           894.947649198                       0      -39658.99065827607      -39658.99065827607         42    0.0002364314448853808   0.0008090254385004859
Loop time of 894.948 on 12 procs for 18 steps with 42 atoms

Loop time of 894.948 on 12 procs for 18 steps with 42 atoms

676.2% CPU use with 1 MPI tasks x 12 OpenMP threads
676.2% CPU use with 1 MPI tasks x 12 OpenMP threads

Minimization stats:
  Stopping criterion = force tolerance
  Energy initial, next-to-last, final = 
     -39642.8118858586  -39658.9906582425  -39658.9906582761
  Force two-norm initial, final = 23.698343 0.00080902544
  Force max component initial, final = 5.0183632 0.00023643144
  Final line search alpha, max atom move = 1 0.00023643144
  Iterations, force evaluations = 18 34

Minimization stats:
  Stopping criterion = force tolerance
  Energy initial, next-to-last, final = 
     -39642.8118858586  -39658.9906582425  -39658.9906582761
  Force two-norm initial, final = 23.698343 0.00080902544
  Force max component initial, final = 5.0183632 0.00023643144
  Final line search alpha, max atom move = 1 0.00023643144
  Iterations, force evaluations = 18 34

MPI task timing breakdown:
Section |  min time  |  avg time  |  max time  |%varavg| %total
---------------------------------------------------------------

MPI task timing breakdown:
Section |  min time  |  avg time  |  max time  |%varavg| %total
---------------------------------------------------------------
Pair    | 894.29     | 894.29     | 894.29     |   0.0 | 99.93
Pair    | 894.29     | 894.29     | 894.29     |   0.0 | 99.93
Neigh   | 0.59272    | 0.59272    | 0.59272    |   0.0 |  0.07
Neigh   | 0.59272    | 0.59272    | 0.59272    |   0.0 |  0.07
Comm    | 0.0024928  | 0.0024928  | 0.0024928  |   0.0 |  0.00
Comm    | 0.0024928  | 0.0024928  | 0.0024928  |   0.0 |  0.00
Output  | 0.059483   | 0.059483   | 0.059483   |   0.0 |  0.01
Output  | 0.059483   | 0.059483   | 0.059483   |   0.0 |  0.01
Modify  | 0          | 0          | 0          |   0.0 |  0.00
Modify  | 0          | 0          | 0          |   0.0 |  0.00
Other   |            | 0.005989   |            |       |  0.00
Other   |            | 0.005989   |            |       |  0.00

Nlocal:             42 ave          42 max          42 min
Histogram: 1 0 0 0 0 0 0 0 0 0
Nghost:           2946 ave        2946 max        2946 min
Histogram: 1 0 0 0 0 0 0 0 0 0
Neighs:              0 ave           0 max           0 min
Histogram: 1 0 0 0 0 0 0 0 0 0
FullNghs:        26930 ave       26930 max       26930 min
Histogram: 1 0 0 0 0 0 0 0 0 0

Nlocal:             42 ave          42 max          42 min
Histogram: 1 0 0 0 0 0 0 0 0 0
Nghost:           2946 ave        2946 max        2946 min
Histogram: 1 0 0 0 0 0 0 0 0 0
Neighs:              0 ave           0 max           0 min
Histogram: 1 0 0 0 0 0 0 0 0 0
FullNghs:        26930 ave       26930 max       26930 min
Histogram: 1 0 0 0 0 0 0 0 0 0


Total # of neighbors = 26930
Ave neighs/atom = 641.19048
Neighbor list builds = 35
Dangerous builds = 0
Total # of neighbors = 26930
Ave neighs/atom = 641.19048
Neighbor list builds = 35
Dangerous builds = 0
write_dump all xyz /home/theory/phrrpq/bilayer_relaxations/WS2_WS2/AP/1/WS2_WS2_AP_1.xyz modify sort id pbc yes element W S

Total wall time: 0:15:44
Total wall time: 0:15:44
Total wall time: 0:15:44
Total wall time: 0:15:44
WARNING: Pair style restartinfo set but has no restart support (src/pair.cpp:754)
WARNING: Pair style restartinfo set but has no restart support (src/pair.cpp:754)
        18                   0.0018                       0      -1101.391604295011       907.8879450129999                       0      -39658.99065827607      -39658.99065827607         42    0.0002364314448853808   0.0008090254385004859
        18                   0.0018                       0      -1101.391604295011       907.8879450129999                       0      -39658.99065827607      -39658.99065827607         42    0.0002364314448853808   0.0008090254385004859
Loop time of 907.888 on 12 procs for 18 steps with 42 atoms

Loop time of 907.888 on 12 procs for 18 steps with 42 atoms

676.6% CPU use with 1 MPI tasks x 12 OpenMP threads
676.6% CPU use with 1 MPI tasks x 12 OpenMP threads

Minimization stats:
  Stopping criterion = force tolerance
  Energy initial, next-to-last, final = 
     -39642.8118858586  -39658.9906582425  -39658.9906582761
  Force two-norm initial, final = 23.698343 0.00080902544
  Force max component initial, final = 5.0183632 0.00023643144
  Final line search alpha, max atom move = 1 0.00023643144
  Iterations, force evaluations = 18 34

Minimization stats:
  Stopping criterion = force tolerance
  Energy initial, next-to-last, final = 
     -39642.8118858586  -39658.9906582425  -39658.9906582761
  Force two-norm initial, final = 23.698343 0.00080902544
  Force max component initial, final = 5.0183632 0.00023643144
  Final line search alpha, max atom move = 1 0.00023643144
  Iterations, force evaluations = 18 34

MPI task timing breakdown:
Section |  min time  |  avg time  |  max time  |%varavg| %total
---------------------------------------------------------------

MPI task timing breakdown:
Section |  min time  |  avg time  |  max time  |%varavg| %total
---------------------------------------------------------------
Pair    | 907.26     | 907.26     | 907.26     |   0.0 | 99.93
Pair    | 907.26     | 907.26     | 907.26     |   0.0 | 99.93
Neigh   | 0.59229    | 0.59229    | 0.59229    |   0.0 |  0.07
Neigh   | 0.59229    | 0.59229    | 0.59229    |   0.0 |  0.07
Comm    | 0.0024345  | 0.0024345  | 0.0024345  |   0.0 |  0.00
Comm    | 0.0024345  | 0.0024345  | 0.0024345  |   0.0 |  0.00
Output  | 0.025644   | 0.025644   | 0.025644   |   0.0 |  0.00
Output  | 0.025644   | 0.025644   | 0.025644   |   0.0 |  0.00
Modify  | 0          | 0          | 0          |   0.0 |  0.00
Modify  | 0          | 0          | 0          |   0.0 |  0.00
Other   |            | 0.002692   |            |       |  0.00
Other   |            | 0.002692   |            |       |  0.00

Nlocal:             42 ave          42 max          42 min
Histogram: 1 0 0 0 0 0 0 0 0 0
Nghost:           2946 ave        2946 max        2946 min
Histogram: 1 0 0 0 0 0 0 0 0 0
Neighs:              0 ave           0 max           0 min
Histogram: 1 0 0 0 0 0 0 0 0 0
FullNghs:        26930 ave       26930 max       26930 min
Histogram: 1 0 0 0 0 0 0 0 0 0

Nlocal:             42 ave          42 max          42 min
Histogram: 1 0 0 0 0 0 0 0 0 0
Nghost:           2946 ave        2946 max        2946 min
Histogram: 1 0 0 0 0 0 0 0 0 0
Neighs:              0 ave           0 max           0 min
Histogram: 1 0 0 0 0 0 0 0 0 0
FullNghs:        26930 ave       26930 max       26930 min
Histogram: 1 0 0 0 0 0 0 0 0 0


Total # of neighbors = 26930
Ave neighs/atom = 641.19048
Neighbor list builds = 35
Dangerous builds = 0
Total # of neighbors = 26930
Ave neighs/atom = 641.19048
Neighbor list builds = 35
Dangerous builds = 0
write_dump all xyz /home/theory/phrrpq/bilayer_relaxations/WS2_WS2/AP/1/WS2_WS2_AP_1.xyz modify sort id pbc yes element W S

Total wall time: 0:15:58
Total wall time: 0:15:58
WARNING: Pair style restartinfo set but has no restart support (src/pair.cpp:754)
WARNING: Pair style restartinfo set but has no restart support (src/pair.cpp:754)
        18                   0.0018                       0      -1101.391604295011           908.033720378                       0      -39658.99065827607      -39658.99065827607         42    0.0002364314448853808   0.0008090254385004859
        18                   0.0018                       0      -1101.391604295011           908.033720378                       0      -39658.99065827607      -39658.99065827607         42    0.0002364314448853808   0.0008090254385004859
Loop time of 908.034 on 12 procs for 18 steps with 42 atoms

Loop time of 908.034 on 12 procs for 18 steps with 42 atoms

677.1% CPU use with 1 MPI tasks x 12 OpenMP threads
677.1% CPU use with 1 MPI tasks x 12 OpenMP threads

Minimization stats:
  Stopping criterion = force tolerance
  Energy initial, next-to-last, final = 
     -39642.8118858586  -39658.9906582425  -39658.9906582761
  Force two-norm initial, final = 23.698343 0.00080902544
  Force max component initial, final = 5.0183632 0.00023643144
  Final line search alpha, max atom move = 1 0.00023643144
  Iterations, force evaluations = 18 34

Minimization stats:
  Stopping criterion = force tolerance
  Energy initial, next-to-last, final = 
     -39642.8118858586  -39658.9906582425  -39658.9906582761
  Force two-norm initial, final = 23.698343 0.00080902544
  Force max component initial, final = 5.0183632 0.00023643144
  Final line search alpha, max atom move = 1 0.00023643144
  Iterations, force evaluations = 18 34

MPI task timing breakdown:
Section |  min time  |  avg time  |  max time  |%varavg| %total
---------------------------------------------------------------

MPI task timing breakdown:
Section |  min time  |  avg time  |  max time  |%varavg| %total
---------------------------------------------------------------
Pair    | 907.43     | 907.43     | 907.43     |   0.0 | 99.93
Pair    | 907.43     | 907.43     | 907.43     |   0.0 | 99.93
Neigh   | 0.59272    | 0.59272    | 0.59272    |   0.0 |  0.07
Neigh   | 0.59272    | 0.59272    | 0.59272    |   0.0 |  0.07
Comm    | 0.002409   | 0.002409   | 0.002409   |   0.0 |  0.00
Comm    | 0.002409   | 0.002409   | 0.002409   |   0.0 |  0.00
Output  | 0.010609   | 0.010609   | 0.010609   |   0.0 |  0.00
Output  | 0.010609   | 0.010609   | 0.010609   |   0.0 |  0.00
Modify  | 0          | 0          | 0          |   0.0 |  0.00
Modify  | 0          | 0          | 0          |   0.0 |  0.00
Other   |            | 0.001862   |            |       |  0.00
Other   |            | 0.001862   |            |       |  0.00

Nlocal:             42 ave          42 max          42 min
Histogram: 1 0 0 0 0 0 0 0 0 0
Nghost:           2946 ave        2946 max        2946 min
Histogram: 1 0 0 0 0 0 0 0 0 0
Neighs:              0 ave           0 max           0 min
Histogram: 1 0 0 0 0 0 0 0 0 0
FullNghs:        26930 ave       26930 max       26930 min
Histogram: 1 0 0 0 0 0 0 0 0 0

Nlocal:             42 ave          42 max          42 min
Histogram: 1 0 0 0 0 0 0 0 0 0
Nghost:           2946 ave        2946 max        2946 min
Histogram: 1 0 0 0 0 0 0 0 0 0
Neighs:              0 ave           0 max           0 min
Histogram: 1 0 0 0 0 0 0 0 0 0
FullNghs:        26930 ave       26930 max       26930 min
Histogram: 1 0 0 0 0 0 0 0 0 0


Total # of neighbors = 26930
Ave neighs/atom = 641.19048
Neighbor list builds = 35
Dangerous builds = 0
Total # of neighbors = 26930
Ave neighs/atom = 641.19048
Neighbor list builds = 35
Dangerous builds = 0
write_dump all xyz /home/theory/phrrpq/bilayer_relaxations/WS2_WS2/AP/1/WS2_WS2_AP_1.xyz modify sort id pbc yes element W S

Total wall time: 0:15:58
Total wall time: 0:15:58
