OMP_THREADS: 12
MPI: 1
NTASKS-PER-NODE: 4
CPUS_PER_TASK: 12
LAMMPS (28 Mar 2023 - Development)
  using 12 OpenMP thread(s) per MPI task
  using 12 OpenMP thread(s) per MPI task
Reading data file ...
  triclinic box = (0 0 0) to (58.053376 50.275698 30) with tilt (-29.026688 0 0)
WARNING: Triclinic box skew is large. LAMMPS will run inefficiently. (src/domain.cpp:220)
  2 by 2 by 1 MPI processor grid
  reading atoms ...
  1986 atoms
  read_data CPU = 0.051 seconds
CUDA unavailable, setting device type to torch::kCPU.
CUDA unavailable, setting device type to torch::kCPU.
CUDA unavailable, setting device type to torch::kCPU.
CUDA unavailable, setting device type to torch::kCPU.
Loading MACE model from "/home/theory/phrrpq/bilayer_relaxations/MoWSSe_bi_radius_8_reduced_all_1_swa_800_run-123_swa.model-lammps.pt" ... finished.
  - The torch_float_dtype is: Double
Loading MACE model from "/home/theory/phrrpq/bilayer_relaxations/MoWSSe_bi_radius_8_reduced_all_1_swa_800_run-123_swa.model-lammps.pt" ... finished.
  - The r_max is: 8.
  - The model has: 2 layers.
  - The model atomic numbers are: 16 34 42 74.
  - The pair_coeff atomic numbers are: 74 16.
  - The torch_float_dtype is: Double
  - The r_max is: 8.
  - The model has: 2 layers.
  - The model atomic numbers are: 16 34 42 74.
  - The pair_coeff atomic numbers are: 74 16.
Loading MACE model from "/home/theory/phrrpq/bilayer_relaxations/MoWSSe_bi_radius_8_reduced_all_1_swa_800_run-123_swa.model-lammps.pt" ... finished.
Loading MACE model from "/home/theory/phrrpq/bilayer_relaxations/MoWSSe_bi_radius_8_reduced_all_1_swa_800_run-123_swa.model-lammps.pt" ... finished.
  - The torch_float_dtype is: Double
  - The torch_float_dtype is: Double
  - The r_max is: 8.
  - The model has: 2 layers.
  - The r_max is: 8.
  - The model has: 2 layers.
  - The model atomic numbers are: 16 34 42 74.
  - The pair_coeff atomic numbers are: 74 16.
  - The model atomic numbers are: 16 34 42 74.
  - The pair_coeff atomic numbers are: 74 16.
Generated 0 of 1 mixed pair_coeff terms from geometric mixing rule
Neighbor list info ...
  update: every = 1 steps, delay = 0 steps, check = yes
  max neighbors/atom: 2000, page size: 100000
  master list distance cutoff = 18
  ghost atom cutoff = 18
  binsize = 9, bins = 10 6 4
  1 neighbor lists, perpetual/occasional/extra = 1 0 0
  (1) pair mace, perpetual
      attributes: full, newton on, ghost
      pair build: full/bin/ghost
      stencil: full/ghost/bin/3d
      bin: standard
Setting up Verlet run ...
  Unit style    : metal
  Current step  : 0
  Time step     : 0.0001
Per MPI rank memory allocation (min/avg/max) = 24.52 | 24.52 | 24.52 Mbytes
   Step          Time           Temp          Press           CPU           KinEng         PotEng         TotEng        Atoms         Fmax          Fnorm     
         0                        0                       0       245.3776040055703                       0                       0      -1875278.982001742      -1875278.982001742       1986        1.460008953052239       38.03580039269024
Loop time of 2.40625e-06 on 48 procs for 0 steps with 1986 atoms

83.1% CPU use with 4 MPI tasks x 12 OpenMP threads

MPI task timing breakdown:
Section |  min time  |  avg time  |  max time  |%varavg| %total
---------------------------------------------------------------
Pair    | 0          | 0          | 0          |   0.0 |  0.00
Neigh   | 0          | 0          | 0          |   0.0 |  0.00
Comm    | 0          | 0          | 0          |   0.0 |  0.00
Output  | 0          | 0          | 0          |   0.0 |  0.00
Modify  | 0          | 0          | 0          |   0.0 |  0.00
Other   |            | 2.406e-06  |            |       |100.00

Nlocal:          496.5 ave         513 max         480 min
Histogram: 2 0 0 0 0 0 0 0 0 2
Nghost:         5380.5 ave        5412 max        5349 min
Histogram: 2 0 0 0 0 0 0 0 0 2
Neighs:              0 ave           0 max           0 min
Histogram: 4 0 0 0 0 0 0 0 0 0
FullNghs:       318912 ave      329391 max      308419 min
Histogram: 2 0 0 0 0 0 0 0 0 2

Total # of neighbors = 1275648
Ave neighs/atom = 642.32024
Neighbor list builds = 0
Dangerous builds = 0
BEGIN LAMMPS STANDALONE MINIMIZATION; ii = 10; OMP = 12; MPI = 4
minimize 0.0 1e-3 1000 100000
Generated 0 of 1 mixed pair_coeff terms from geometric mixing rule
Generated 0 of 1 mixed pair_coeff terms from geometric mixing rule
Setting up cg style minimization ...
  Unit style    : metal
  Current step  : 0
Per MPI rank memory allocation (min/avg/max) = 25.64 | 25.65 | 25.65 Mbytes
Per MPI rank memory allocation (min/avg/max) = 25.64 | 25.65 | 25.65 Mbytes
   Step          Time           Temp          Press           CPU           KinEng         PotEng         TotEng        Atoms         Fmax          Fnorm     
   Step          Time           Temp          Press           CPU           KinEng         PotEng         TotEng        Atoms         Fmax          Fnorm     
         0                        0                       0       245.3776040055518                       0                       0      -1875278.982001742      -1875278.982001742       1986        1.460008953052239       38.03580039269028
         0                        0                       0       245.3776040055518                       0                       0      -1875278.982001742      -1875278.982001742       1986        1.460008953052239       38.03580039269028
WARNING: Pair style restartinfo set but has no restart support (src/pair.cpp:754)
WARNING: Pair style restartinfo set but has no restart support (src/pair.cpp:754)
         1                   0.0001                       0      -1474.042915601152           140.499659776                       0      -1875303.499835879      -1875303.499835879       1986       0.1195368793784721         1.9218861664383
         1                   0.0001                       0      -1474.042915601152           140.499659776                       0      -1875303.499835879      -1875303.499835879       1986       0.1195368793784721         1.9218861664383
WARNING: Pair style restartinfo set but has no restart support (src/pair.cpp:754)
WARNING: Pair style restartinfo set but has no restart support (src/pair.cpp:754)
         2                   0.0002                       0      -747.5873003876349           281.093512519                       0      -1875303.628844861      -1875303.628844861       1986      0.08762693873040953       1.313051264769835
         2                   0.0002                       0      -747.5873003876349           281.093512519                       0      -1875303.628844861      -1875303.628844861       1986      0.08762693873040953       1.313051264769835
WARNING: Pair style restartinfo set but has no restart support (src/pair.cpp:754)
WARNING: Pair style restartinfo set but has no restart support (src/pair.cpp:754)
         3                   0.0003                       0      -599.7763229719761           421.426614564                       0      -1875303.739322593      -1875303.739322593       1986       0.1655765734947296       2.516842042201378
         3                   0.0003                       0      -599.7763229719761           421.426614564                       0      -1875303.739322593      -1875303.739322593       1986       0.1655765734947296       2.516842042201378
WARNING: Pair style restartinfo set but has no restart support (src/pair.cpp:754)
WARNING: Pair style restartinfo set but has no restart support (src/pair.cpp:754)
         4                   0.0004                       0      -1065.040779157322       563.3036051859999                       0      -1875304.323796654      -1875304.323796654       1986       0.1666041594861662       3.931827467792838
         4                   0.0004                       0      -1065.040779157322       563.3036051859999                       0      -1875304.323796654      -1875304.323796654       1986       0.1666041594861662       3.931827467792838
WARNING: Pair style restartinfo set but has no restart support (src/pair.cpp:754)
WARNING: Pair style restartinfo set but has no restart support (src/pair.cpp:754)
         5                   0.0005                       0      -1653.086786317477       704.8345382489999                       0        -1875304.9126092        -1875304.9126092       1986       0.1313670971903168       3.105634999867522
         5                   0.0005                       0      -1653.086786317477       704.8345382489999                       0        -1875304.9126092        -1875304.9126092       1986       0.1313670971903168       3.105634999867522
WARNING: Pair style restartinfo set but has no restart support (src/pair.cpp:754)
WARNING: Pair style restartinfo set but has no restart support (src/pair.cpp:754)
         6    0.0006000000000000001                       0      -1406.090903868566       846.9947498450001                       0      -1875305.441803205      -1875305.441803205       1986       0.1178534682034525       1.867954152495054
         6    0.0006000000000000001                       0      -1406.090903868566       846.9947498450001                       0      -1875305.441803205      -1875305.441803205       1986       0.1178534682034525       1.867954152495054
WARNING: Pair style restartinfo set but has no restart support (src/pair.cpp:754)
WARNING: Pair style restartinfo set but has no restart support (src/pair.cpp:754)
         7                   0.0007                       0      -1361.587068910462           990.193646835                       0      -1875305.484381621      -1875305.484381621       1986      0.02148383664973825      0.5133988404036349
         7                   0.0007                       0      -1361.587068910462           990.193646835                       0      -1875305.484381621      -1875305.484381621       1986      0.02148383664973825      0.5133988404036349
WARNING: Pair style restartinfo set but has no restart support (src/pair.cpp:754)
WARNING: Pair style restartinfo set but has no restart support (src/pair.cpp:754)
         8                   0.0008                       0      -1333.571854053804          1132.001019192                       0      -1875305.500434769      -1875305.500434769       1986      0.02318976531417382      0.6082649754307751
         8                   0.0008                       0      -1333.571854053804          1132.001019192                       0      -1875305.500434769      -1875305.500434769       1986      0.02318976531417382      0.6082649754307751
WARNING: Pair style restartinfo set but has no restart support (src/pair.cpp:754)
WARNING: Pair style restartinfo set but has no restart support (src/pair.cpp:754)
         9    0.0009000000000000001                       0      -1333.603384134125          1273.638353344                       0      -1875305.523038067      -1875305.523038067       1986      0.04845419268355311       0.896145443095547
         9    0.0009000000000000001                       0      -1333.603384134125          1273.638353344                       0      -1875305.523038067      -1875305.523038067       1986      0.04845419268355311       0.896145443095547
WARNING: Pair style restartinfo set but has no restart support (src/pair.cpp:754)
WARNING: Pair style restartinfo set but has no restart support (src/pair.cpp:754)
        10                    0.001                       0      -1340.976261615551          1415.163463345                       0      -1875305.558777637      -1875305.558777637       1986       0.0577687613600958       1.158118147635619
        10                    0.001                       0      -1340.976261615551          1415.163463345                       0      -1875305.558777637      -1875305.558777637       1986       0.0577687613600958       1.158118147635619
WARNING: Pair style restartinfo set but has no restart support (src/pair.cpp:754)
WARNING: Pair style restartinfo set but has no restart support (src/pair.cpp:754)
        11                   0.0011                       0      -1270.225636649989          1558.999351513                       0       -1875305.65315965       -1875305.65315965       1986      0.06742622545036964       1.475040169344654
        11                   0.0011                       0      -1270.225636649989          1558.999351513                       0       -1875305.65315965       -1875305.65315965       1986      0.06742622545036964       1.475040169344654
WARNING: Pair style restartinfo set but has no restart support (src/pair.cpp:754)
WARNING: Pair style restartinfo set but has no restart support (src/pair.cpp:754)
        12                   0.0012                       0      -1081.355502707854          1701.850856992                       0       -1875305.77008558       -1875305.77008558       1986      0.05180301948191837      0.6781218999087388
        12                   0.0012                       0      -1081.355502707854          1701.850856992                       0       -1875305.77008558       -1875305.77008558       1986      0.05180301948191837      0.6781218999087388
WARNING: Pair style restartinfo set but has no restart support (src/pair.cpp:754)
WARNING: Pair style restartinfo set but has no restart support (src/pair.cpp:754)
        13                   0.0013                       0      -1074.844682166604          1844.191343548                       0      -1875305.776822742      -1875305.776822742       1986      0.01402793765520182      0.2787994727059146
        13                   0.0013                       0      -1074.844682166604          1844.191343548                       0      -1875305.776822742      -1875305.776822742       1986      0.01402793765520182      0.2787994727059146
WARNING: Pair style restartinfo set but has no restart support (src/pair.cpp:754)
WARNING: Pair style restartinfo set but has no restart support (src/pair.cpp:754)
        14                   0.0014                       0      -1087.338340324331          1986.412202077                       0      -1875305.785482835      -1875305.785482835       1986      0.03279024061397708      0.4430724886338664
        14                   0.0014                       0      -1087.338340324331          1986.412202077                       0      -1875305.785482835      -1875305.785482835       1986      0.03279024061397708      0.4430724886338664
WARNING: Pair style restartinfo set but has no restart support (src/pair.cpp:754)
WARNING: Pair style restartinfo set but has no restart support (src/pair.cpp:754)
        15                   0.0015                       0      -1060.344774666346          2128.881970562                       0      -1875305.792767242      -1875305.792767242       1986      0.03263508243132094      0.4966977130668014
        15                   0.0015                       0      -1060.344774666346          2128.881970562                       0      -1875305.792767242      -1875305.792767242       1986      0.03263508243132094      0.4966977130668014
WARNING: Pair style restartinfo set but has no restart support (src/pair.cpp:754)
WARNING: Pair style restartinfo set but has no restart support (src/pair.cpp:754)
        16                   0.0016                       0      -993.7729394640301          2271.937084839                       0      -1875305.803298143      -1875305.803298143       1986      0.02372959258702251      0.5246816040814429
        16                   0.0016                       0      -993.7729394640301          2271.937084839                       0      -1875305.803298143      -1875305.803298143       1986      0.02372959258702251      0.5246816040814429
WARNING: Pair style restartinfo set but has no restart support (src/pair.cpp:754)
WARNING: Pair style restartinfo set but has no restart support (src/pair.cpp:754)
        17                   0.0017                       0      -954.8903294810362          2414.779459787                       0      -1875305.814686788      -1875305.814686788       1986      0.03604656407283207      0.3811385829325186
        17                   0.0017                       0      -954.8903294810362          2414.779459787                       0      -1875305.814686788      -1875305.814686788       1986      0.03604656407283207      0.3811385829325186
WARNING: Pair style restartinfo set but has no restart support (src/pair.cpp:754)
WARNING: Pair style restartinfo set but has no restart support (src/pair.cpp:754)
        18                   0.0018                       0      -968.8311044711036          2557.179442113                       0      -1875305.819057196      -1875305.819057196       1986      0.03538446414030785      0.2983669398393796
        18                   0.0018                       0      -968.8311044711036          2557.179442113                       0      -1875305.819057196      -1875305.819057196       1986      0.03538446414030785      0.2983669398393796
WARNING: Pair style restartinfo set but has no restart support (src/pair.cpp:754)
WARNING: Pair style restartinfo set but has no restart support (src/pair.cpp:754)
        19                   0.0019                       0      -975.5966208689115          2699.872302568                       0      -1875305.821708383      -1875305.821708383       1986      0.02520996307717357      0.3018702492726603
        19                   0.0019                       0      -975.5966208689115          2699.872302568                       0      -1875305.821708383      -1875305.821708383       1986      0.02520996307717357      0.3018702492726603
WARNING: Pair style restartinfo set but has no restart support (src/pair.cpp:754)
WARNING: Pair style restartinfo set but has no restart support (src/pair.cpp:754)
        20                    0.002                       0      -930.7409869151088          2842.284145335                       0      -1875305.830845403      -1875305.830845403       1986      0.04273169285646461      0.3615355049141175
        20                    0.002                       0      -930.7409869151088          2842.284145335                       0      -1875305.830845403      -1875305.830845403       1986      0.04273169285646461      0.3615355049141175
WARNING: Pair style restartinfo set but has no restart support (src/pair.cpp:754)
WARNING: Pair style restartinfo set but has no restart support (src/pair.cpp:754)
        21                   0.0021                       0      -915.3419768246395          2985.934003386                       0      -1875305.833317833      -1875305.833317833       1986      0.02239626540427529      0.2272593724935607
        21                   0.0021                       0      -915.3419768246395          2985.934003386                       0      -1875305.833317833      -1875305.833317833       1986      0.02239626540427529      0.2272593724935607
WARNING: Pair style restartinfo set but has no restart support (src/pair.cpp:754)
WARNING: Pair style restartinfo set but has no restart support (src/pair.cpp:754)
        22                   0.0022                       0      -902.1346920921007          3128.415761038                       0      -1875305.836266985      -1875305.836266985       1986      0.01727308308685648      0.2473665758963021
        22                   0.0022                       0      -902.1346920921007          3128.415761038                       0      -1875305.836266985      -1875305.836266985       1986      0.01727308308685648      0.2473665758963021
WARNING: Pair style restartinfo set but has no restart support (src/pair.cpp:754)
WARNING: Pair style restartinfo set but has no restart support (src/pair.cpp:754)
        23                   0.0023                       0      -900.1485806827353          3271.604413243                       0      -1875305.838118547      -1875305.838118547       1986      0.01809298504213156      0.2032297564653999
        23                   0.0023                       0      -900.1485806827353          3271.604413243                       0      -1875305.838118547      -1875305.838118547       1986      0.01809298504213156      0.2032297564653999
WARNING: Pair style restartinfo set but has no restart support (src/pair.cpp:754)
WARNING: Pair style restartinfo set but has no restart support (src/pair.cpp:754)
        24                   0.0024                       0       -899.876785851527          3414.413451995                       0       -1875305.83998068       -1875305.83998068       1986      0.02300427162563578      0.2818592683556712
        24                   0.0024                       0       -899.876785851527          3414.413451995                       0       -1875305.83998068       -1875305.83998068       1986      0.02300427162563578      0.2818592683556712
WARNING: Pair style restartinfo set but has no restart support (src/pair.cpp:754)
WARNING: Pair style restartinfo set but has no restart support (src/pair.cpp:754)
        25                   0.0025                       0      -890.0965786489918          3556.615675441                       0      -1875305.844575008      -1875305.844575008       1986      0.02410043710989212      0.2484888337741386
        25                   0.0025                       0      -890.0965786489918          3556.615675441                       0      -1875305.844575008      -1875305.844575008       1986      0.02410043710989212      0.2484888337741386
WARNING: Pair style restartinfo set but has no restart support (src/pair.cpp:754)
WARNING: Pair style restartinfo set but has no restart support (src/pair.cpp:754)
        26                   0.0026                       0      -879.7949164463669          3699.150835513                       0      -1875305.846191802      -1875305.846191802       1986      0.01261040338610813      0.1846068575518531
        26                   0.0026                       0      -879.7949164463669          3699.150835513                       0      -1875305.846191802      -1875305.846191802       1986      0.01261040338610813      0.1846068575518531
WARNING: Pair style restartinfo set but has no restart support (src/pair.cpp:754)
WARNING: Pair style restartinfo set but has no restart support (src/pair.cpp:754)
        27                   0.0027                       0      -873.4826994789355          3840.685598822                       0      -1875305.847133473      -1875305.847133473       1986     0.009436810333297832      0.1279507108223115
        27                   0.0027                       0      -873.4826994789355          3840.685598822                       0      -1875305.847133473      -1875305.847133473       1986     0.009436810333297832      0.1279507108223115
WARNING: Pair style restartinfo set but has no restart support (src/pair.cpp:754)
WARNING: Pair style restartinfo set but has no restart support (src/pair.cpp:754)
        28                   0.0028                       0      -876.5891367456575          3984.215660743                       0      -1875305.848014027      -1875305.848014027       1986      0.02162035958163668      0.1770426974443297
        28                   0.0028                       0      -876.5891367456575          3984.215660743                       0      -1875305.848014027      -1875305.848014027       1986      0.02162035958163668      0.1770426974443297
WARNING: Pair style restartinfo set but has no restart support (src/pair.cpp:754)
WARNING: Pair style restartinfo set but has no restart support (src/pair.cpp:754)
        29                   0.0029                       0      -881.6247527338484          4126.900390181                       0      -1875305.849105384      -1875305.849105384       1986     0.008628849258591774      0.1537173988239613
        29                   0.0029                       0      -881.6247527338484          4126.900390181                       0      -1875305.849105384      -1875305.849105384       1986     0.008628849258591774      0.1537173988239613
WARNING: Pair style restartinfo set but has no restart support (src/pair.cpp:754)
WARNING: Pair style restartinfo set but has no restart support (src/pair.cpp:754)
        30                    0.003                       0      -879.5961206355596          4270.399326831                       0      -1875305.850443831      -1875305.850443831       1986      0.01665250527596865      0.2161564679114346
        30                    0.003                       0      -879.5961206355596          4270.399326831                       0      -1875305.850443831      -1875305.850443831       1986      0.01665250527596865      0.2161564679114346
WARNING: Pair style restartinfo set but has no restart support (src/pair.cpp:754)
WARNING: Pair style restartinfo set but has no restart support (src/pair.cpp:754)
        31                   0.0031                       0      -876.2959343824514          4412.564142017                       0      -1875305.852133678      -1875305.852133678       1986      0.01106084476194571       0.146619034792971
        31                   0.0031                       0      -876.2959343824514          4412.564142017                       0      -1875305.852133678      -1875305.852133678       1986      0.01106084476194571       0.146619034792971
WARNING: Pair style restartinfo set but has no restart support (src/pair.cpp:754)
WARNING: Pair style restartinfo set but has no restart support (src/pair.cpp:754)
        32                   0.0032                       0      -879.6903709243177       4555.924074111999                       0      -1875305.852598879      -1875305.852598879       1986     0.004447648500045636     0.09681339183020138
        32                   0.0032                       0      -879.6903709243177       4555.924074111999                       0      -1875305.852598879      -1875305.852598879       1986     0.004447648500045636     0.09681339183020138
WARNING: Pair style restartinfo set but has no restart support (src/pair.cpp:754)
WARNING: Pair style restartinfo set but has no restart support (src/pair.cpp:754)
        33                   0.0033                       0      -888.0417153411051           4698.60207999                       0      -1875305.853044544      -1875305.853044544       1986     0.009024932927473762      0.1015529188701509
        33                   0.0033                       0      -888.0417153411051           4698.60207999                       0      -1875305.853044544      -1875305.853044544       1986     0.009024932927473762      0.1015529188701509
WARNING: Pair style restartinfo set but has no restart support (src/pair.cpp:754)
WARNING: Pair style restartinfo set but has no restart support (src/pair.cpp:754)
        34                   0.0034                       0      -889.1596411776989          4840.257876103                       0       -1875305.85329092       -1875305.85329092       1986     0.003653620992642589     0.06281063519299651
        34                   0.0034                       0      -889.1596411776989          4840.257876103                       0       -1875305.85329092       -1875305.85329092       1986     0.003653620992642589     0.06281063519299651
WARNING: Pair style restartinfo set but has no restart support (src/pair.cpp:754)
WARNING: Pair style restartinfo set but has no restart support (src/pair.cpp:754)
        35                   0.0035                       0      -883.2475493925251          4983.803784746                       0      -1875305.853482774      -1875305.853482774       1986     0.005738592452384033     0.06928206730202491
        35                   0.0035                       0      -883.2475493925251          4983.803784746                       0      -1875305.853482774      -1875305.853482774       1986     0.005738592452384033     0.06928206730202491
WARNING: Pair style restartinfo set but has no restart support (src/pair.cpp:754)
WARNING: Pair style restartinfo set but has no restart support (src/pair.cpp:754)
        36                   0.0036                       0      -883.1660181137053       5126.748480339999                       0      -1875305.853622597      -1875305.853622597       1986     0.004057255356667441     0.05949655393982888
        36                   0.0036                       0      -883.1660181137053       5126.748480339999                       0      -1875305.853622597      -1875305.853622597       1986     0.004057255356667441     0.05949655393982888
WARNING: Pair style restartinfo set but has no restart support (src/pair.cpp:754)
WARNING: Pair style restartinfo set but has no restart support (src/pair.cpp:754)
        37                   0.0037                       0      -892.3545986091843          5268.889974543                       0      -1875305.853782588      -1875305.853782588       1986     0.003441000903807949     0.06159271576928747
        37                   0.0037                       0      -892.3545986091843          5268.889974543                       0      -1875305.853782588      -1875305.853782588       1986     0.003441000903807949     0.06159271576928747
WARNING: Pair style restartinfo set but has no restart support (src/pair.cpp:754)
WARNING: Pair style restartinfo set but has no restart support (src/pair.cpp:754)
        38                   0.0038                       0      -897.5921633890988          5411.163447419                       0      -1875305.853913716      -1875305.853913716       1986      0.00429526584270767      0.0598339674489753
        38                   0.0038                       0      -897.5921633890988          5411.163447419                       0      -1875305.853913716      -1875305.853913716       1986      0.00429526584270767      0.0598339674489753
WARNING: Pair style restartinfo set but has no restart support (src/pair.cpp:754)
WARNING: Pair style restartinfo set but has no restart support (src/pair.cpp:754)
        39                   0.0039                       0      -895.4656560646715          5553.211224217                       0      -1875305.854076904      -1875305.854076904       1986     0.003984466416504887     0.05836236021645452
        39                   0.0039                       0      -895.4656560646715          5553.211224217                       0      -1875305.854076904      -1875305.854076904       1986     0.003984466416504887     0.05836236021645452
WARNING: Pair style restartinfo set but has no restart support (src/pair.cpp:754)
WARNING: Pair style restartinfo set but has no restart support (src/pair.cpp:754)
        40                    0.004                       0      -894.5664073786112          5696.083638089                       0      -1875305.854158435      -1875305.854158435       1986     0.002113755735658543     0.03394576045254781
        40                    0.004                       0      -894.5664073786112          5696.083638089                       0      -1875305.854158435      -1875305.854158435       1986     0.002113755735658543     0.03394576045254781
WARNING: Pair style restartinfo set but has no restart support (src/pair.cpp:754)
WARNING: Pair style restartinfo set but has no restart support (src/pair.cpp:754)
        41                   0.0041                       0      -897.9111369205064       5838.267873723999                       0       -1875305.85420046       -1875305.85420046       1986     0.003001237187965073     0.03582673507560512
        41                   0.0041                       0      -897.9111369205064       5838.267873723999                       0       -1875305.85420046       -1875305.85420046       1986     0.003001237187965073     0.03582673507560512
WARNING: Pair style restartinfo set but has no restart support (src/pair.cpp:754)
WARNING: Pair style restartinfo set but has no restart support (src/pair.cpp:754)
        42     0.004200000000000001                       0      -901.9736153324649          5981.747775071                       0      -1875305.854244515      -1875305.854244515       1986     0.001648712987930437     0.02634950850569451
        42     0.004200000000000001                       0      -901.9736153324649          5981.747775071                       0      -1875305.854244515      -1875305.854244515       1986     0.001648712987930437     0.02634950850569451
WARNING: Pair style restartinfo set but has no restart support (src/pair.cpp:754)
WARNING: Pair style restartinfo set but has no restart support (src/pair.cpp:754)
        43                   0.0043                       0      -900.8538501607097          6124.397282942                       0      -1875305.854270885      -1875305.854270885       1986      0.00240491255314805     0.03002623772756464
        43                   0.0043                       0      -900.8538501607097          6124.397282942                       0      -1875305.854270885      -1875305.854270885       1986      0.00240491255314805     0.03002623772756464
WARNING: Pair style restartinfo set but has no restart support (src/pair.cpp:754)
WARNING: Pair style restartinfo set but has no restart support (src/pair.cpp:754)
        44                   0.0044                       0      -898.5966025560219          6266.703072876                       0      -1875305.854307931      -1875305.854307931       1986     0.002075448715677382     0.02619304934518097
        44                   0.0044                       0      -898.5966025560219          6266.703072876                       0      -1875305.854307931      -1875305.854307931       1986     0.002075448715677382     0.02619304934518097
WARNING: Pair style restartinfo set but has no restart support (src/pair.cpp:754)
WARNING: Pair style restartinfo set but has no restart support (src/pair.cpp:754)
        45     0.004500000000000001                       0      -901.4445766690508          6409.591277443                       0      -1875305.854332139      -1875305.854332139       1986     0.001875047550028974     0.02534122005744612
        45     0.004500000000000001                       0      -901.4445766690508          6409.591277443                       0      -1875305.854332139      -1875305.854332139       1986     0.001875047550028974     0.02534122005744612
WARNING: Pair style restartinfo set but has no restart support (src/pair.cpp:754)
WARNING: Pair style restartinfo set but has no restart support (src/pair.cpp:754)
        46                   0.0046                       0      -905.6602701348542       6552.668074681999                       0      -1875305.854353541      -1875305.854353541       1986     0.001113575831865031     0.01987678734674131
        46                   0.0046                       0      -905.6602701348542       6552.668074681999                       0      -1875305.854353541      -1875305.854353541       1986     0.001113575831865031     0.01987678734674131
WARNING: Pair style restartinfo set but has no restart support (src/pair.cpp:754)
WARNING: Pair style restartinfo set but has no restart support (src/pair.cpp:754)
        47                   0.0047                       0       -905.776667764737       6695.136777420999                       0       -1875305.85436681       -1875305.85436681       1986      0.00143541217205984     0.01932700916792076
        47                   0.0047                       0       -905.776667764737       6695.136777420999                       0       -1875305.85436681       -1875305.85436681       1986      0.00143541217205984     0.01932700916792076
WARNING: Pair style restartinfo set but has no restart support (src/pair.cpp:754)
WARNING: Pair style restartinfo set but has no restart support (src/pair.cpp:754)
        48                   0.0048                       0      -903.9551287388344          6838.086414157                       0      -1875305.854380378      -1875305.854380378       1986    0.0008352783861883544     0.01394311077517815
        48                   0.0048                       0      -903.9551287388344          6838.086414157                       0      -1875305.854380378      -1875305.854380378       1986    0.0008352783861883544     0.01394311077517815
WARNING: Pair style restartinfo set but has no restart support (src/pair.cpp:754)
WARNING: Pair style restartinfo set but has no restart support (src/pair.cpp:754)
        49                   0.0049                       0      -904.4956485338739          6980.601164354                       0      -1875305.854386107      -1875305.854386107       1986    0.0008582100739801707     0.01247147895970718
        49                   0.0049                       0      -904.4956485338739          6980.601164354                       0      -1875305.854386107      -1875305.854386107       1986    0.0008582100739801707     0.01247147895970718
WARNING: Pair style restartinfo set but has no restart support (src/pair.cpp:754)
WARNING: Pair style restartinfo set but has no restart support (src/pair.cpp:754)
        50                    0.005                       0      -906.5251795328431       7123.722557526999                       0      -1875305.854392342      -1875305.854392342       1986     0.001043772924544481     0.01121306553625047
        50                    0.005                       0      -906.5251795328431       7123.722557526999                       0      -1875305.854392342      -1875305.854392342       1986     0.001043772924544481     0.01121306553625047
WARNING: Pair style restartinfo set but has no restart support (src/pair.cpp:754)
WARNING: Pair style restartinfo set but has no restart support (src/pair.cpp:754)
        51                   0.0051                       0      -906.9276589041672          7266.376833026                       0      -1875305.854396071      -1875305.854396071       1986    0.0005753369891179854     0.00992756045254508
        51                   0.0051                       0      -906.9276589041672          7266.376833026                       0      -1875305.854396071      -1875305.854396071       1986    0.0005753369891179854     0.00992756045254508
WARNING: Pair style restartinfo set but has no restart support (src/pair.cpp:754)
WARNING: Pair style restartinfo set but has no restart support (src/pair.cpp:754)
        52     0.005200000000000001                       0      -905.7314466888827          7408.275065694                       0       -1875305.85440135       -1875305.85440135       1986    0.0007784507169153305     0.01129517093825584
        52     0.005200000000000001                       0      -905.7314466888827          7408.275065694                       0       -1875305.85440135       -1875305.85440135       1986    0.0007784507169153305     0.01129517093825584
WARNING: Pair style restartinfo set but has no restart support (src/pair.cpp:754)
WARNING: Pair style restartinfo set but has no restart support (src/pair.cpp:754)
        53                   0.0053                       0      -905.6954078481947          7551.119036716                       0      -1875305.854405625      -1875305.854405625       1986     0.000993796620137103     0.01152648482767126
        53                   0.0053                       0      -905.6954078481947          7551.119036716                       0      -1875305.854405625      -1875305.854405625       1986     0.000993796620137103     0.01152648482767126
WARNING: Pair style restartinfo set but has no restart support (src/pair.cpp:754)
WARNING: Pair style restartinfo set but has no restart support (src/pair.cpp:754)
        54                   0.0054                       0      -907.8238787973052          7694.198158746                       0      -1875305.854412561      -1875305.854412561       1986    0.0009372635306925679     0.01276817266865028
        54                   0.0054                       0      -907.8238787973052          7694.198158746                       0      -1875305.854412561      -1875305.854412561       1986    0.0009372635306925679     0.01276817266865028
WARNING: Pair style restartinfo set but has no restart support (src/pair.cpp:754)
WARNING: Pair style restartinfo set but has no restart support (src/pair.cpp:754)
        55     0.005500000000000001                       0       -908.768559889074           7836.50121725                       0      -1875305.854417543      -1875305.854417543       1986    0.0007255712121562658     0.01054630874816185
        55     0.005500000000000001                       0       -908.768559889074           7836.50121725                       0      -1875305.854417543      -1875305.854417543       1986    0.0007255712121562658     0.01054630874816185
WARNING: Pair style restartinfo set but has no restart support (src/pair.cpp:754)
WARNING: Pair style restartinfo set but has no restart support (src/pair.cpp:754)
        56                   0.0056                       0      -907.9877488645486          7978.824946692                       0      -1875305.854422132      -1875305.854422132       1986    0.0007367831267460647    0.009896689028083777
        56                   0.0056                       0      -907.9877488645486          7978.824946692                       0      -1875305.854422132      -1875305.854422132       1986    0.0007367831267460647    0.009896689028083777
WARNING: Pair style restartinfo set but has no restart support (src/pair.cpp:754)
WARNING: Pair style restartinfo set but has no restart support (src/pair.cpp:754)
        57                   0.0057                       0      -907.6556602230295       8121.605546049001                       0       -1875305.85442464       -1875305.85442464       1986    0.0004551473946490051    0.006989228869244771
        57                   0.0057                       0      -907.6556602230295       8121.605546049001                       0       -1875305.85442464       -1875305.85442464       1986    0.0004551473946490051    0.006989228869244771
WARNING: Pair style restartinfo set but has no restart support (src/pair.cpp:754)
WARNING: Pair style restartinfo set but has no restart support (src/pair.cpp:754)
        58                   0.0058                       0      -908.4200046174678           8265.18368914                       0      -1875305.854426866      -1875305.854426866       1986    0.0005793860288260142    0.008012528646392583
        58                   0.0058                       0      -908.4200046174678           8265.18368914                       0      -1875305.854426866      -1875305.854426866       1986    0.0005793860288260142    0.008012528646392583
WARNING: Pair style restartinfo set but has no restart support (src/pair.cpp:754)
WARNING: Pair style restartinfo set but has no restart support (src/pair.cpp:754)
        59                   0.0059                       0      -909.1266479512406          8408.473571876                       0      -1875305.854428975      -1875305.854428975       1986     0.000380927098943889    0.006587685546965331
        59                   0.0059                       0      -909.1266479512406          8408.473571876                       0      -1875305.854428975      -1875305.854428975       1986     0.000380927098943889    0.006587685546965331
WARNING: Pair style restartinfo set but has no restart support (src/pair.cpp:754)
WARNING: Pair style restartinfo set but has no restart support (src/pair.cpp:754)
        60                    0.006                       0      -908.7009572122147       8550.849833529001                       0      -1875305.854431171      -1875305.854431171       1986    0.0006392153814810042    0.007970927384072291
        60                    0.006                       0      -908.7009572122147       8550.849833529001                       0      -1875305.854431171      -1875305.854431171       1986    0.0006392153814810042    0.007970927384072291
WARNING: Pair style restartinfo set but has no restart support (src/pair.cpp:754)
WARNING: Pair style restartinfo set but has no restart support (src/pair.cpp:754)
        61                   0.0061                       0      -908.2953104900029       8694.257283146999                       0      -1875305.854432972      -1875305.854432972       1986    0.0004424474784631462    0.005672850110851641
        61                   0.0061                       0      -908.2953104900029       8694.257283146999                       0      -1875305.854432972      -1875305.854432972       1986    0.0004424474784631462    0.005672850110851641
WARNING: Pair style restartinfo set but has no restart support (src/pair.cpp:754)
WARNING: Pair style restartinfo set but has no restart support (src/pair.cpp:754)
        62     0.006200000000000001                       0       -908.657130117479          8836.528908295                       0      -1875305.854434185      -1875305.854434185       1986    0.0005363166230639238    0.005745984673788989
        62     0.006200000000000001                       0       -908.657130117479          8836.528908295                       0      -1875305.854434185      -1875305.854434185       1986    0.0005363166230639238    0.005745984673788989
WARNING: Pair style restartinfo set but has no restart support (src/pair.cpp:754)
WARNING: Pair style restartinfo set but has no restart support (src/pair.cpp:754)
        63                   0.0063                       0      -909.1621369387066       8978.861146572999                       0      -1875305.854435356      -1875305.854435356       1986    0.0003907014399814161    0.004845657950791302
        63                   0.0063                       0      -909.1621369387066       8978.861146572999                       0      -1875305.854435356      -1875305.854435356       1986    0.0003907014399814161    0.004845657950791302
WARNING: Pair style restartinfo set but has no restart support (src/pair.cpp:754)
WARNING: Pair style restartinfo set but has no restart support (src/pair.cpp:754)
        64                   0.0064                       0      -908.9676976951564       9120.521284274999                       0      -1875305.854436453      -1875305.854436453       1986    0.0004215015742634297    0.005978369371464381
        64                   0.0064                       0      -908.9676976951564       9120.521284274999                       0      -1875305.854436453      -1875305.854436453       1986    0.0004215015742634297    0.005978369371464381
WARNING: Pair style restartinfo set but has no restart support (src/pair.cpp:754)
WARNING: Pair style restartinfo set but has no restart support (src/pair.cpp:754)
        65     0.006500000000000001                       0      -908.4816848134093       9262.528745486999                       0      -1875305.854437742      -1875305.854437742       1986    0.0003322302650559899    0.005382862822726082
        65     0.006500000000000001                       0      -908.4816848134093       9262.528745486999                       0      -1875305.854437742      -1875305.854437742       1986    0.0003322302650559899    0.005382862822726082
WARNING: Pair style restartinfo set but has no restart support (src/pair.cpp:754)
WARNING: Pair style restartinfo set but has no restart support (src/pair.cpp:754)
        66                   0.0066                       0      -908.4881727833241       9404.649790178999                       0      -1875305.854438947      -1875305.854438947       1986    0.0005722950254767518    0.006256778239318862
        66                   0.0066                       0      -908.4881727833241       9404.649790178999                       0      -1875305.854438947      -1875305.854438947       1986    0.0005722950254767518    0.006256778239318862
WARNING: Pair style restartinfo set but has no restart support (src/pair.cpp:754)
WARNING: Pair style restartinfo set but has no restart support (src/pair.cpp:754)
        67                   0.0067                       0       -908.895221361206          9546.477714547                       0      -1875305.854440561      -1875305.854440561       1986    0.0003550300846158483    0.004868513806256529
        67                   0.0067                       0       -908.895221361206          9546.477714547                       0      -1875305.854440561      -1875305.854440561       1986    0.0003550300846158483    0.004868513806256529
WARNING: Pair style restartinfo set but has no restart support (src/pair.cpp:754)
WARNING: Pair style restartinfo set but has no restart support (src/pair.cpp:754)
        68                   0.0068                       0      -908.8254729866552          9688.891855431                       0      -1875305.854441312      -1875305.854441312       1986    0.0003305227282834291    0.004614359334702509
        68                   0.0068                       0      -908.8254729866552          9688.891855431                       0      -1875305.854441312      -1875305.854441312       1986    0.0003305227282834291    0.004614359334702509
WARNING: Pair style restartinfo set but has no restart support (src/pair.cpp:754)
WARNING: Pair style restartinfo set but has no restart support (src/pair.cpp:754)
        69     0.006900000000000001                       0      -908.5376732229274           9830.98771403                       0       -1875305.85444203       -1875305.85444203       1986    0.0002049758271948331    0.003244561718054604
        69     0.006900000000000001                       0      -908.5376732229274           9830.98771403                       0       -1875305.85444203       -1875305.85444203       1986    0.0002049758271948331    0.003244561718054604
WARNING: Pair style restartinfo set but has no restart support (src/pair.cpp:754)
WARNING: Pair style restartinfo set but has no restart support (src/pair.cpp:754)
        70                    0.007                       0      -908.5086839058657       9973.001958822999                       0      -1875305.854442302      -1875305.854442302       1986    0.0001912012309272178     0.00255626789790147
        70                    0.007                       0      -908.5086839058657       9973.001958822999                       0      -1875305.854442302      -1875305.854442302       1986    0.0001912012309272178     0.00255626789790147
WARNING: Pair style restartinfo set but has no restart support (src/pair.cpp:754)
WARNING: Pair style restartinfo set but has no restart support (src/pair.cpp:754)
        71                   0.0071                       0      -908.6421278175374         10115.100333716                       0      -1875305.854442602      -1875305.854442602       1986     0.000201663676228876    0.002506284250256774
        71                   0.0071                       0      -908.6421278175374         10115.100333716                       0      -1875305.854442602      -1875305.854442602       1986     0.000201663676228876    0.002506284250256774
WARNING: Pair style restartinfo set but has no restart support (src/pair.cpp:754)
WARNING: Pair style restartinfo set but has no restart support (src/pair.cpp:754)
        72     0.007200000000000001                       0      -908.6434670645548         10257.620187294                       0      -1875305.854442797      -1875305.854442797       1986    0.0002144469575515694    0.002240087512254767
        72     0.007200000000000001                       0      -908.6434670645548         10257.620187294                       0      -1875305.854442797      -1875305.854442797       1986    0.0002144469575515694    0.002240087512254767
WARNING: Pair style restartinfo set but has no restart support (src/pair.cpp:754)
WARNING: Pair style restartinfo set but has no restart support (src/pair.cpp:754)
        73                   0.0073                       0      -908.4777364371287         10399.984883059                       0      -1875305.854443025      -1875305.854443025       1986    0.0001839242897430128    0.002270240251014066
        73                   0.0073                       0      -908.4777364371287         10399.984883059                       0      -1875305.854443025      -1875305.854443025       1986    0.0001839242897430128    0.002270240251014066
WARNING: Pair style restartinfo set but has no restart support (src/pair.cpp:754)
WARNING: Pair style restartinfo set but has no restart support (src/pair.cpp:754)
        74                   0.0074                       0      -908.4243677675443         10542.895719846                       0      -1875305.854443163      -1875305.854443163       1986    0.0001583143241899732    0.001706628319083565
        74                   0.0074                       0      -908.4243677675443         10542.895719846                       0      -1875305.854443163      -1875305.854443163       1986    0.0001583143241899732    0.001706628319083565
WARNING: Pair style restartinfo set but has no restart support (src/pair.cpp:754)
WARNING: Pair style restartinfo set but has no restart support (src/pair.cpp:754)
        75     0.007500000000000001                       0      -908.5072251504407         10685.452575548                       0       -1875305.85444329       -1875305.85444329       1986    0.0001273396138709299    0.001744605048545909
        75     0.007500000000000001                       0      -908.5072251504407         10685.452575548                       0       -1875305.85444329       -1875305.85444329       1986    0.0001273396138709299    0.001744605048545909
WARNING: Pair style restartinfo set but has no restart support (src/pair.cpp:754)
WARNING: Pair style restartinfo set but has no restart support (src/pair.cpp:754)
        76                   0.0076                       0      -908.5458698088669         10828.000790566                       0      -1875305.854443397      -1875305.854443397       1986    0.0001921033631142044    0.001742871776030074
        76                   0.0076                       0      -908.5458698088669         10828.000790566                       0      -1875305.854443397      -1875305.854443397       1986    0.0001921033631142044    0.001742871776030074
WARNING: Pair style restartinfo set but has no restart support (src/pair.cpp:754)
WARNING: Pair style restartinfo set but has no restart support (src/pair.cpp:754)
        77                   0.0077                       0      -908.4388506287747         10970.761402122                       0      -1875305.854443561      -1875305.854443561       1986    0.0001526837006952002    0.002055554177683143
        77                   0.0077                       0      -908.4388506287747         10970.761402122                       0      -1875305.854443561      -1875305.854443561       1986    0.0001526837006952002    0.002055554177683143
WARNING: Pair style restartinfo set but has no restart support (src/pair.cpp:754)
WARNING: Pair style restartinfo set but has no restart support (src/pair.cpp:754)
        78     0.007800000000000001                       0      -908.3650084438044         11113.220488325                       0      -1875305.854443672      -1875305.854443672       1986    0.0001590038145536932    0.001461856565998492
        78     0.007800000000000001                       0      -908.3650084438044         11113.220488325                       0      -1875305.854443672      -1875305.854443672       1986    0.0001590038145536932    0.001461856565998492
WARNING: Pair style restartinfo set but has no restart support (src/pair.cpp:754)
WARNING: Pair style restartinfo set but has no restart support (src/pair.cpp:754)
        79     0.007900000000000001                       0      -908.3958986353705         11256.298321758                       0      -1875305.854443769      -1875305.854443769       1986    0.0001151642978289497    0.001540559505331447
        79     0.007900000000000001                       0      -908.3958986353705         11256.298321758                       0      -1875305.854443769      -1875305.854443769       1986    0.0001151642978289497    0.001540559505331447
WARNING: Pair style restartinfo set but has no restart support (src/pair.cpp:754)
WARNING: Pair style restartinfo set but has no restart support (src/pair.cpp:754)
        80                    0.008                       0      -908.4224036377233         11399.908185325                       0      -1875305.854443835      -1875305.854443835       1986    7.555395816533008e-05    0.001075909929387882
        80                    0.008                       0      -908.4224036377233         11399.908185325                       0      -1875305.854443835      -1875305.854443835       1986    7.555395816533008e-05    0.001075909929387882
WARNING: Pair style restartinfo set but has no restart support (src/pair.cpp:754)
WARNING: Pair style restartinfo set but has no restart support (src/pair.cpp:754)
        81                   0.0081                       0      -908.3928212754809         11542.673323397                       0      -1875305.854443882      -1875305.854443882       1986    7.367869095087787e-05     0.00111530182923264
        81                   0.0081                       0      -908.3928212754809         11542.673323397                       0      -1875305.854443882      -1875305.854443882       1986    7.367869095087787e-05     0.00111530182923264
WARNING: Pair style restartinfo set but has no restart support (src/pair.cpp:754)
WARNING: Pair style restartinfo set but has no restart support (src/pair.cpp:754)
        82     0.008200000000000001                       0      -908.3610740003304         11820.702029516                       0      -1875305.854443921      -1875305.854443921       1986    4.785484584351172e-05   0.0008661565115000797
        82     0.008200000000000001                       0      -908.3610740003304         11820.702029516                       0      -1875305.854443921      -1875305.854443921       1986    4.785484584351172e-05   0.0008661565115000797
Loop time of 11820.7 on 48 procs for 82 steps with 1986 atoms

Loop time of 11820.7 on 48 procs for 82 steps with 1986 atoms

517.5% CPU use with 4 MPI tasks x 12 OpenMP threads
517.5% CPU use with 4 MPI tasks x 12 OpenMP threads

Minimization stats:
  Stopping criterion = force tolerance
  Energy initial, next-to-last, final = 
     -1875278.98200174  -1875305.85444388  -1875305.85444392
  Force two-norm initial, final = 38.0358 0.00086615651
  Force max component initial, final = 1.460009 4.7854846e-05
  Final line search alpha, max atom move = 1 4.7854846e-05
  Iterations, force evaluations = 82 164

Minimization stats:
  Stopping criterion = force tolerance
  Energy initial, next-to-last, final = 
     -1875278.98200174  -1875305.85444388  -1875305.85444392
  Force two-norm initial, final = 38.0358 0.00086615651
  Force max component initial, final = 1.460009 4.7854846e-05
  Final line search alpha, max atom move = 1 4.7854846e-05
  Iterations, force evaluations = 82 164

MPI task timing breakdown:
Section |  min time  |  avg time  |  max time  |%varavg| %total
---------------------------------------------------------------

MPI task timing breakdown:
Section |  min time  |  avg time  |  max time  |%varavg| %total
---------------------------------------------------------------
Pair    | 11629      | 11668      | 11720      |  32.4 | 98.71
Pair    | 11629      | 11668      | 11720      |  32.4 | 98.71
Neigh   | 5.5649     | 5.5739     | 5.5916     |   0.4 |  0.05
Neigh   | 5.5649     | 5.5739     | 5.5916     |   0.4 |  0.05
Comm    | 30.403     | 82.484     | 121.42     | 384.8 |  0.70
Comm    | 30.403     | 82.484     | 121.42     | 384.8 |  0.70
Output  | 0.079638   | 0.079783   | 0.080214   |   0.1 |  0.00
Output  | 0.079638   | 0.079783   | 0.080214   |   0.1 |  0.00
Modify  | 0          | 0          | 0          |   0.0 |  0.00
Modify  | 0          | 0          | 0          |   0.0 |  0.00
Other   |            | 64.76      |            |       |  0.55
Other   |            | 64.76      |            |       |  0.55

Nlocal:          496.5 ave         513 max         481 min
Histogram: 2 0 0 0 0 0 0 0 0 2
Nghost:         5375.5 ave        5405 max        5345 min
Histogram: 2 0 0 0 0 0 0 0 0 2
Neighs:              0 ave           0 max           0 min
Histogram: 4 0 0 0 0 0 0 0 0 0
FullNghs:       320013 ave      330968 max      309908 min
Histogram: 2 0 0 0 0 0 0 0 0 2

Nlocal:          496.5 ave         513 max         481 min
Histogram: 2 0 0 0 0 0 0 0 0 2
Nghost:         5375.5 ave        5405 max        5345 min
Histogram: 2 0 0 0 0 0 0 0 0 2
Neighs:              0 ave           0 max           0 min
Histogram: 4 0 0 0 0 0 0 0 0 0
FullNghs:       320013 ave      330968 max      309908 min
Histogram: 2 0 0 0 0 0 0 0 0 2


Total # of neighbors = 1280052
Ave neighs/atom = 644.53776
Neighbor list builds = 165
Dangerous builds = 0
Total # of neighbors = 1280052
Ave neighs/atom = 644.53776
Neighbor list builds = 165
Dangerous builds = 0
write_dump all xyz /home/theory/phrrpq/bilayer_relaxations/WS2_WS2/AP/10/WS2_WS2_AP_10.xyz modify sort id pbc yes element W S

Total wall time: 3:19:23
Total wall time: 3:19:23
