OMP_THREADS: 12
MPI: 1
NTASKS-PER-NODE: 4
CPUS_PER_TASK: 12
LAMMPS (28 Mar 2023 - Development)
  using 12 OpenMP thread(s) per MPI task
  using 12 OpenMP thread(s) per MPI task
Reading data file ...
  triclinic box = (0 0 0) to (89.223971 77.270225 30) with tilt (-44.611985 0 0)
WARNING: Triclinic box skew is large. LAMMPS will run inefficiently. (src/domain.cpp:220)
  2 by 2 by 1 MPI processor grid
  reading atoms ...
  4326 atoms
  read_data CPU = 0.029 seconds
CUDA unavailable, setting device type to torch::kCPU.
CUDA unavailable, setting device type to torch::kCPU.
CUDA unavailable, setting device type to torch::kCPU.
CUDA unavailable, setting device type to torch::kCPU.
Loading MACE model from "/home/theory/phrrpq/bilayer_relaxations/MoWSSe_bi_radius_8_reduced_all_1_swa_800_run-123_swa.model-lammps.pt" ... finished.
Loading MACE model from "/home/theory/phrrpq/bilayer_relaxations/MoWSSe_bi_radius_8_reduced_all_1_swa_800_run-123_swa.model-lammps.pt" ... finished.
  - The torch_float_dtype is: Double
  - The torch_float_dtype is: Double
Loading MACE model from "/home/theory/phrrpq/bilayer_relaxations/MoWSSe_bi_radius_8_reduced_all_1_swa_800_run-123_swa.model-lammps.pt" ... finished.
  - The r_max is: 8.
  - The r_max is: 8.
  - The model has: 2 layers.
  - The model has: 2 layers.
  - The model atomic numbers are: 16 34 42 74.
  - The pair_coeff atomic numbers are: 74 34.
  - The model atomic numbers are: 16 34 42 74.
  - The pair_coeff atomic numbers are: 74 34.
  - The torch_float_dtype is: Double
  - The r_max is: 8.
  - The model has: 2 layers.
  - The model atomic numbers are: 16 34 42 74.
  - The pair_coeff atomic numbers are: 74 34.
Loading MACE model from "/home/theory/phrrpq/bilayer_relaxations/MoWSSe_bi_radius_8_reduced_all_1_swa_800_run-123_swa.model-lammps.pt" ... finished.
Generated 0 of 1 mixed pair_coeff terms from geometric mixing rule
  - The torch_float_dtype is: Double
  - The r_max is: 8.
  - The model has: 2 layers.
  - The model atomic numbers are: 16 34 42 74.
  - The pair_coeff atomic numbers are: 74 34.
Neighbor list info ...
  update: every = 1 steps, delay = 0 steps, check = yes
  max neighbors/atom: 2000, page size: 100000
  master list distance cutoff = 18
  ghost atom cutoff = 18
  binsize = 9, bins = 15 9 4
  1 neighbor lists, perpetual/occasional/extra = 1 0 0
  (1) pair mace, perpetual
      attributes: full, newton on, ghost
      pair build: full/bin/ghost
      stencil: full/ghost/bin/3d
      bin: standard
Setting up Verlet run ...
  Unit style    : metal
  Current step  : 0
  Time step     : 0.0001
Per MPI rank memory allocation (min/avg/max) = 28.2 | 28.2 | 28.2 Mbytes
   Step          Time           CPU           TotEng          Fmax          Fnorm     
         0                        0                       0      -4853196.432039108      0.9265307720511886       35.57223444214443
Loop time of 2.6085e-06 on 48 procs for 0 steps with 4326 atoms

86.3% CPU use with 4 MPI tasks x 12 OpenMP threads

MPI task timing breakdown:
Section |  min time  |  avg time  |  max time  |%varavg| %total
---------------------------------------------------------------
Pair    | 0          | 0          | 0          |   0.0 |  0.00
Neigh   | 0          | 0          | 0          |   0.0 |  0.00
Comm    | 0          | 0          | 0          |   0.0 |  0.00
Output  | 0          | 0          | 0          |   0.0 |  0.00
Modify  | 0          | 0          | 0          |   0.0 |  0.00
Other   |            | 2.609e-06  |            |       |100.00

Nlocal:         1081.5 ave        1107 max        1056 min
Histogram: 2 0 0 0 0 0 0 0 0 2
Nghost:           6986 ave        7010 max        6963 min
Histogram: 2 0 0 0 0 0 0 0 0 2
Neighs:              0 ave           0 max           0 min
Histogram: 4 0 0 0 0 0 0 0 0 0
FullNghs:       638828 ave      653893 max      624036 min
Histogram: 2 0 0 0 0 0 0 0 0 2

Total # of neighbors = 2555310
Ave neighs/atom = 590.68655
Neighbor list builds = 0
Dangerous builds = 0
BEGIN LAMMPS STANDALONE MINIMIZATION; ii = 15; OMP = 12; MPI = 4
minimize 0.0 1e-3 1000 100000
Generated 0 of 1 mixed pair_coeff terms from geometric mixing rule
Generated 0 of 1 mixed pair_coeff terms from geometric mixing rule
Setting up cg style minimization ...
  Unit style    : metal
  Current step  : 0
Per MPI rank memory allocation (min/avg/max) = 29.33 | 29.33 | 29.33 Mbytes
Per MPI rank memory allocation (min/avg/max) = 29.33 | 29.33 | 29.33 Mbytes
   Step          Time           CPU           TotEng          Fmax          Fnorm     
   Step          Time           CPU           TotEng          Fmax          Fnorm     
         0                        0                       0      -4853196.432039108      0.9265307720511885       35.57223444214451
         0                        0                       0      -4853196.432039108      0.9265307720511885       35.57223444214451
WARNING: Pair style restartinfo set but has no restart support (src/pair.cpp:754)
WARNING: Pair style restartinfo set but has no restart support (src/pair.cpp:754)
         1                   0.0001           194.092323635       -4853222.66051212      0.2838523416934337       7.401384118607427
         1                   0.0001           194.092323635       -4853222.66051212      0.2838523416934337       7.401384118607427
WARNING: Pair style restartinfo set but has no restart support (src/pair.cpp:754)
WARNING: Pair style restartinfo set but has no restart support (src/pair.cpp:754)
         2                   0.0002           389.601934149      -4853227.724246508      0.6773524781109741       13.38146678025207
         2                   0.0002           389.601934149      -4853227.724246508      0.6773524781109741       13.38146678025207
WARNING: Pair style restartinfo set but has no restart support (src/pair.cpp:754)
WARNING: Pair style restartinfo set but has no restart support (src/pair.cpp:754)
         3                   0.0003           583.774701323      -4853235.620378723      0.6270214641071451       15.54546137380688
         3                   0.0003           583.774701323      -4853235.620378723      0.6270214641071451       15.54546137380688
WARNING: Pair style restartinfo set but has no restart support (src/pair.cpp:754)
WARNING: Pair style restartinfo set but has no restart support (src/pair.cpp:754)
         4                   0.0004           681.058468481      -4853246.802849729      0.2009389815494924       7.488605431607766
         4                   0.0004           681.058468481      -4853246.802849729      0.2009389815494924       7.488605431607766
WARNING: Pair style restartinfo set but has no restart support (src/pair.cpp:754)
WARNING: Pair style restartinfo set but has no restart support (src/pair.cpp:754)
         5                   0.0005       874.8016563460001      -4853248.877596058      0.2329376868578003       7.277944994281631
         5                   0.0005       874.8016563460001      -4853248.877596058      0.2329376868578003       7.277944994281631
WARNING: Pair style restartinfo set but has no restart support (src/pair.cpp:754)
WARNING: Pair style restartinfo set but has no restart support (src/pair.cpp:754)
         6    0.0006000000000000001          1068.091925353      -4853250.103235185     0.07680493951956799       2.982567452170896
         6    0.0006000000000000001          1068.091925353      -4853250.103235185     0.07680493951956799       2.982567452170896
WARNING: Pair style restartinfo set but has no restart support (src/pair.cpp:754)
WARNING: Pair style restartinfo set but has no restart support (src/pair.cpp:754)
         7                   0.0007          1261.501863089      -4853250.873478195      0.1083277198916156       4.122271250504348
         7                   0.0007          1261.501863089      -4853250.873478195      0.1083277198916156       4.122271250504348
WARNING: Pair style restartinfo set but has no restart support (src/pair.cpp:754)
WARNING: Pair style restartinfo set but has no restart support (src/pair.cpp:754)
         8                   0.0008          1453.885563232      -4853253.235801674      0.3210167723279229       9.564447415768011
         8                   0.0008          1453.885563232      -4853253.235801674      0.3210167723279229       9.564447415768011
WARNING: Pair style restartinfo set but has no restart support (src/pair.cpp:754)
WARNING: Pair style restartinfo set but has no restart support (src/pair.cpp:754)
         9    0.0009000000000000001          1645.658082423      -4853256.247634429      0.2357382082846888       5.955954373568093
         9    0.0009000000000000001          1645.658082423      -4853256.247634429      0.2357382082846888       5.955954373568093
WARNING: Pair style restartinfo set but has no restart support (src/pair.cpp:754)
WARNING: Pair style restartinfo set but has no restart support (src/pair.cpp:754)
        10                    0.001          1837.889157224      -4853257.072232055     0.08030882814800124       2.568339241634123
        10                    0.001          1837.889157224      -4853257.072232055     0.08030882814800124       2.568339241634123
WARNING: Pair style restartinfo set but has no restart support (src/pair.cpp:754)
WARNING: Pair style restartinfo set but has no restart support (src/pair.cpp:754)
        11                   0.0011          2028.540319824      -4853257.408911736     0.07238694744075479        1.52868784758943
        11                   0.0011          2028.540319824      -4853257.408911736     0.07238694744075479        1.52868784758943
WARNING: Pair style restartinfo set but has no restart support (src/pair.cpp:754)
WARNING: Pair style restartinfo set but has no restart support (src/pair.cpp:754)
        12                   0.0012          2220.799977713       -4853257.44755125     0.02001912659341801      0.5917946130398609
        12                   0.0012          2220.799977713       -4853257.44755125     0.02001912659341801      0.5917946130398609
WARNING: Pair style restartinfo set but has no restart support (src/pair.cpp:754)
WARNING: Pair style restartinfo set but has no restart support (src/pair.cpp:754)
        13                   0.0013          2412.470521904      -4853257.461406919     0.01579385144593156      0.4786004851486415
        13                   0.0013          2412.470521904      -4853257.461406919     0.01579385144593156      0.4786004851486415
WARNING: Pair style restartinfo set but has no restart support (src/pair.cpp:754)
WARNING: Pair style restartinfo set but has no restart support (src/pair.cpp:754)
        14                   0.0014          2603.084887342      -4853257.476784151     0.04199708778903325       0.855208828680079
        14                   0.0014          2603.084887342      -4853257.476784151     0.04199708778903325       0.855208828680079
WARNING: Pair style restartinfo set but has no restart support (src/pair.cpp:754)
WARNING: Pair style restartinfo set but has no restart support (src/pair.cpp:754)
        15                   0.0015          2794.593733446      -4853257.537135066     0.05735404208979955        1.50913841823335
        15                   0.0015          2794.593733446      -4853257.537135066     0.05735404208979955        1.50913841823335
WARNING: Pair style restartinfo set but has no restart support (src/pair.cpp:754)
WARNING: Pair style restartinfo set but has no restart support (src/pair.cpp:754)
        16                   0.0016          2986.818340337      -4853257.672950285     0.04650240719379856       1.457201093937723
        16                   0.0016          2986.818340337      -4853257.672950285     0.04650240719379856       1.457201093937723
WARNING: Pair style restartinfo set but has no restart support (src/pair.cpp:754)
WARNING: Pair style restartinfo set but has no restart support (src/pair.cpp:754)
        17                   0.0017          3178.705816251      -4853257.776756315      0.1008173888125311       1.491490842018117
        17                   0.0017          3178.705816251      -4853257.776756315      0.1008173888125311       1.491490842018117
WARNING: Pair style restartinfo set but has no restart support (src/pair.cpp:754)
WARNING: Pair style restartinfo set but has no restart support (src/pair.cpp:754)
        18                   0.0018          3369.936295525      -4853257.822773313     0.02583191945713141      0.7100381644977672
        18                   0.0018          3369.936295525      -4853257.822773313     0.02583191945713141      0.7100381644977672
WARNING: Pair style restartinfo set but has no restart support (src/pair.cpp:754)
WARNING: Pair style restartinfo set but has no restart support (src/pair.cpp:754)
        19                   0.0019          3561.045811435      -4853257.846426083      0.0276058991197038      0.4925945111728759
        19                   0.0019          3561.045811435      -4853257.846426083      0.0276058991197038      0.4925945111728759
WARNING: Pair style restartinfo set but has no restart support (src/pair.cpp:754)
WARNING: Pair style restartinfo set but has no restart support (src/pair.cpp:754)
        20                    0.002          3753.017261395      -4853257.851433695     0.01808339385983391      0.3499513693127331
        20                    0.002          3753.017261395      -4853257.851433695     0.01808339385983391      0.3499513693127331
WARNING: Pair style restartinfo set but has no restart support (src/pair.cpp:754)
WARNING: Pair style restartinfo set but has no restart support (src/pair.cpp:754)
        21                   0.0021          3945.772537553      -4853257.867877956     0.02707753336560646      0.7192611494549839
        21                   0.0021          3945.772537553      -4853257.867877956     0.02707753336560646      0.7192611494549839
WARNING: Pair style restartinfo set but has no restart support (src/pair.cpp:754)
WARNING: Pair style restartinfo set but has no restart support (src/pair.cpp:754)
        22                   0.0022          4138.068549453       -4853257.90365484     0.06544405896762905       1.164855842215084
        22                   0.0022          4138.068549453       -4853257.90365484     0.06544405896762905       1.164855842215084
WARNING: Pair style restartinfo set but has no restart support (src/pair.cpp:754)
WARNING: Pair style restartinfo set but has no restart support (src/pair.cpp:754)
        23                   0.0023          4330.608028406      -4853257.968299954     0.05300573875321272       1.110663977136537
        23                   0.0023          4330.608028406      -4853257.968299954     0.05300573875321272       1.110663977136537
WARNING: Pair style restartinfo set but has no restart support (src/pair.cpp:754)
WARNING: Pair style restartinfo set but has no restart support (src/pair.cpp:754)
        24                   0.0024          4523.573810645       -4853258.01084126     0.02477601288404715      0.5629475011927773
        24                   0.0024          4523.573810645       -4853258.01084126     0.02477601288404715      0.5629475011927773
WARNING: Pair style restartinfo set but has no restart support (src/pair.cpp:754)
WARNING: Pair style restartinfo set but has no restart support (src/pair.cpp:754)
        25                   0.0025          4716.163398369      -4853258.023214702     0.04177482937268945      0.5922699784752348
        25                   0.0025          4716.163398369      -4853258.023214702     0.04177482937268945      0.5922699784752348
WARNING: Pair style restartinfo set but has no restart support (src/pair.cpp:754)
WARNING: Pair style restartinfo set but has no restart support (src/pair.cpp:754)
        26                   0.0026           4908.51151409       -4853258.03264052     0.01402370473954831      0.3052801379495409
        26                   0.0026           4908.51151409       -4853258.03264052     0.01402370473954831      0.3052801379495409
WARNING: Pair style restartinfo set but has no restart support (src/pair.cpp:754)
WARNING: Pair style restartinfo set but has no restart support (src/pair.cpp:754)
        27                   0.0027       5101.698375399999      -4853258.038285393     0.02926074799194563      0.4672014833797093
        27                   0.0027       5101.698375399999      -4853258.038285393     0.02926074799194563      0.4672014833797093
WARNING: Pair style restartinfo set but has no restart support (src/pair.cpp:754)
WARNING: Pair style restartinfo set but has no restart support (src/pair.cpp:754)
        28                   0.0028          5294.222319257      -4853258.047285752     0.02006830072921244      0.4636703111913398
        28                   0.0028          5294.222319257      -4853258.047285752     0.02006830072921244      0.4636703111913398
WARNING: Pair style restartinfo set but has no restart support (src/pair.cpp:754)
WARNING: Pair style restartinfo set but has no restart support (src/pair.cpp:754)
        29                   0.0029       5486.153625987999      -4853258.064977379     0.05128913417477841      0.6205577539929582
        29                   0.0029       5486.153625987999      -4853258.064977379     0.05128913417477841      0.6205577539929582
WARNING: Pair style restartinfo set but has no restart support (src/pair.cpp:754)
WARNING: Pair style restartinfo set but has no restart support (src/pair.cpp:754)
        30                    0.003       5679.399283973999      -4853258.074491721     0.01545666426109574      0.3963419624657692
        30                    0.003       5679.399283973999      -4853258.074491721     0.01545666426109574      0.3963419624657692
WARNING: Pair style restartinfo set but has no restart support (src/pair.cpp:754)
WARNING: Pair style restartinfo set but has no restart support (src/pair.cpp:754)
        31                   0.0031          5871.966474417      -4853258.082681638      0.0301165260341479      0.4314503765334134
        31                   0.0031          5871.966474417      -4853258.082681638      0.0301165260341479      0.4314503765334134
WARNING: Pair style restartinfo set but has no restart support (src/pair.cpp:754)
WARNING: Pair style restartinfo set but has no restart support (src/pair.cpp:754)
        32                   0.0032          6064.326295168      -4853258.088117432     0.01931693794494706      0.2794603599051259
        32                   0.0032          6064.326295168      -4853258.088117432     0.01931693794494706      0.2794603599051259
WARNING: Pair style restartinfo set but has no restart support (src/pair.cpp:754)
WARNING: Pair style restartinfo set but has no restart support (src/pair.cpp:754)
        33                   0.0033          6256.387017289      -4853258.090717291      0.0117821440501417      0.2525908661450822
        33                   0.0033          6256.387017289      -4853258.090717291      0.0117821440501417      0.2525908661450822
WARNING: Pair style restartinfo set but has no restart support (src/pair.cpp:754)
WARNING: Pair style restartinfo set but has no restart support (src/pair.cpp:754)
        34                   0.0034          6449.349834381      -4853258.094210519     0.01850056881047682      0.2915110635455583
        34                   0.0034          6449.349834381      -4853258.094210519     0.01850056881047682      0.2915110635455583
WARNING: Pair style restartinfo set but has no restart support (src/pair.cpp:754)
WARNING: Pair style restartinfo set but has no restart support (src/pair.cpp:754)
        35                   0.0035           6642.16097971      -4853258.097234761     0.01653057249249004      0.2686374606550162
        35                   0.0035           6642.16097971      -4853258.097234761     0.01653057249249004      0.2686374606550162
WARNING: Pair style restartinfo set but has no restart support (src/pair.cpp:754)
WARNING: Pair style restartinfo set but has no restart support (src/pair.cpp:754)
        36                   0.0036          6834.514980614      -4853258.100201617     0.01379099270098422      0.2073464378670888
        36                   0.0036          6834.514980614      -4853258.100201617     0.01379099270098422      0.2073464378670888
WARNING: Pair style restartinfo set but has no restart support (src/pair.cpp:754)
WARNING: Pair style restartinfo set but has no restart support (src/pair.cpp:754)
        37                   0.0037           7026.82329926      -4853258.101442373    0.009238040014977354      0.1851116100738566
        37                   0.0037           7026.82329926      -4853258.101442373    0.009238040014977354      0.1851116100738566
WARNING: Pair style restartinfo set but has no restart support (src/pair.cpp:754)
WARNING: Pair style restartinfo set but has no restart support (src/pair.cpp:754)
        38                   0.0038          7218.637367724      -4853258.104089226     0.01290716981794946      0.2321669039875772
        38                   0.0038          7218.637367724      -4853258.104089226     0.01290716981794946      0.2321669039875772
WARNING: Pair style restartinfo set but has no restart support (src/pair.cpp:754)
WARNING: Pair style restartinfo set but has no restart support (src/pair.cpp:754)
        39                   0.0039           7411.07398474      -4853258.105568152     0.01108624134428037      0.1881585285161893
        39                   0.0039           7411.07398474      -4853258.105568152     0.01108624134428037      0.1881585285161893
WARNING: Pair style restartinfo set but has no restart support (src/pair.cpp:754)
WARNING: Pair style restartinfo set but has no restart support (src/pair.cpp:754)
        40                    0.004          7603.304134536      -4853258.107795891     0.01240381303465319      0.2148331210862725
        40                    0.004          7603.304134536      -4853258.107795891     0.01240381303465319      0.2148331210862725
WARNING: Pair style restartinfo set but has no restart support (src/pair.cpp:754)
WARNING: Pair style restartinfo set but has no restart support (src/pair.cpp:754)
        41                   0.0041          7795.819977253      -4853258.109169916    0.009097872519997578       0.174215546125258
        41                   0.0041          7795.819977253      -4853258.109169916    0.009097872519997578       0.174215546125258
WARNING: Pair style restartinfo set but has no restart support (src/pair.cpp:754)
WARNING: Pair style restartinfo set but has no restart support (src/pair.cpp:754)
        42     0.004200000000000001          7988.356264541      -4853258.110570998     0.01345202062209427      0.1541777778797282
        42     0.004200000000000001          7988.356264541      -4853258.110570998     0.01345202062209427      0.1541777778797282
WARNING: Pair style restartinfo set but has no restart support (src/pair.cpp:754)
WARNING: Pair style restartinfo set but has no restart support (src/pair.cpp:754)
        43                   0.0043          8180.450896224       -4853258.11129706    0.008639537149920849      0.1414296169871056
        43                   0.0043          8180.450896224       -4853258.11129706    0.008639537149920849      0.1414296169871056
WARNING: Pair style restartinfo set but has no restart support (src/pair.cpp:754)
WARNING: Pair style restartinfo set but has no restart support (src/pair.cpp:754)
        44                   0.0044          8372.833526936      -4853258.112642643     0.01226031492687792      0.1765769936063732
        44                   0.0044          8372.833526936      -4853258.112642643     0.01226031492687792      0.1765769936063732
WARNING: Pair style restartinfo set but has no restart support (src/pair.cpp:754)
WARNING: Pair style restartinfo set but has no restart support (src/pair.cpp:754)
        45     0.004500000000000001          8564.699325464      -4853258.113518332    0.007478775845773858      0.1144565789414783
        45     0.004500000000000001          8564.699325464      -4853258.113518332    0.007478775845773858      0.1144565789414783
WARNING: Pair style restartinfo set but has no restart support (src/pair.cpp:754)
WARNING: Pair style restartinfo set but has no restart support (src/pair.cpp:754)
        46                   0.0046          8757.227634317      -4853258.114009023    0.006829824289888245      0.1068362644156427
        46                   0.0046          8757.227634317      -4853258.114009023    0.006829824289888245      0.1068362644156427
WARNING: Pair style restartinfo set but has no restart support (src/pair.cpp:754)
WARNING: Pair style restartinfo set but has no restart support (src/pair.cpp:754)
        47                   0.0047          8949.376057893      -4853258.114432564    0.005950320963552545     0.08694852202429497
        47                   0.0047          8949.376057893      -4853258.114432564    0.005950320963552545     0.08694852202429497
WARNING: Pair style restartinfo set but has no restart support (src/pair.cpp:754)
WARNING: Pair style restartinfo set but has no restart support (src/pair.cpp:754)
        48                   0.0048          9141.155477912      -4853258.114702977    0.006216485495959856     0.08439845182437031
        48                   0.0048          9141.155477912      -4853258.114702977    0.006216485495959856     0.08439845182437031
WARNING: Pair style restartinfo set but has no restart support (src/pair.cpp:754)
WARNING: Pair style restartinfo set but has no restart support (src/pair.cpp:754)
        49                   0.0049          9333.261881925      -4853258.115007984    0.004423374495292936     0.07556054842707778
        49                   0.0049          9333.261881925      -4853258.115007984    0.004423374495292936     0.07556054842707778
WARNING: Pair style restartinfo set but has no restart support (src/pair.cpp:754)
WARNING: Pair style restartinfo set but has no restart support (src/pair.cpp:754)
        50                    0.005          9525.927681801      -4853258.115253562     0.00688426141318221     0.08783884995921076
        50                    0.005          9525.927681801      -4853258.115253562     0.00688426141318221     0.08783884995921076
WARNING: Pair style restartinfo set but has no restart support (src/pair.cpp:754)
WARNING: Pair style restartinfo set but has no restart support (src/pair.cpp:754)
        51                   0.0051       9717.311911672999      -4853258.115603987     0.00495957612234509      0.0693284360057462
        51                   0.0051       9717.311911672999      -4853258.115603987     0.00495957612234509      0.0693284360057462
WARNING: Pair style restartinfo set but has no restart support (src/pair.cpp:754)
WARNING: Pair style restartinfo set but has no restart support (src/pair.cpp:754)
        52     0.005200000000000001       9909.016035516999      -4853258.115737044    0.004244976762593797     0.05926190568815064
        52     0.005200000000000001       9909.016035516999      -4853258.115737044    0.004244976762593797     0.05926190568815064
WARNING: Pair style restartinfo set but has no restart support (src/pair.cpp:754)
WARNING: Pair style restartinfo set but has no restart support (src/pair.cpp:754)
        53                   0.0053         10100.384613108      -4853258.115949473     0.00339578121748847     0.06412228264251013
        53                   0.0053         10100.384613108      -4853258.115949473     0.00339578121748847     0.06412228264251013
WARNING: Pair style restartinfo set but has no restart support (src/pair.cpp:754)
WARNING: Pair style restartinfo set but has no restart support (src/pair.cpp:754)
        54                   0.0054         10292.081996537      -4853258.116080277    0.003529023019461946     0.05737015713338821
        54                   0.0054         10292.081996537      -4853258.116080277    0.003529023019461946     0.05737015713338821
WARNING: Pair style restartinfo set but has no restart support (src/pair.cpp:754)
WARNING: Pair style restartinfo set but has no restart support (src/pair.cpp:754)
        55     0.005500000000000001         10484.091121143      -4853258.116243953    0.004027645361861497     0.05676281652464348
        55     0.005500000000000001         10484.091121143      -4853258.116243953    0.004027645361861497     0.05676281652464348
WARNING: Pair style restartinfo set but has no restart support (src/pair.cpp:754)
WARNING: Pair style restartinfo set but has no restart support (src/pair.cpp:754)
        56                   0.0056         10677.433108316       -4853258.11635012    0.002820752456383661      0.0538149918065744
        56                   0.0056         10677.433108316       -4853258.11635012    0.002820752456383661      0.0538149918065744
WARNING: Pair style restartinfo set but has no restart support (src/pair.cpp:754)
WARNING: Pair style restartinfo set but has no restart support (src/pair.cpp:754)
        57                   0.0057         10868.926650463      -4853258.116513813    0.004276207254155063     0.05389421574005194
        57                   0.0057         10868.926650463      -4853258.116513813    0.004276207254155063     0.05389421574005194
WARNING: Pair style restartinfo set but has no restart support (src/pair.cpp:754)
WARNING: Pair style restartinfo set but has no restart support (src/pair.cpp:754)
        58                   0.0058         11060.690253237      -4853258.116597472    0.002328660278856086      0.0442534352332575
        58                   0.0058         11060.690253237      -4853258.116597472    0.002328660278856086      0.0442534352332575
WARNING: Pair style restartinfo set but has no restart support (src/pair.cpp:754)
WARNING: Pair style restartinfo set but has no restart support (src/pair.cpp:754)
        59                   0.0059         11252.684718869      -4853258.116712064    0.003388840669187845     0.05462195878692241
        59                   0.0059         11252.684718869      -4853258.116712064    0.003388840669187845     0.05462195878692241
WARNING: Pair style restartinfo set but has no restart support (src/pair.cpp:754)
WARNING: Pair style restartinfo set but has no restart support (src/pair.cpp:754)
        60                    0.006         11444.951054943       -4853258.11680637    0.001962051607082866     0.03928866664385946
        60                    0.006         11444.951054943       -4853258.11680637    0.001962051607082866     0.03928866664385946
WARNING: Pair style restartinfo set but has no restart support (src/pair.cpp:754)
WARNING: Pair style restartinfo set but has no restart support (src/pair.cpp:754)
        61                   0.0061         11637.906921164      -4853258.116871211    0.002026512944959527     0.04071263701909267
        61                   0.0061         11637.906921164      -4853258.116871211    0.002026512944959527     0.04071263701909267
WARNING: Pair style restartinfo set but has no restart support (src/pair.cpp:754)
WARNING: Pair style restartinfo set but has no restart support (src/pair.cpp:754)
        62     0.006200000000000001         11831.015241332      -4853258.116938778    0.002154441670212826     0.04024894378917918
        62     0.006200000000000001         11831.015241332      -4853258.116938778    0.002154441670212826     0.04024894378917918
WARNING: Pair style restartinfo set but has no restart support (src/pair.cpp:754)
WARNING: Pair style restartinfo set but has no restart support (src/pair.cpp:754)
        63                   0.0063          12024.01285684      -4853258.117024427    0.002552618930494815     0.05342456616304062
        63                   0.0063          12024.01285684      -4853258.117024427    0.002552618930494815     0.05342456616304062
WARNING: Pair style restartinfo set but has no restart support (src/pair.cpp:754)
WARNING: Pair style restartinfo set but has no restart support (src/pair.cpp:754)
        64                   0.0064         12216.759796147      -4853258.117157771    0.002886648396055333     0.04934746537511608
        64                   0.0064         12216.759796147      -4853258.117157771    0.002886648396055333     0.04934746537511608
WARNING: Pair style restartinfo set but has no restart support (src/pair.cpp:754)
WARNING: Pair style restartinfo set but has no restart support (src/pair.cpp:754)
        65     0.006500000000000001         12408.475607866      -4853258.117263867    0.003334072844243965     0.05857152993842516
        65     0.006500000000000001         12408.475607866      -4853258.117263867    0.003334072844243965     0.05857152993842516
WARNING: Pair style restartinfo set but has no restart support (src/pair.cpp:754)
WARNING: Pair style restartinfo set but has no restart support (src/pair.cpp:754)
        66                   0.0066         12600.499979318      -4853258.117425266    0.002645866435661136     0.05027592902709914
        66                   0.0066         12600.499979318      -4853258.117425266    0.002645866435661136     0.05027592902709914
WARNING: Pair style restartinfo set but has no restart support (src/pair.cpp:754)
WARNING: Pair style restartinfo set but has no restart support (src/pair.cpp:754)
        67                   0.0067         12792.399756341      -4853258.117498085    0.002033413845070689     0.04293803004106542
        67                   0.0067         12792.399756341      -4853258.117498085    0.002033413845070689     0.04293803004106542
WARNING: Pair style restartinfo set but has no restart support (src/pair.cpp:754)
WARNING: Pair style restartinfo set but has no restart support (src/pair.cpp:754)
        68                   0.0068          12985.04242367      -4853258.117617158    0.003301202849638199     0.05408637578511928
        68                   0.0068          12985.04242367      -4853258.117617158    0.003301202849638199     0.05408637578511928
WARNING: Pair style restartinfo set but has no restart support (src/pair.cpp:754)
WARNING: Pair style restartinfo set but has no restart support (src/pair.cpp:754)
        69     0.006900000000000001          13177.64068609      -4853258.117731911    0.002847507136860173     0.05869571499400252
        69     0.006900000000000001          13177.64068609      -4853258.117731911    0.002847507136860173     0.05869571499400252
WARNING: Pair style restartinfo set but has no restart support (src/pair.cpp:754)
WARNING: Pair style restartinfo set but has no restart support (src/pair.cpp:754)
        70                    0.007         13368.862631732      -4853258.117928952    0.004585062660882339     0.06232496932442947
        70                    0.007         13368.862631732      -4853258.117928952    0.004585062660882339     0.06232496932442947
WARNING: Pair style restartinfo set but has no restart support (src/pair.cpp:754)
WARNING: Pair style restartinfo set but has no restart support (src/pair.cpp:754)
        71                   0.0071         13559.454081745      -4853258.118044719     0.00287944336737897     0.05207531083804159
        71                   0.0071         13559.454081745      -4853258.118044719     0.00287944336737897     0.05207531083804159
WARNING: Pair style restartinfo set but has no restart support (src/pair.cpp:754)
WARNING: Pair style restartinfo set but has no restart support (src/pair.cpp:754)
        72     0.007200000000000001         13752.381275225      -4853258.118197776    0.003556726812232177     0.05656945697416658
        72     0.007200000000000001         13752.381275225      -4853258.118197776    0.003556726812232177     0.05656945697416658
WARNING: Pair style restartinfo set but has no restart support (src/pair.cpp:754)
WARNING: Pair style restartinfo set but has no restart support (src/pair.cpp:754)
        73                   0.0073         13944.309308861      -4853258.118292402    0.001815891697941368     0.04497365126553263
        73                   0.0073         13944.309308861      -4853258.118292402    0.001815891697941368     0.04497365126553263
WARNING: Pair style restartinfo set but has no restart support (src/pair.cpp:754)
WARNING: Pair style restartinfo set but has no restart support (src/pair.cpp:754)
        74                   0.0074         14135.861757471      -4853258.118418567    0.004845032345151011     0.06531289610425678
        74                   0.0074         14135.861757471      -4853258.118418567    0.004845032345151011     0.06531289610425678
WARNING: Pair style restartinfo set but has no restart support (src/pair.cpp:754)
WARNING: Pair style restartinfo set but has no restart support (src/pair.cpp:754)
        75     0.007500000000000001         14328.019531331      -4853258.118598918    0.003155977253285251     0.06000138888852428
        75     0.007500000000000001         14328.019531331      -4853258.118598918    0.003155977253285251     0.06000138888852428
WARNING: Pair style restartinfo set but has no restart support (src/pair.cpp:754)
WARNING: Pair style restartinfo set but has no restart support (src/pair.cpp:754)
        76                   0.0076         14520.418391531      -4853258.118773337    0.003585137727752095     0.06892052550726635
        76                   0.0076         14520.418391531      -4853258.118773337    0.003585137727752095     0.06892052550726635
WARNING: Pair style restartinfo set but has no restart support (src/pair.cpp:754)
WARNING: Pair style restartinfo set but has no restart support (src/pair.cpp:754)
        77                   0.0077          14712.58960096      -4853258.118945057    0.002995845487896857     0.05748197604693115
        77                   0.0077          14712.58960096      -4853258.118945057    0.002995845487896857     0.05748197604693115
WARNING: Pair style restartinfo set but has no restart support (src/pair.cpp:754)
WARNING: Pair style restartinfo set but has no restart support (src/pair.cpp:754)
        78     0.007800000000000001         14904.607547729      -4853258.119093468    0.003755152008835734     0.06642200277123438
        78     0.007800000000000001         14904.607547729      -4853258.119093468    0.003755152008835734     0.06642200277123438
WARNING: Pair style restartinfo set but has no restart support (src/pair.cpp:754)
WARNING: Pair style restartinfo set but has no restart support (src/pair.cpp:754)
        79     0.007900000000000001         15097.541909137       -4853258.11928238    0.002851464329914961     0.05617383656756418
        79     0.007900000000000001         15097.541909137       -4853258.11928238    0.002851464329914961     0.05617383656756418
WARNING: Pair style restartinfo set but has no restart support (src/pair.cpp:754)
WARNING: Pair style restartinfo set but has no restart support (src/pair.cpp:754)
        80                    0.008         15289.165384364      -4853258.119397709    0.003095814296814157     0.05764250259348772
        80                    0.008         15289.165384364      -4853258.119397709    0.003095814296814157     0.05764250259348772
WARNING: Pair style restartinfo set but has no restart support (src/pair.cpp:754)
WARNING: Pair style restartinfo set but has no restart support (src/pair.cpp:754)
        81                   0.0081         15481.892244245      -4853258.119553576    0.003424655693272793     0.04929883867846833
        81                   0.0081         15481.892244245      -4853258.119553576    0.003424655693272793     0.04929883867846833
WARNING: Pair style restartinfo set but has no restart support (src/pair.cpp:754)
WARNING: Pair style restartinfo set but has no restart support (src/pair.cpp:754)
        82     0.008200000000000001         15673.188252029       -4853258.11961807    0.001595389300331987     0.03631500777510553
        82     0.008200000000000001         15673.188252029       -4853258.11961807    0.001595389300331987     0.03631500777510553
WARNING: Pair style restartinfo set but has no restart support (src/pair.cpp:754)
WARNING: Pair style restartinfo set but has no restart support (src/pair.cpp:754)
        83                   0.0083          15865.65590209      -4853258.119684834    0.002145194522731331     0.03773761254441989
        83                   0.0083          15865.65590209      -4853258.119684834    0.002145194522731331     0.03773761254441989
WARNING: Pair style restartinfo set but has no restart support (src/pair.cpp:754)
WARNING: Pair style restartinfo set but has no restart support (src/pair.cpp:754)
        84     0.008400000000000001         16057.996284545      -4853258.119732104    0.001787784049217928     0.03486265106148344
        84     0.008400000000000001         16057.996284545      -4853258.119732104    0.001787784049217928     0.03486265106148344
WARNING: Pair style restartinfo set but has no restart support (src/pair.cpp:754)
WARNING: Pair style restartinfo set but has no restart support (src/pair.cpp:754)
        85     0.008500000000000001         16250.089379513      -4853258.119800957    0.002584036476896456     0.03941114152880065
        85     0.008500000000000001         16250.089379513      -4853258.119800957    0.002584036476896456     0.03941114152880065
WARNING: Pair style restartinfo set but has no restart support (src/pair.cpp:754)
WARNING: Pair style restartinfo set but has no restart support (src/pair.cpp:754)
        86                   0.0086         16441.663889417      -4853258.119850437    0.001823194386842245     0.03213053746787161
        86                   0.0086         16441.663889417      -4853258.119850437    0.001823194386842245     0.03213053746787161
WARNING: Pair style restartinfo set but has no restart support (src/pair.cpp:754)
WARNING: Pair style restartinfo set but has no restart support (src/pair.cpp:754)
        87     0.008700000000000001         16634.075803155       -4853258.11990126    0.002123128189097111     0.03434635589330893
        87     0.008700000000000001         16634.075803155       -4853258.11990126    0.002123128189097111     0.03434635589330893
WARNING: Pair style restartinfo set but has no restart support (src/pair.cpp:754)
WARNING: Pair style restartinfo set but has no restart support (src/pair.cpp:754)
        88     0.008800000000000001         16825.899204259      -4853258.119934752    0.001009525991145034     0.02209952198145224
        88     0.008800000000000001         16825.899204259      -4853258.119934752    0.001009525991145034     0.02209952198145224
WARNING: Pair style restartinfo set but has no restart support (src/pair.cpp:754)
WARNING: Pair style restartinfo set but has no restart support (src/pair.cpp:754)
        89                   0.0089         17018.162968246      -4853258.119957877    0.001245474968559638     0.02660007521111155
        89                   0.0089         17018.162968246      -4853258.119957877    0.001245474968559638     0.02660007521111155
WARNING: Pair style restartinfo set but has no restart support (src/pair.cpp:754)
WARNING: Pair style restartinfo set but has no restart support (src/pair.cpp:754)
        90     0.009000000000000001         17209.935552248      -4853258.119985742    0.001240368528372257     0.02272637884090083
        90     0.009000000000000001         17209.935552248      -4853258.119985742    0.001240368528372257     0.02272637884090083
WARNING: Pair style restartinfo set but has no restart support (src/pair.cpp:754)
WARNING: Pair style restartinfo set but has no restart support (src/pair.cpp:754)
        91                   0.0091         17401.345733188      -4853258.120008624    0.001294599125409117     0.02620710389652618
        91                   0.0091         17401.345733188      -4853258.120008624    0.001294599125409117     0.02620710389652618
WARNING: Pair style restartinfo set but has no restart support (src/pair.cpp:754)
WARNING: Pair style restartinfo set but has no restart support (src/pair.cpp:754)
        92                   0.0092         17594.391953638      -4853258.120038209    0.001220364622109278     0.02293024847359701
        92                   0.0092         17594.391953638      -4853258.120038209    0.001220364622109278     0.02293024847359701
WARNING: Pair style restartinfo set but has no restart support (src/pair.cpp:754)
WARNING: Pair style restartinfo set but has no restart support (src/pair.cpp:754)
        93     0.009300000000000001         17787.614020018      -4853258.120059071    0.001506542318831322     0.02441394526899393
        93     0.009300000000000001         17787.614020018      -4853258.120059071    0.001506542318831322     0.02441394526899393
WARNING: Pair style restartinfo set but has no restart support (src/pair.cpp:754)
WARNING: Pair style restartinfo set but has no restart support (src/pair.cpp:754)
        94                   0.0094         17979.609388677      -4853258.120083738    0.001012975831507985     0.02025358254683523
        94                   0.0094         17979.609388677      -4853258.120083738    0.001012975831507985     0.02025358254683523
WARNING: Pair style restartinfo set but has no restart support (src/pair.cpp:754)
WARNING: Pair style restartinfo set but has no restart support (src/pair.cpp:754)
        95                   0.0095         18171.567404298      -4853258.120098221    0.001389098301178365     0.02036829083036721
        95                   0.0095         18171.567404298      -4853258.120098221    0.001389098301178365     0.02036829083036721
WARNING: Pair style restartinfo set but has no restart support (src/pair.cpp:754)
WARNING: Pair style restartinfo set but has no restart support (src/pair.cpp:754)
        96     0.009600000000000001         18363.696741031      -4853258.120121734    0.001272166231459256     0.02199179580951038
        96     0.009600000000000001         18363.696741031      -4853258.120121734    0.001272166231459256     0.02199179580951038
WARNING: Pair style restartinfo set but has no restart support (src/pair.cpp:754)
WARNING: Pair style restartinfo set but has no restart support (src/pair.cpp:754)
        97                   0.0097          18556.13181378      -4853258.120137149   0.0008782327810266155     0.01949207837943203
        97                   0.0097          18556.13181378      -4853258.120137149   0.0008782327810266155     0.01949207837943203
WARNING: Pair style restartinfo set but has no restart support (src/pair.cpp:754)
WARNING: Pair style restartinfo set but has no restart support (src/pair.cpp:754)
        98                   0.0098         18748.496185935      -4853258.120158574    0.001755008096230041     0.02254260676903931
        98                   0.0098         18748.496185935      -4853258.120158574    0.001755008096230041     0.02254260676903931
WARNING: Pair style restartinfo set but has no restart support (src/pair.cpp:754)
WARNING: Pair style restartinfo set but has no restart support (src/pair.cpp:754)
        99     0.009900000000000001         18941.139467257      -4853258.120174699    0.001154299857037078     0.01788375295451726
        99     0.009900000000000001         18941.139467257      -4853258.120174699    0.001154299857037078     0.01788375295451726
WARNING: Too many warnings: 101 vs 100. All future warnings will be suppressed (src/thermo.cpp:466)
WARNING: Too many warnings: 101 vs 100. All future warnings will be suppressed (src/thermo.cpp:466)
       100                     0.01         19133.466950781      -4853258.120190611    0.001156612285576184     0.01900650139788535
       100                     0.01         19133.466950781      -4853258.120190611    0.001156612285576184     0.01900650139788535
       101                   0.0101         19325.618850492      -4853258.120201494    0.000921380548425968     0.01493284424027585
       101                   0.0101         19325.618850492      -4853258.120201494    0.000921380548425968     0.01493284424027585
       102                   0.0102          19518.66194885      -4853258.120213538    0.001037433918615865     0.01777006900447016
       102                   0.0102          19518.66194885      -4853258.120213538    0.001037433918615865     0.01777006900447016
       103                   0.0103         19710.473639925      -4853258.120224537   0.0009228065046364191      0.0144117618171583
       103                   0.0103         19710.473639925      -4853258.120224537   0.0009228065046364191      0.0144117618171583
       104                   0.0104         19902.808537658      -4853258.120234473   0.0009788128075316231     0.01763180243515686
       104                   0.0104         19902.808537658      -4853258.120234473   0.0009788128075316231     0.01763180243515686
       105                   0.0105         20094.647903216      -4853258.120247203   0.0007219701294615766     0.01441144861554163
       105                   0.0105         20094.647903216      -4853258.120247203   0.0007219701294615766     0.01441144861554163
       106                   0.0106         20286.075914026      -4853258.120255532      0.0010427207692483     0.01588409813980168
       106                   0.0106         20286.075914026      -4853258.120255532      0.0010427207692483     0.01588409813980168
       107                   0.0107         20477.718044046      -4853258.120267042   0.0009827183278525442     0.01469368563813464
       107                   0.0107         20477.718044046      -4853258.120267042   0.0009827183278525442     0.01469368563813464
       108                   0.0108         20670.361977333      -4853258.120275429   0.0009624925555394805     0.01548244243651033
       108                   0.0108         20670.361977333      -4853258.120275429   0.0009624925555394805     0.01548244243651033
       109                   0.0109         20863.363181821       -4853258.12028696   0.0008473090316454407      0.0149348010404424
       109                   0.0109         20863.363181821       -4853258.12028696   0.0008473090316454407      0.0149348010404424
       110                    0.011         21055.133241729      -4853258.120294762   0.0007655508279521833     0.01477480944127891
       110                    0.011         21055.133241729      -4853258.120294762   0.0007655508279521833     0.01477480944127891
       111                   0.0111         21247.031428165      -4853258.120306203   0.0009585139775256626     0.01385458931118261
       111                   0.0111         21247.031428165      -4853258.120306203   0.0009585139775256626     0.01385458931118261
       112                   0.0112         21438.997882708       -4853258.12031169   0.0005579226644491325     0.01102809682718535
       112                   0.0112         21438.997882708       -4853258.12031169   0.0005579226644491325     0.01102809682718535
       113                   0.0113         21630.347842931      -4853258.120317422   0.0006632130575344453     0.01089910640203504
       113                   0.0113         21630.347842931      -4853258.120317422   0.0006632130575344453     0.01089910640203504
       114                   0.0114         21822.241947689      -4853258.120320808   0.0003542489774452811    0.007244271948905158
       114                   0.0114         21822.241947689      -4853258.120320808   0.0003542489774452811    0.007244271948905158
       115                   0.0115         22014.399077014      -4853258.120323027   0.0005399885758938296    0.007314405051936714
       115                   0.0115         22014.399077014      -4853258.120323027   0.0005399885758938296    0.007314405051936714
       116                   0.0116         22207.195704647      -4853258.120324826   0.0003065794338731088    0.006099190232404829
       116                   0.0116         22207.195704647      -4853258.120324826   0.0003065794338731088    0.006099190232404829
       117                   0.0117         22398.879979746      -4853258.120326706     0.00039569626975796    0.007208766881932446
       117                   0.0117         22398.879979746      -4853258.120326706     0.00039569626975796    0.007208766881932446
       118                   0.0118         22590.755453864      -4853258.120328561   0.0003216508360870994    0.005497637458513512
       118                   0.0118         22590.755453864      -4853258.120328561   0.0003216508360870994    0.005497637458513512
       119                   0.0119         22783.365517482      -4853258.120329835   0.0003833756616576025    0.006133664498008783
       119                   0.0119         22783.365517482      -4853258.120329835   0.0003833756616576025    0.006133664498008783
       120                    0.012         22976.286171156      -4853258.120331321   0.0002695255271849759    0.004713869337773825
       120                    0.012         22976.286171156      -4853258.120331321   0.0002695255271849759    0.004713869337773825
       121                   0.0121          23169.01124235      -4853258.120332051   0.0002492441432900999    0.004322574451627583
       121                   0.0121          23169.01124235      -4853258.120332051   0.0002492441432900999    0.004322574451627583
       122                   0.0122         23362.076261323      -4853258.120332966   0.0002361645811905038    0.004346399929336504
       122                   0.0122         23362.076261323      -4853258.120332966   0.0002361645811905038    0.004346399929336504
       123                   0.0123         23554.065517644      -4853258.120333617   0.0002595700080962634    0.003969580684698663
       123                   0.0123         23554.065517644      -4853258.120333617   0.0002595700080962634    0.003969580684698663
       124                   0.0124         23746.265394018      -4853258.120334309   0.0002187800084222924    0.003615859608429903
       124                   0.0124         23746.265394018      -4853258.120334309   0.0002187800084222924    0.003615859608429903
       125                   0.0125         23937.904482397      -4853258.120334694   0.0001209427594402564    0.002764526131579245
       125                   0.0125         23937.904482397      -4853258.120334694   0.0001209427594402564    0.002764526131579245
       126                   0.0126         24130.368043279      -4853258.120335074   0.0002086364731646156    0.002948889566416683
       126                   0.0126         24130.368043279      -4853258.120335074   0.0002086364731646156    0.002948889566416683
       127                   0.0127         24322.224605395       -4853258.12033533   0.0001334481993207661    0.002232642925060364
       127                   0.0127         24322.224605395       -4853258.12033533   0.0001334481993207661    0.002232642925060364
       128                   0.0128         24514.305998558      -4853258.120335594   0.0001865239483585048    0.002749052371356068
       128                   0.0128         24514.305998558      -4853258.120335594   0.0001865239483585048    0.002749052371356068
       129                   0.0129         24706.139832603      -4853258.120335883   9.397692258302897e-05    0.002274652069541445
       129                   0.0129         24706.139832603      -4853258.120335883   9.397692258302897e-05    0.002274652069541445
       130                    0.013         24898.287635638      -4853258.120336099    0.000140273269617415    0.002456494715194821
       130                    0.013         24898.287635638      -4853258.120336099    0.000140273269617415    0.002456494715194821
       131                   0.0131         25089.280517762      -4853258.120336353   9.024818809102303e-05    0.002142241305548932
       131                   0.0131         25089.280517762      -4853258.120336353   9.024818809102303e-05    0.002142241305548932
       132                   0.0132         25281.329023751      -4853258.120336517   0.0001116564401795934    0.002110314131872034
       132                   0.0132         25281.329023751      -4853258.120336517   0.0001116564401795934    0.002110314131872034
       133                   0.0133         25473.750226124      -4853258.120336704   9.998084525577306e-05     0.00170232799418393
       133                   0.0133         25473.750226124      -4853258.120336704   9.998084525577306e-05     0.00170232799418393
       134                   0.0134         25665.613510849      -4853258.120336793   8.088022960558457e-05    0.001494486659068564
       134                   0.0134         25665.613510849      -4853258.120336793   8.088022960558457e-05    0.001494486659068564
       135                   0.0135         25857.491201341      -4853258.120336898   8.566933811219798e-05    0.001382048399173916
       135                   0.0135         25857.491201341      -4853258.120336898   8.566933811219798e-05    0.001382048399173916
       136                   0.0136         26049.660378145      -4853258.120336958   5.127119215783682e-05    0.001144749674750365
       136                   0.0136         26049.660378145      -4853258.120336958   5.127119215783682e-05    0.001144749674750365
       137                   0.0137         26242.234054769      -4853258.120337039   0.0001138381738804638    0.001495031519334301
       137                   0.0137         26242.234054769      -4853258.120337039   0.0001138381738804638    0.001495031519334301
       138                   0.0138         26434.785269576      -4853258.120337115   7.158325333971038e-05    0.001273912665844587
       138                   0.0138         26434.785269576      -4853258.120337115   7.158325333971038e-05    0.001273912665844587
       139                   0.0139         26626.936103618      -4853258.120337196   8.108463722951561e-05    0.001394044413939045
       139                   0.0139         26626.936103618      -4853258.120337196   8.108463722951561e-05    0.001394044413939045
       140                    0.014         26818.866246085      -4853258.120337258   5.530102109447246e-05    0.001102608778812035
       140                    0.014         26818.866246085      -4853258.120337258   5.530102109447246e-05    0.001102608778812035
       141                   0.0141         27010.502459281       -4853258.12033732   8.450821454216231e-05    0.001363215248358558
       141                   0.0141         27010.502459281       -4853258.12033732   8.450821454216231e-05    0.001363215248358558
       142                   0.0142         27202.889610722      -4853258.120337398    5.22947916081861e-05    0.001134838974979256
       142                   0.0142         27202.889610722      -4853258.120337398    5.22947916081861e-05    0.001134838974979256
       143                   0.0143          27394.50374082      -4853258.120337456   8.064309078676196e-05    0.001404224196224501
       143                   0.0143          27394.50374082      -4853258.120337456   8.064309078676196e-05    0.001404224196224501
       144                   0.0144         27586.343198158      -4853258.120337534   5.834604089171701e-05    0.001156600549801877
       144                   0.0144         27586.343198158      -4853258.120337534   5.834604089171701e-05    0.001156600549801877
       145                   0.0145         27777.463195945      -4853258.120337579   6.185852181913333e-05    0.001014201631711037
       145                   0.0145         27777.463195945      -4853258.120337579   6.185852181913333e-05    0.001014201631711037
       146                   0.0146         28064.741133775      -4853258.120337626   5.397195658617842e-05   0.0008246321745829577
       146                   0.0146         28064.741133775      -4853258.120337626   5.397195658617842e-05   0.0008246321745829577
Loop time of 28064.7 on 48 procs for 146 steps with 4326 atoms

Loop time of 28064.7 on 48 procs for 146 steps with 4326 atoms

515.7% CPU use with 4 MPI tasks x 12 OpenMP threads
515.7% CPU use with 4 MPI tasks x 12 OpenMP threads

Minimization stats:
  Stopping criterion = force tolerance
  Energy initial, next-to-last, final = 
     -4853196.43203911  -4853258.12033758  -4853258.12033763
  Force two-norm initial, final = 35.572234 0.00082463217
  Force max component initial, final = 0.92653077 5.3971957e-05
  Final line search alpha, max atom move = 1 5.3971957e-05
  Iterations, force evaluations = 146 291

Minimization stats:
  Stopping criterion = force tolerance
  Energy initial, next-to-last, final = 
     -4853196.43203911  -4853258.12033758  -4853258.12033763
  Force two-norm initial, final = 35.572234 0.00082463217
  Force max component initial, final = 0.92653077 5.3971957e-05
  Final line search alpha, max atom move = 1 5.3971957e-05
  Iterations, force evaluations = 146 291

MPI task timing breakdown:
Section |  min time  |  avg time  |  max time  |%varavg| %total
---------------------------------------------------------------

MPI task timing breakdown:
Section |  min time  |  avg time  |  max time  |%varavg| %total
---------------------------------------------------------------
Pair    | 27617      | 27800      | 28000      |  92.0 | 99.06
Pair    | 27617      | 27800      | 28000      |  92.0 | 99.06
Neigh   | 13.507     | 13.613     | 13.691     |   2.0 |  0.05
Neigh   | 13.507     | 13.613     | 13.691     |   2.0 |  0.05
Comm    | 50.359     | 250.61     | 433.59     | 969.8 |  0.89
Comm    | 50.359     | 250.61     | 433.59     | 969.8 |  0.89
Output  | 0.30195    | 0.30224    | 0.30308    |   0.1 |  0.00
Output  | 0.30195    | 0.30224    | 0.30308    |   0.1 |  0.00
Modify  | 0          | 0          | 0          |   0.0 |  0.00
Modify  | 0          | 0          | 0          |   0.0 |  0.00
Other   |            | 0.05531    |            |       |  0.00
Other   |            | 0.05531    |            |       |  0.00

Nlocal:         1081.5 ave        1101 max        1057 min
Histogram: 1 0 1 0 0 0 0 0 0 2
Nghost:         7043.5 ave        7073 max        7025 min
Histogram: 2 0 0 0 1 0 0 0 0 1
Neighs:              0 ave           0 max           0 min
Histogram: 4 0 0 0 0 0 0 0 0 0
FullNghs:       633669 ave      644817 max      620308 min
Histogram: 1 1 0 0 0 0 0 0 0 2

Nlocal:         1081.5 ave        1101 max        1057 min
Histogram: 1 0 1 0 0 0 0 0 0 2
Nghost:         7043.5 ave        7073 max        7025 min
Histogram: 2 0 0 0 1 0 0 0 0 1
Neighs:              0 ave           0 max           0 min
Histogram: 4 0 0 0 0 0 0 0 0 0
FullNghs:       633669 ave      644817 max      620308 min
Histogram: 1 1 0 0 0 0 0 0 0 2


Total # of neighbors = 2534676
Ave neighs/atom = 585.91678
Neighbor list builds = 292
Dangerous builds = 0
Total # of neighbors = 2534676
Ave neighs/atom = 585.91678
Neighbor list builds = 292
Dangerous builds = 0
write_data /home/theory/phrrpq/bilayer_relaxations/WSe2_WSe2/AP/15/WSe2_WSe2_AP_15.data
System init for write_data ...
System init for write_data ...
Generated 0 of 1 mixed pair_coeff terms from geometric mixing rule
Generated 0 of 1 mixed pair_coeff terms from geometric mixing rule
Total wall time: 7:51:01
Total wall time: 7:51:01
