OMP_THREADS: 32
MPI: 1
NTASKS-PER-NODE: 4
CPUS_PER_TASK: 32
LAMMPS (28 Mar 2023 - Development)
  using 32 OpenMP thread(s) per MPI task
  using 32 OpenMP thread(s) per MPI task
Reading restart file ...
  restart file = 28 Mar 2023, LAMMPS = 28 Mar 2023
  restoring atom style atomic from restart
  triclinic box = (0 0 0) to (175.54717 152.02831 30) with tilt (-87.773585 0 0)
WARNING: Triclinic box skew is large. LAMMPS will run inefficiently. (src/domain.cpp:220)
  2 by 2 by 1 MPI processor grid
  restoring pair style mace from restart
WARNING: Pair style restartinfo set but has no restart support (src/pair.cpp:746)
  16746 atoms
  read_restart CPU = 0.116 seconds
CUDA unavailable, setting device type to torch::kCPU.
CUDA unavailable, setting device type to torch::kCPU.
CUDA unavailable, setting device type to torch::kCPU.
CUDA unavailable, setting device type to torch::kCPU.
Loading MACE model from "/home/p/phrrpq/bilayer_relaxations/MoWSSe_bi_radius_8_reduced_all_1_swa_800_run-123_swa.model-lammps.pt" ... finished.
  - The torch_float_dtype is: Double
  - The r_max is: 8.
  - The model has: 2 layers.
  - The model atomic numbers are: 16 34 42 74.
  - The pair_coeff atomic numbers are: 74 34.
Loading MACE model from "/home/p/phrrpq/bilayer_relaxations/MoWSSe_bi_radius_8_reduced_all_1_swa_800_run-123_swa.model-lammps.pt" ... finished.
Loading MACE model from "/home/p/phrrpq/bilayer_relaxations/MoWSSe_bi_radius_8_reduced_all_1_swa_800_run-123_swa.model-lammps.pt" ... finished.
Loading MACE model from "/home/p/phrrpq/bilayer_relaxations/MoWSSe_bi_radius_8_reduced_all_1_swa_800_run-123_swa.model-lammps.pt" ... finished.
  - The torch_float_dtype is: Double
  - The torch_float_dtype is: Double
  - The r_max is: 8.
  - The model has: 2 layers.
  - The r_max is: 8.
  - The model has: 2 layers.
  - The model atomic numbers are: 16 34 42 74.
  - The pair_coeff atomic numbers are: 74 34.
  - The model atomic numbers are: 16 34 42 74.
  - The pair_coeff atomic numbers are: 74 34.
  - The torch_float_dtype is: Double
  - The r_max is: 8.
  - The model has: 2 layers.
  - The model atomic numbers are: 16 34 42 74.
  - The pair_coeff atomic numbers are: 74 34.
Generated 0 of 1 mixed pair_coeff terms from geometric mixing rule
Neighbor list info ...
  update: every = 1 steps, delay = 0 steps, check = yes
  max neighbors/atom: 2000, page size: 100000
  master list distance cutoff = 18
  ghost atom cutoff = 18
  binsize = 9, bins = 30 17 4
  1 neighbor lists, perpetual/occasional/extra = 1 0 0
  (1) pair mace, perpetual
      attributes: full, newton on, ghost
      pair build: full/bin/ghost
      stencil: full/ghost/bin/3d
      bin: standard
Setting up Verlet run ...
  Unit style    : metal
  Current step  : 499
  Time step     : 0.0001
Per MPI rank memory allocation (min/avg/max) = 86.29 | 86.4 | 86.68 Mbytes
   Step          Time           Temp          Press           CPU           KinEng         PotEng         TotEng        Atoms         Fmax          Fnorm     
       499      0.04990000000000001                       0      -1411.110636651897                       0                       0      -18787045.88405309      -18787045.88405309      16746    3.113739317169623e-05   0.0009465093016375625
Loop time of 2.12673e-05 on 128 procs for 0 steps with 16746 atoms

128.1% CPU use with 4 MPI tasks x 32 OpenMP threads

MPI task timing breakdown:
Section |  min time  |  avg time  |  max time  |%varavg| %total
---------------------------------------------------------------
Pair    | 0          | 0          | 0          |   0.0 |  0.00
Neigh   | 0          | 0          | 0          |   0.0 |  0.00
Comm    | 0          | 0          | 0          |   0.0 |  0.00
Output  | 0          | 0          | 0          |   0.0 |  0.00
Modify  | 0          | 0          | 0          |   0.0 |  0.00
Other   |            | 2.127e-05  |            |       |100.00

Nlocal:         4186.5 ave        4231 max        4165 min
Histogram: 2 0 0 1 0 0 0 0 0 1
Nghost:        14050.5 ave       14077 max       14037 min
Histogram: 1 1 1 0 0 0 0 0 0 1
Neighs:              0 ave           0 max           0 min
Histogram: 4 0 0 0 0 0 0 0 0 0
FullNghs:  2.45678e+06 ave  2.4919e+06 max 2.44169e+06 min
Histogram: 2 1 0 0 0 0 0 0 0 1

Total # of neighbors = 9827124
Ave neighs/atom = 586.83411
Neighbor list builds = 0
Dangerous builds = 0
BEGIN LAMMPS STANDALONE MINIMIZATION; ii = 30; OMP = 12; MPI = 4
minimize 0.0 1e-3 1000 100000
Generated 0 of 1 mixed pair_coeff terms from geometric mixing rule
Generated 0 of 1 mixed pair_coeff terms from geometric mixing rule
Setting up cg style minimization ...
  Unit style    : metal
  Current step  : 499
Per MPI rank memory allocation (min/avg/max) = 88.54 | 88.65 | 88.93 Mbytes
Per MPI rank memory allocation (min/avg/max) = 88.54 | 88.65 | 88.93 Mbytes
   Step          Time           Temp          Press           CPU           KinEng         PotEng         TotEng        Atoms         Fmax          Fnorm     
   Step          Time           Temp          Press           CPU           KinEng         PotEng         TotEng        Atoms         Fmax          Fnorm     
       499      0.04990000000000001                       0      -1411.110636651889                       0                       0      -18787045.88405309      -18787045.88405309      16746    3.113739317126826e-05    0.000946509301675283
       499      0.04990000000000001                       0      -1411.110636651889                       0                       0      -18787045.88405309      -18787045.88405309      16746    3.113739317126826e-05    0.000946509301675283
WARNING: Pair style restartinfo set but has no restart support (src/pair.cpp:754)
WARNING: Pair style restartinfo set but has no restart support (src/pair.cpp:754)
       500      0.05000000000000001                       0      -1411.107373963853          1613.583037863                       0      -18787045.88405315      -18787045.88405315      16746    2.648249489362541e-05   0.0007865564543525535
       500      0.05000000000000001                       0      -1411.107373963853          1613.583037863                       0      -18787045.88405315      -18787045.88405315      16746    2.648249489362541e-05   0.0007865564543525535
Loop time of 1613.58 on 128 procs for 1 steps with 16746 atoms

Loop time of 1613.58 on 128 procs for 1 steps with 16746 atoms

242.9% CPU use with 4 MPI tasks x 32 OpenMP threads
242.9% CPU use with 4 MPI tasks x 32 OpenMP threads

Minimization stats:
  Stopping criterion = force tolerance
  Energy initial, next-to-last, final = 
     -18787045.8840531  -18787045.8840531  -18787045.8840532
  Force two-norm initial, final = 0.0009465093 0.00078655645
  Force max component initial, final = 3.1137393e-05 2.6482495e-05
  Final line search alpha, max atom move = 1 2.6482495e-05
  Iterations, force evaluations = 1 2

Minimization stats:
  Stopping criterion = force tolerance
  Energy initial, next-to-last, final = 
     -18787045.8840531  -18787045.8840531  -18787045.8840532
  Force two-norm initial, final = 0.0009465093 0.00078655645
  Force max component initial, final = 3.1137393e-05 2.6482495e-05
  Final line search alpha, max atom move = 1 2.6482495e-05
  Iterations, force evaluations = 1 2

MPI task timing breakdown:
Section |  min time  |  avg time  |  max time  |%varavg| %total
---------------------------------------------------------------

MPI task timing breakdown:
Section |  min time  |  avg time  |  max time  |%varavg| %total
---------------------------------------------------------------
Pair    | 1580.1     | 1599       | 1613.2     |  30.3 | 99.09
Pair    | 1580.1     | 1599       | 1613.2     |  30.3 | 99.09
Neigh   | 0.32919    | 0.3306     | 0.33151    |   0.2 |  0.02
Neigh   | 0.32919    | 0.3306     | 0.33151    |   0.2 |  0.02
Comm    | 0.0018474  | 14.274     | 33.169     | 320.2 |  0.88
Comm    | 0.0018474  | 14.274     | 33.169     | 320.2 |  0.88
Output  | 0          | 0          | 0          |   0.0 |  0.00
Output  | 0          | 0          | 0          |   0.0 |  0.00
Modify  | 0          | 0          | 0          |   0.0 |  0.00
Modify  | 0          | 0          | 0          |   0.0 |  0.00
Other   |            | 0.005244   |            |       |  0.00
Other   |            | 0.005244   |            |       |  0.00

Nlocal:         4186.5 ave        4231 max        4165 min
Histogram: 2 0 0 1 0 0 0 0 0 1
Nghost:        14050.5 ave       14077 max       14037 min
Histogram: 1 1 1 0 0 0 0 0 0 1
Neighs:              0 ave           0 max           0 min
Histogram: 4 0 0 0 0 0 0 0 0 0
FullNghs:  2.45678e+06 ave  2.4919e+06 max 2.44169e+06 min
Histogram: 2 1 0 0 0 0 0 0 0 1

Nlocal:         4186.5 ave        4231 max        4165 min
Histogram: 2 0 0 1 0 0 0 0 0 1
Nghost:        14050.5 ave       14077 max       14037 min
Histogram: 1 1 1 0 0 0 0 0 0 1
Neighs:              0 ave           0 max           0 min
Histogram: 4 0 0 0 0 0 0 0 0 0
FullNghs:  2.45678e+06 ave  2.4919e+06 max 2.44169e+06 min
Histogram: 2 1 0 0 0 0 0 0 0 1


Total # of neighbors = 9827122
Ave neighs/atom = 586.83399
Neighbor list builds = 3
Dangerous builds = 0
Total # of neighbors = 9827122
Ave neighs/atom = 586.83399
Neighbor list builds = 3
Dangerous builds = 0
#write_dump all xyz /home/p/phrrpq/bilayer_relaxations/WSe2_WSe2/AP/30/WSe2_WSe2_AP_30.xyz modify sort id pbc yes element W Se
write_data /home/p/phrrpq/bilayer_relaxations/WSe2_WSe2/AP/30/WSe2_WSe2_AP_30.data
System init for write_data ...
System init for write_data ...
Generated 0 of 1 mixed pair_coeff terms from geometric mixing rule
Generated 0 of 1 mixed pair_coeff terms from geometric mixing rule
Total wall time: 0:44:57
Total wall time: 0:44:57
