OMP_THREADS: 32
MPI: 1
NTASKS-PER-NODE: 4
CPUS_PER_TASK: 32
LAMMPS (28 Mar 2023 - Development)
  using 32 OpenMP thread(s) per MPI task
  using 32 OpenMP thread(s) per MPI task
Reading restart file ...
  restart file = 28 Mar 2023, LAMMPS = 28 Mar 2023
WARNING: Restart file used different # of processors: 1 vs. 4 (src/read_restart.cpp:661)
  restoring atom style atomic from restart
  triclinic box = (0 0 0) to (60.454399 52.355046 30) with tilt (30.2272 0 0)
WARNING: Triclinic box skew is large. LAMMPS will run inefficiently. (src/domain.cpp:220)
  2 by 2 by 1 MPI processor grid
  restoring pair style mace from restart
WARNING: Pair style restartinfo set but has no restart support (src/pair.cpp:746)
  1986 atoms
  read_restart CPU = 0.032 seconds
CUDA unavailable, setting device type to torch::kCPU.
CUDA unavailable, setting device type to torch::kCPU.
CUDA unavailable, setting device type to torch::kCPU.
CUDA unavailable, setting device type to torch::kCPU.
Loading MACE model from "/home/p/phrrpq/bilayer_relaxations/MoWSSe_bi_radius_8_reduced_all_1_swa_800_run-123_swa.model-lammps.pt" ... finished.
  - The torch_float_dtype is: Double
  - The r_max is: 8.
  - The model has: 2 layers.
  - The model atomic numbers are: 16 34 42 74.
  - The pair_coeff atomic numbers are: 74 34.
Loading MACE model from "/home/p/phrrpq/bilayer_relaxations/MoWSSe_bi_radius_8_reduced_all_1_swa_800_run-123_swa.model-lammps.pt" ... finished.
Generated 0 of 1 mixed pair_coeff terms from geometric mixing rule
  - The torch_float_dtype is: Double
  - The r_max is: 8.
  - The model has: 2 layers.
  - The model atomic numbers are: 16 34 42 74.
  - The pair_coeff atomic numbers are: 74 34.
Loading MACE model from "/home/p/phrrpq/bilayer_relaxations/MoWSSe_bi_radius_8_reduced_all_1_swa_800_run-123_swa.model-lammps.pt" ... finished.
Loading MACE model from "/home/p/phrrpq/bilayer_relaxations/MoWSSe_bi_radius_8_reduced_all_1_swa_800_run-123_swa.model-lammps.pt" ... finished.
  - The torch_float_dtype is: Double
  - The r_max is: 8.
  - The model has: 2 layers.
  - The model atomic numbers are: 16 34 42 74.
  - The pair_coeff atomic numbers are: 74 34.
  - The torch_float_dtype is: Double
  - The r_max is: 8.
  - The model has: 2 layers.
  - The model atomic numbers are: 16 34 42 74.
  - The pair_coeff atomic numbers are: 74 34.
Neighbor list info ...
  update: every = 1 steps, delay = 0 steps, check = yes
  max neighbors/atom: 2000, page size: 100000
  master list distance cutoff = 18
  ghost atom cutoff = 18
  binsize = 9, bins = 11 6 4
  1 neighbor lists, perpetual/occasional/extra = 1 0 0
  (1) pair mace, perpetual
      attributes: full, newton on, ghost
      pair build: full/bin/ghost
      stencil: full/ghost/bin/3d
      bin: standard
Setting up Verlet run ...
  Unit style    : metal
  Current step  : 76
  Time step     : 0.0001
Per MPI rank memory allocation (min/avg/max) = 40.54 | 40.63 | 40.92 Mbytes
   Step          Time           Temp          Press           CPU           KinEng         PotEng         TotEng        Atoms         Fmax          Fnorm     
        76                   0.0076                       0      -1305.477604951018                       0                       0      -2228055.075083344      -2228055.075083344       1986    5.958956882469099e-05   0.0007909598375837258
Loop time of 2.54975e-06 on 128 procs for 0 steps with 1986 atoms

98.0% CPU use with 4 MPI tasks x 32 OpenMP threads

MPI task timing breakdown:
Section |  min time  |  avg time  |  max time  |%varavg| %total
---------------------------------------------------------------
Pair    | 0          | 0          | 0          |   0.0 |  0.00
Neigh   | 0          | 0          | 0          |   0.0 |  0.00
Comm    | 0          | 0          | 0          |   0.0 |  0.00
Output  | 0          | 0          | 0          |   0.0 |  0.00
Modify  | 0          | 0          | 0          |   0.0 |  0.00
Other   |            | 2.55e-06   |            |       |100.00

Nlocal:          496.5 ave         510 max         483 min
Histogram: 2 0 0 0 0 0 0 0 0 2
Nghost:           5105 ave        5111 max        5098 min
Histogram: 1 0 0 0 0 1 1 0 0 1
Neighs:              0 ave           0 max           0 min
Histogram: 4 0 0 0 0 0 0 0 0 0
FullNghs:       290871 ave      299152 max      282778 min
Histogram: 2 0 0 0 0 0 0 0 0 2

Total # of neighbors = 1163484
Ave neighs/atom = 585.8429
Neighbor list builds = 0
Dangerous builds = 0
BEGIN LAMMPS STANDALONE MINIMIZATION; ii = 10; OMP = 12; MPI = 4
minimize 0.0 1e-3 1000 100000
Generated 0 of 1 mixed pair_coeff terms from geometric mixing rule
Generated 0 of 1 mixed pair_coeff terms from geometric mixing rule
Setting up cg style minimization ...
  Unit style    : metal
  Current step  : 76
Per MPI rank memory allocation (min/avg/max) = 41.66 | 41.76 | 42.04 Mbytes
Per MPI rank memory allocation (min/avg/max) = 41.66 | 41.76 | 42.04 Mbytes
   Step          Time           Temp          Press           CPU           KinEng         PotEng         TotEng        Atoms         Fmax          Fnorm     
   Step          Time           Temp          Press           CPU           KinEng         PotEng         TotEng        Atoms         Fmax          Fnorm     
        76                   0.0076                       0      -1305.477604951012                       0                       0      -2228055.075083344      -2228055.075083344       1986    5.958956882472222e-05   0.0007909598375848461
        76                   0.0076                       0      -1305.477604951012                       0                       0      -2228055.075083344      -2228055.075083344       1986    5.958956882472222e-05   0.0007909598375848461
WARNING: Pair style restartinfo set but has no restart support (src/pair.cpp:754)
WARNING: Pair style restartinfo set but has no restart support (src/pair.cpp:754)
        77                   0.0077                       0      -1305.373494182636           477.349110424                       0       -2228055.07508336       -2228055.07508336       1986    5.067269971806108e-05   0.0006041829492942791
        77                   0.0077                       0      -1305.373494182636           477.349110424                       0       -2228055.07508336       -2228055.07508336       1986    5.067269971806108e-05   0.0006041829492942791
Loop time of 477.349 on 128 procs for 1 steps with 1986 atoms

Loop time of 477.349 on 128 procs for 1 steps with 1986 atoms

275.8% CPU use with 4 MPI tasks x 32 OpenMP threads
275.8% CPU use with 4 MPI tasks x 32 OpenMP threads

Minimization stats:
  Stopping criterion = force tolerance
  Energy initial, next-to-last, final = 
     -2228055.07508334  -2228055.07508334  -2228055.07508336
  Force two-norm initial, final = 0.00079095984 0.00060418295
  Force max component initial, final = 5.9589569e-05 5.06727e-05
  Final line search alpha, max atom move = 1 5.06727e-05
  Iterations, force evaluations = 1 2

Minimization stats:
  Stopping criterion = force tolerance
  Energy initial, next-to-last, final = 
     -2228055.07508334  -2228055.07508334  -2228055.07508336
  Force two-norm initial, final = 0.00079095984 0.00060418295
  Force max component initial, final = 5.9589569e-05 5.06727e-05
  Final line search alpha, max atom move = 1 5.06727e-05
  Iterations, force evaluations = 1 2

MPI task timing breakdown:
Section |  min time  |  avg time  |  max time  |%varavg| %total
---------------------------------------------------------------

MPI task timing breakdown:
Section |  min time  |  avg time  |  max time  |%varavg| %total
---------------------------------------------------------------
Pair    | 468.4      | 472.78     | 476.81     |  17.1 | 99.04
Pair    | 468.4      | 472.78     | 476.81     |  17.1 | 99.04
Neigh   | 0.088398   | 0.088774   | 0.089362   |   0.1 |  0.02
Neigh   | 0.088398   | 0.088774   | 0.089362   |   0.1 |  0.02
Comm    | 0.44214    | 4.4713     | 8.8551     | 175.3 |  0.94
Comm    | 0.44214    | 4.4713     | 8.8551     | 175.3 |  0.94
Output  | 0          | 0          | 0          |   0.0 |  0.00
Output  | 0          | 0          | 0          |   0.0 |  0.00
Modify  | 0          | 0          | 0          |   0.0 |  0.00
Modify  | 0          | 0          | 0          |   0.0 |  0.00
Other   |            | 0.004402   |            |       |  0.00
Other   |            | 0.004402   |            |       |  0.00

Nlocal:          496.5 ave         510 max         483 min
Histogram: 2 0 0 0 0 0 0 0 0 2
Nghost:           5105 ave        5111 max        5098 min
Histogram: 1 0 0 0 0 1 1 0 0 1
Neighs:              0 ave           0 max           0 min
Histogram: 4 0 0 0 0 0 0 0 0 0
FullNghs:       290871 ave      299152 max      282778 min
Histogram: 2 0 0 0 0 0 0 0 0 2

Nlocal:          496.5 ave         510 max         483 min
Histogram: 2 0 0 0 0 0 0 0 0 2
Nghost:           5105 ave        5111 max        5098 min
Histogram: 1 0 0 0 0 1 1 0 0 1
Neighs:              0 ave           0 max           0 min
Histogram: 4 0 0 0 0 0 0 0 0 0
FullNghs:       290871 ave      299152 max      282778 min
Histogram: 2 0 0 0 0 0 0 0 0 2


Total # of neighbors = 1163484
Ave neighs/atom = 585.8429
Neighbor list builds = 3
Dangerous builds = 0
Total # of neighbors = 1163484
Ave neighs/atom = 585.8429
Neighbor list builds = 3
Dangerous builds = 0
#write_dump all xyz /home/p/phrrpq/bilayer_relaxations/WSe2_WSe2/AP/10/WSe2_WSe2_AP_10.xyz modify sort id pbc yes element W Se
write_data /home/p/phrrpq/bilayer_relaxations/WSe2_WSe2/AP/10/WSe2_WSe2_AP_10.data
System init for write_data ...
System init for write_data ...
Generated 0 of 1 mixed pair_coeff terms from geometric mixing rule
Generated 0 of 1 mixed pair_coeff terms from geometric mixing rule
Total wall time: 0:13:20
Total wall time: 0:13:20
