OMP_THREADS: 32
MPI: 1
NTASKS-PER-NODE: 4
CPUS_PER_TASK: 32
LAMMPS (28 Mar 2023 - Development)
  using 32 OpenMP thread(s) per MPI task
  using 32 OpenMP thread(s) per MPI task
Reading data file ...
  triclinic box = (0 0 0) to (117.99713 102.18852 30) with tilt (-58.998567 0 0)
WARNING: Triclinic box skew is large. LAMMPS will run inefficiently. (src/domain.cpp:220)
  2 by 2 by 1 MPI processor grid
  reading atoms ...
  7566 atoms
  read_data CPU = 0.037 seconds
CUDA unavailable, setting device type to torch::kCPU.
CUDA unavailable, setting device type to torch::kCPU.
CUDA unavailable, setting device type to torch::kCPU.
CUDA unavailable, setting device type to torch::kCPU.
Loading MACE model from "/home/p/phrrpq/bilayer_relaxations/MoWSSe_bi_radius_8_reduced_all_1_swa_800_run-123_swa.model-lammps.pt" ... finished.
Loading MACE model from "/home/p/phrrpq/bilayer_relaxations/MoWSSe_bi_radius_8_reduced_all_1_swa_800_run-123_swa.model-lammps.pt" ... finished.
Loading MACE model from "/home/p/phrrpq/bilayer_relaxations/MoWSSe_bi_radius_8_reduced_all_1_swa_800_run-123_swa.model-lammps.pt" ... finished.
  - The torch_float_dtype is: Double
  - The r_max is: 8.
  - The model has: 2 layers.
  - The torch_float_dtype is: Double
  - The r_max is: 8.
  - The model has: 2 layers.
  - The model atomic numbers are: 16 34 42 74.
  - The pair_coeff atomic numbers are: 74 34.
  - The model atomic numbers are: 16 34 42 74.
  - The pair_coeff atomic numbers are: 74 34.
  - The torch_float_dtype is: Double
  - The r_max is: 8.
  - The model has: 2 layers.
  - The model atomic numbers are: 16 34 42 74.
  - The pair_coeff atomic numbers are: 74 34.
Generated 0 of 1 mixed pair_coeff terms from geometric mixing rule
Loading MACE model from "/home/p/phrrpq/bilayer_relaxations/MoWSSe_bi_radius_8_reduced_all_1_swa_800_run-123_swa.model-lammps.pt" ... finished.
  - The torch_float_dtype is: Double
  - The r_max is: 8.
  - The model has: 2 layers.
  - The model atomic numbers are: 16 34 42 74.
  - The pair_coeff atomic numbers are: 74 34.
Neighbor list info ...
  update: every = 1 steps, delay = 0 steps, check = yes
  max neighbors/atom: 2000, page size: 100000
  master list distance cutoff = 18
  ghost atom cutoff = 18
  binsize = 9, bins = 20 12 4
  1 neighbor lists, perpetual/occasional/extra = 1 0 0
  (1) pair mace, perpetual
      attributes: full, newton on, ghost
      pair build: full/bin/ghost
      stencil: full/ghost/bin/3d
      bin: standard
Setting up Verlet run ...
  Unit style    : metal
  Current step  : 0
  Time step     : 0.0001
Per MPI rank memory allocation (min/avg/max) = 52.57 | 52.57 | 52.57 Mbytes
   Step          Time           Temp          Press           CPU           KinEng         PotEng         TotEng        Atoms         Fmax          Fnorm     
         0                        0                       0       1459.072774198591                       0                       0        -8488062.4445972        -8488062.4445972       7566       0.7174905949299221       36.90687817995688
Loop time of 2.57225e-06 on 128 procs for 0 steps with 7566 atoms

38.9% CPU use with 4 MPI tasks x 32 OpenMP threads

MPI task timing breakdown:
Section |  min time  |  avg time  |  max time  |%varavg| %total
---------------------------------------------------------------
Pair    | 0          | 0          | 0          |   0.0 |  0.00
Neigh   | 0          | 0          | 0          |   0.0 |  0.00
Comm    | 0          | 0          | 0          |   0.0 |  0.00
Output  | 0          | 0          | 0          |   0.0 |  0.00
Modify  | 0          | 0          | 0          |   0.0 |  0.00
Other   |            | 2.572e-06  |            |       |100.00

Nlocal:         1891.5 ave        1922 max        1860 min
Histogram: 2 0 0 0 0 0 0 0 0 2
Nghost:         9097.5 ave        9130 max        9064 min
Histogram: 2 0 0 0 0 0 0 0 0 2
Neighs:              0 ave           0 max           0 min
Histogram: 4 0 0 0 0 0 0 0 0 0
FullNghs:  1.11718e+06 ave 1.13573e+06 max 1.09843e+06 min
Histogram: 2 0 0 0 0 0 0 0 0 2

Total # of neighbors = 4468734
Ave neighs/atom = 590.63362
Neighbor list builds = 0
Dangerous builds = 0
BEGIN LAMMPS STANDALONE MINIMIZATION; ii = 20; OMP = 12; MPI = 4
minimize 0.0 1e-3 1000 100000
Generated 0 of 1 mixed pair_coeff terms from geometric mixing rule
Generated 0 of 1 mixed pair_coeff terms from geometric mixing rule
Setting up cg style minimization ...
  Unit style    : metal
  Current step  : 0
Per MPI rank memory allocation (min/avg/max) = 53.7 | 53.7 | 53.7 Mbytes
Per MPI rank memory allocation (min/avg/max) = 53.7 | 53.7 | 53.7 Mbytes
   Step          Time           Temp          Press           CPU           KinEng         PotEng         TotEng        Atoms         Fmax          Fnorm     
   Step          Time           Temp          Press           CPU           KinEng         PotEng         TotEng        Atoms         Fmax          Fnorm     
         0                        0                       0       1459.072774198601                       0                       0        -8488062.4445972        -8488062.4445972       7566       0.7174905949299216       36.90687817995683
         0                        0                       0       1459.072774198601                       0                       0        -8488062.4445972        -8488062.4445972       7566       0.7174905949299216       36.90687817995683
WARNING: Pair style restartinfo set but has no restart support (src/pair.cpp:754)
WARNING: Pair style restartinfo set but has no restart support (src/pair.cpp:754)
         1                   0.0001                       0       2235.787687159076            633.85241705                       0      -8488091.344457082      -8488091.344457082       7566       0.2865965776475718       9.639861123170622
         1                   0.0001                       0       2235.787687159076            633.85241705                       0      -8488091.344457082      -8488091.344457082       7566       0.2865965776475718       9.639861123170622
WARNING: Pair style restartinfo set but has no restart support (src/pair.cpp:754)
WARNING: Pair style restartinfo set but has no restart support (src/pair.cpp:754)
         2                   0.0002                       0       4162.992219161606          1264.307649813                       0      -8488100.563218869      -8488100.563218869       7566       0.7015621158208921       18.72102390947019
         2                   0.0002                       0       4162.992219161606          1264.307649813                       0      -8488100.563218869      -8488100.563218869       7566       0.7015621158208921       18.72102390947019
WARNING: Pair style restartinfo set but has no restart support (src/pair.cpp:754)
WARNING: Pair style restartinfo set but has no restart support (src/pair.cpp:754)
         3                   0.0003                       0       4222.351716094837          1902.920270093                       0      -8488115.834029719      -8488115.834029719       7566       0.5854679228576024       20.21133963888933
         3                   0.0003                       0       4222.351716094837          1902.920270093                       0      -8488115.834029719      -8488115.834029719       7566       0.5854679228576024       20.21133963888933
WARNING: Pair style restartinfo set but has no restart support (src/pair.cpp:754)
WARNING: Pair style restartinfo set but has no restart support (src/pair.cpp:754)
         4                   0.0004                       0       599.2306676941246          2216.833404281                       0      -8488134.741159022      -8488134.741159022       7566       0.2119569259853598       9.720988810747969
         4                   0.0004                       0       599.2306676941246          2216.833404281                       0      -8488134.741159022      -8488134.741159022       7566       0.2119569259853598       9.720988810747969
WARNING: Pair style restartinfo set but has no restart support (src/pair.cpp:754)
WARNING: Pair style restartinfo set but has no restart support (src/pair.cpp:754)
         5                   0.0005                       0      -246.0584558273057          2848.481717519                       0      -8488139.081317168      -8488139.081317168       7566       0.1886610475684924       9.120833319554848
         5                   0.0005                       0      -246.0584558273057          2848.481717519                       0      -8488139.081317168      -8488139.081317168       7566       0.1886610475684924       9.120833319554848
WARNING: Pair style restartinfo set but has no restart support (src/pair.cpp:754)
WARNING: Pair style restartinfo set but has no restart support (src/pair.cpp:754)
         6    0.0006000000000000001                       0      -370.8957987587984          3476.314942128                       0       -8488140.71732405       -8488140.71732405       7566      0.06922398463204806       3.691848612568675
         6    0.0006000000000000001                       0      -370.8957987587984          3476.314942128                       0       -8488140.71732405       -8488140.71732405       7566      0.06922398463204806       3.691848612568675
WARNING: Pair style restartinfo set but has no restart support (src/pair.cpp:754)
WARNING: Pair style restartinfo set but has no restart support (src/pair.cpp:754)
         7                   0.0007                       0       730.8767628630955          4097.632663323                       0      -8488141.872161644      -8488141.872161644       7566       0.1023211701399213       5.364111777987882
         7                   0.0007                       0       730.8767628630955          4097.632663323                       0      -8488141.872161644      -8488141.872161644       7566       0.1023211701399213       5.364111777987882
WARNING: Pair style restartinfo set but has no restart support (src/pair.cpp:754)
WARNING: Pair style restartinfo set but has no restart support (src/pair.cpp:754)
         8                   0.0008                       0       884.0940724778835          4728.518452892                       0      -8488146.729700174      -8488146.729700174       7566       0.2951982640379877       11.35562231818042
         8                   0.0008                       0       884.0940724778835          4728.518452892                       0      -8488146.729700174      -8488146.729700174       7566       0.2951982640379877       11.35562231818042
WARNING: Pair style restartinfo set but has no restart support (src/pair.cpp:754)
WARNING: Pair style restartinfo set but has no restart support (src/pair.cpp:754)
         9    0.0009000000000000001                       0        -1438.1323783796          5343.160253975                       0       -8488152.31180197       -8488152.31180197       7566       0.2776643060329416       7.404655915820862
         9    0.0009000000000000001                       0        -1438.1323783796          5343.160253975                       0       -8488152.31180197       -8488152.31180197       7566       0.2776643060329416       7.404655915820862
WARNING: Pair style restartinfo set but has no restart support (src/pair.cpp:754)
WARNING: Pair style restartinfo set but has no restart support (src/pair.cpp:754)
        10                    0.001                       0      -1747.534853300775          5966.218376396                       0      -8488153.200467981      -8488153.200467981       7566      0.06292556639192073       2.767772603707882
        10                    0.001                       0      -1747.534853300775          5966.218376396                       0      -8488153.200467981      -8488153.200467981       7566      0.06292556639192073       2.767772603707882
WARNING: Pair style restartinfo set but has no restart support (src/pair.cpp:754)
WARNING: Pair style restartinfo set but has no restart support (src/pair.cpp:754)
        11                   0.0011                       0      -1295.162988003892          6581.515874617                       0      -8488153.633551799      -8488153.633551799       7566      0.03281440224572915       1.064593633556297
        11                   0.0011                       0      -1295.162988003892          6581.515874617                       0      -8488153.633551799      -8488153.633551799       7566      0.03281440224572915       1.064593633556297
WARNING: Pair style restartinfo set but has no restart support (src/pair.cpp:754)
WARNING: Pair style restartinfo set but has no restart support (src/pair.cpp:754)
        12                   0.0012                       0      -1415.043196299534          7205.264906143                       0      -8488153.662553191      -8488153.662553191       7566      0.02945747619329782      0.8789525100245633
        12                   0.0012                       0      -1415.043196299534          7205.264906143                       0      -8488153.662553191      -8488153.662553191       7566      0.02945747619329782      0.8789525100245633
WARNING: Pair style restartinfo set but has no restart support (src/pair.cpp:754)
WARNING: Pair style restartinfo set but has no restart support (src/pair.cpp:754)
        13                   0.0013                       0      -1656.515826060051          7826.711360105                       0      -8488153.699202564      -8488153.699202564       7566      0.02383827716560391       1.078639193835848
        13                   0.0013                       0      -1656.515826060051          7826.711360105                       0      -8488153.699202564      -8488153.699202564       7566      0.02383827716560391       1.078639193835848
WARNING: Pair style restartinfo set but has no restart support (src/pair.cpp:754)
WARNING: Pair style restartinfo set but has no restart support (src/pair.cpp:754)
        14                   0.0014                       0       -1703.14217396449          8453.525177165                       0      -8488153.948010096      -8488153.948010096       7566      0.07702817629434394       3.302540034943198
        14                   0.0014                       0       -1703.14217396449          8453.525177165                       0      -8488153.948010096      -8488153.948010096       7566      0.07702817629434394       3.302540034943198
WARNING: Pair style restartinfo set but has no restart support (src/pair.cpp:754)
WARNING: Pair style restartinfo set but has no restart support (src/pair.cpp:754)
        15                   0.0015                       0       -1140.32957708275          9072.021337307                       0      -8488155.057981655      -8488155.057981655       7566       0.2295681913669057       5.537685130574926
        15                   0.0015                       0       -1140.32957708275          9072.021337307                       0      -8488155.057981655      -8488155.057981655       7566       0.2295681913669057       5.537685130574926
WARNING: Pair style restartinfo set but has no restart support (src/pair.cpp:754)
WARNING: Pair style restartinfo set but has no restart support (src/pair.cpp:754)
        16                   0.0016                       0      -1026.378217146833          9697.848147822                       0      -8488155.827775277      -8488155.827775277       7566       0.0534546901122229       2.137785589940504
        16                   0.0016                       0      -1026.378217146833          9697.848147822                       0      -8488155.827775277      -8488155.827775277       7566       0.0534546901122229       2.137785589940504
WARNING: Pair style restartinfo set but has no restart support (src/pair.cpp:754)
WARNING: Pair style restartinfo set but has no restart support (src/pair.cpp:754)
        17                   0.0017                       0      -1569.217627157388         10319.564806266                       0      -8488155.996199585      -8488155.996199585       7566       0.0493919630984513       1.036924278882654
        17                   0.0017                       0      -1569.217627157388         10319.564806266                       0      -8488155.996199585      -8488155.996199585       7566       0.0493919630984513       1.036924278882654
WARNING: Pair style restartinfo set but has no restart support (src/pair.cpp:754)
WARNING: Pair style restartinfo set but has no restart support (src/pair.cpp:754)
        18                   0.0018                       0      -1594.221059978181         10936.033054336                       0      -8488156.019102033      -8488156.019102033       7566      0.02768758363655303      0.8100499899017847
        18                   0.0018                       0      -1594.221059978181         10936.033054336                       0      -8488156.019102033      -8488156.019102033       7566      0.02768758363655303      0.8100499899017847
WARNING: Pair style restartinfo set but has no restart support (src/pair.cpp:754)
WARNING: Pair style restartinfo set but has no restart support (src/pair.cpp:754)
        19                   0.0019                       0      -1386.367086717171         11558.173540183                       0      -8488156.059595373      -8488156.059595373       7566      0.01607327708396631       0.693816131240462
        19                   0.0019                       0      -1386.367086717171         11558.173540183                       0      -8488156.059595373      -8488156.059595373       7566      0.01607327708396631       0.693816131240462
WARNING: Pair style restartinfo set but has no restart support (src/pair.cpp:754)
WARNING: Pair style restartinfo set but has no restart support (src/pair.cpp:754)
        20                    0.002                       0      -1412.883620484726         12182.358801296                       0      -8488156.112667218      -8488156.112667218       7566      0.09276731786017632       1.697687067300809
        20                    0.002                       0      -1412.883620484726         12182.358801296                       0      -8488156.112667218      -8488156.112667218       7566      0.09276731786017632       1.697687067300809
WARNING: Pair style restartinfo set but has no restart support (src/pair.cpp:754)
WARNING: Pair style restartinfo set but has no restart support (src/pair.cpp:754)
        21                   0.0021                       0      -1678.524745698482          12809.89673104                       0      -8488156.372874374      -8488156.372874374       7566       0.1184725946531977       2.719372648165387
        21                   0.0021                       0      -1678.524745698482          12809.89673104                       0      -8488156.372874374      -8488156.372874374       7566       0.1184725946531977       2.719372648165387
WARNING: Pair style restartinfo set but has no restart support (src/pair.cpp:754)
WARNING: Pair style restartinfo set but has no restart support (src/pair.cpp:754)
        22                   0.0022                       0      -1625.427396804392         13428.992403935                       0      -8488156.681560196      -8488156.681560196       7566      0.04118595549848828        1.42643441878838
        22                   0.0022                       0      -1625.427396804392         13428.992403935                       0      -8488156.681560196      -8488156.681560196       7566      0.04118595549848828        1.42643441878838
WARNING: Pair style restartinfo set but has no restart support (src/pair.cpp:754)
WARNING: Pair style restartinfo set but has no restart support (src/pair.cpp:754)
        23                   0.0023                       0      -1351.146576433679         14054.160952703                       0      -8488156.745271683      -8488156.745271683       7566      0.05319372583640242      0.9208898367321645
        23                   0.0023                       0      -1351.146576433679         14054.160952703                       0      -8488156.745271683      -8488156.745271683       7566      0.05319372583640242      0.9208898367321645
WARNING: Pair style restartinfo set but has no restart support (src/pair.cpp:754)
WARNING: Pair style restartinfo set but has no restart support (src/pair.cpp:754)
        24                   0.0024                       0      -1261.412713345359         14684.260653197                       0      -8488156.764288472      -8488156.764288472       7566      0.01274240995679303      0.5306591929600727
        24                   0.0024                       0      -1261.412713345359         14684.260653197                       0      -8488156.764288472      -8488156.764288472       7566      0.01274240995679303      0.5306591929600727
WARNING: Pair style restartinfo set but has no restart support (src/pair.cpp:754)
WARNING: Pair style restartinfo set but has no restart support (src/pair.cpp:754)
        25                   0.0025                       0      -1417.527012900915         15311.836589792                       0      -8488156.800291231      -8488156.800291231       7566      0.04756633064239825      0.8990166609223693
        25                   0.0025                       0      -1417.527012900915         15311.836589792                       0      -8488156.800291231      -8488156.800291231       7566      0.04756633064239825      0.8990166609223693
WARNING: Pair style restartinfo set but has no restart support (src/pair.cpp:754)
WARNING: Pair style restartinfo set but has no restart support (src/pair.cpp:754)
        26                   0.0026                       0      -1441.438816388787         15937.787757746                       0      -8488156.825025911      -8488156.825025911       7566      0.03719592623291296      0.8783362673641766
        26                   0.0026                       0      -1441.438816388787         15937.787757746                       0      -8488156.825025911      -8488156.825025911       7566      0.03719592623291296      0.8783362673641766
WARNING: Pair style restartinfo set but has no restart support (src/pair.cpp:754)
WARNING: Pair style restartinfo set but has no restart support (src/pair.cpp:754)
        27                   0.0027                       0      -1203.401850983601         16565.297227407                       0       -8488156.88591858       -8488156.88591858       7566      0.03271103766373353      0.9554014347036747
        27                   0.0027                       0      -1203.401850983601         16565.297227407                       0       -8488156.88591858       -8488156.88591858       7566      0.03271103766373353      0.9554014347036747
WARNING: Pair style restartinfo set but has no restart support (src/pair.cpp:754)
WARNING: Pair style restartinfo set but has no restart support (src/pair.cpp:754)
        28                   0.0028                       0      -1212.765291999289         17187.215863432                       0      -8488156.913315684      -8488156.913315684       7566      0.03131181334511728      0.7317174023879667
        28                   0.0028                       0      -1212.765291999289         17187.215863432                       0      -8488156.913315684      -8488156.913315684       7566      0.03131181334511728      0.7317174023879667
WARNING: Pair style restartinfo set but has no restart support (src/pair.cpp:754)
WARNING: Pair style restartinfo set but has no restart support (src/pair.cpp:754)
        29                   0.0029                       0      -1345.695901671496         17807.967116711                       0      -8488156.932976238      -8488156.932976238       7566      0.02763096496114398      0.6059554216386668
        29                   0.0029                       0      -1345.695901671496         17807.967116711                       0      -8488156.932976238      -8488156.932976238       7566      0.02763096496114398      0.6059554216386668
WARNING: Pair style restartinfo set but has no restart support (src/pair.cpp:754)
WARNING: Pair style restartinfo set but has no restart support (src/pair.cpp:754)
        30                    0.003                       0      -1410.161958905954         18435.835178861                       0      -8488156.950319737      -8488156.950319737       7566      0.03480825650541961      0.7642219185481288
        30                    0.003                       0      -1410.161958905954         18435.835178861                       0      -8488156.950319737      -8488156.950319737       7566      0.03480825650541961      0.7642219185481288
WARNING: Pair style restartinfo set but has no restart support (src/pair.cpp:754)
WARNING: Pair style restartinfo set but has no restart support (src/pair.cpp:754)
        31                   0.0031                       0      -1318.822356871872         19065.299015007                       0      -8488156.993005984      -8488156.993005984       7566      0.04993394868366562       1.055406993099916
        31                   0.0031                       0      -1318.822356871872         19065.299015007                       0      -8488156.993005984      -8488156.993005984       7566      0.04993394868366562       1.055406993099916
WARNING: Pair style restartinfo set but has no restart support (src/pair.cpp:754)
WARNING: Pair style restartinfo set but has no restart support (src/pair.cpp:754)
        32                   0.0032                       0      -1233.567617665291         19695.637699769                       0      -8488157.027668549      -8488157.027668549       7566      0.02402617926288908      0.5267160286662451
        32                   0.0032                       0      -1233.567617665291         19695.637699769                       0      -8488157.027668549      -8488157.027668549       7566      0.02402617926288908      0.5267160286662451
WARNING: Pair style restartinfo set but has no restart support (src/pair.cpp:754)
WARNING: Pair style restartinfo set but has no restart support (src/pair.cpp:754)
        33                   0.0033                       0      -1282.385839270709         20323.031773549                       0      -8488157.035665292      -8488157.035665292       7566      0.02323979873724399      0.4599437698172277
        33                   0.0033                       0      -1282.385839270709         20323.031773549                       0      -8488157.035665292      -8488157.035665292       7566      0.02323979873724399      0.4599437698172277
WARNING: Pair style restartinfo set but has no restart support (src/pair.cpp:754)
WARNING: Pair style restartinfo set but has no restart support (src/pair.cpp:754)
        34                   0.0034                       0      -1388.746383678439         20952.579283718                       0      -8488157.046299735      -8488157.046299735       7566      0.01693886101216575      0.4709436709069574
        34                   0.0034                       0      -1388.746383678439         20952.579283718                       0      -8488157.046299735      -8488157.046299735       7566      0.01693886101216575      0.4709436709069574
WARNING: Pair style restartinfo set but has no restart support (src/pair.cpp:754)
WARNING: Pair style restartinfo set but has no restart support (src/pair.cpp:754)
        35                   0.0035                       0      -1349.638308102343         21579.486166349                       0      -8488157.059128076      -8488157.059128076       7566      0.03313197268542038      0.6659637961193415
        35                   0.0035                       0      -1349.638308102343         21579.486166349                       0      -8488157.059128076      -8488157.059128076       7566      0.03313197268542038      0.6659637961193415
WARNING: Pair style restartinfo set but has no restart support (src/pair.cpp:754)
WARNING: Pair style restartinfo set but has no restart support (src/pair.cpp:754)
        36                   0.0036                       0      -1242.127566002667         22205.622807169                       0      -8488157.076537292      -8488157.076537292       7566      0.01726693520427187      0.4791036069334719
        36                   0.0036                       0      -1242.127566002667         22205.622807169                       0      -8488157.076537292      -8488157.076537292       7566      0.01726693520427187      0.4791036069334719
WARNING: Pair style restartinfo set but has no restart support (src/pair.cpp:754)
WARNING: Pair style restartinfo set but has no restart support (src/pair.cpp:754)
        37                   0.0037                       0      -1277.158483260972         22835.491294305                       0      -8488157.085978344      -8488157.085978344       7566      0.02396985439159386      0.5186440900253954
        37                   0.0037                       0      -1277.158483260972         22835.491294305                       0      -8488157.085978344      -8488157.085978344       7566      0.02396985439159386      0.5186440900253954
WARNING: Pair style restartinfo set but has no restart support (src/pair.cpp:754)
WARNING: Pair style restartinfo set but has no restart support (src/pair.cpp:754)
        38                   0.0038                       0      -1357.972178323703          23461.98513737                       0      -8488157.095694523      -8488157.095694523       7566      0.01182307649944895       0.345904432290228
        38                   0.0038                       0      -1357.972178323703          23461.98513737                       0      -8488157.095694523      -8488157.095694523       7566      0.01182307649944895       0.345904432290228
WARNING: Pair style restartinfo set but has no restart support (src/pair.cpp:754)
WARNING: Pair style restartinfo set but has no restart support (src/pair.cpp:754)
        39                   0.0039                       0      -1338.558403303137         24082.310069446                       0      -8488157.100759178      -8488157.100759178       7566      0.01953877283041073       0.422996412624113
        39                   0.0039                       0      -1338.558403303137         24082.310069446                       0      -8488157.100759178      -8488157.100759178       7566      0.01953877283041073       0.422996412624113
WARNING: Pair style restartinfo set but has no restart support (src/pair.cpp:754)
WARNING: Pair style restartinfo set but has no restart support (src/pair.cpp:754)
        40                    0.004                       0      -1264.237342910266         24704.774371101                       0      -8488157.110385459      -8488157.110385459       7566      0.01730894590286988       0.435091351150029
        40                    0.004                       0      -1264.237342910266         24704.774371101                       0      -8488157.110385459      -8488157.110385459       7566      0.01730894590286988       0.435091351150029
WARNING: Pair style restartinfo set but has no restart support (src/pair.cpp:754)
WARNING: Pair style restartinfo set but has no restart support (src/pair.cpp:754)
        41                   0.0041                       0      -1281.588487818402         25325.881505939                       0      -8488157.117633417      -8488157.117633417       7566       0.0184745970590826      0.3834664075299798
        41                   0.0041                       0      -1281.588487818402         25325.881505939                       0      -8488157.117633417      -8488157.117633417       7566       0.0184745970590826      0.3834664075299798
WARNING: Pair style restartinfo set but has no restart support (src/pair.cpp:754)
WARNING: Pair style restartinfo set but has no restart support (src/pair.cpp:754)
        42     0.004200000000000001                       0      -1339.237187700667          25956.66025215                       0      -8488157.122256773      -8488157.122256773       7566      0.00950804280305362      0.2541673990687287
        42     0.004200000000000001                       0      -1339.237187700667          25956.66025215                       0      -8488157.122256773      -8488157.122256773       7566      0.00950804280305362      0.2541673990687287
WARNING: Pair style restartinfo set but has no restart support (src/pair.cpp:754)
WARNING: Pair style restartinfo set but has no restart support (src/pair.cpp:754)
        43                   0.0043                       0      -1352.828255964183         26574.550928167                       0      -8488157.124450291      -8488157.124450291       7566      0.01013705967404529       0.246360968055122
        43                   0.0043                       0      -1352.828255964183         26574.550928167                       0      -8488157.124450291      -8488157.124450291       7566      0.01013705967404529       0.246360968055122
WARNING: Pair style restartinfo set but has no restart support (src/pair.cpp:754)
WARNING: Pair style restartinfo set but has no restart support (src/pair.cpp:754)
        44                   0.0044                       0      -1322.577003010064           27204.1211653                       0       -8488157.12849956       -8488157.12849956       7566      0.02281477232301036      0.3337362013263573
        44                   0.0044                       0      -1322.577003010064           27204.1211653                       0       -8488157.12849956       -8488157.12849956       7566      0.02281477232301036      0.3337362013263573
WARNING: Pair style restartinfo set but has no restart support (src/pair.cpp:754)
WARNING: Pair style restartinfo set but has no restart support (src/pair.cpp:754)
        45     0.004500000000000001                       0      -1304.412496873028         27831.505767711                       0      -8488157.132231584      -8488157.132231584       7566     0.007701597589103848      0.2532429687187458
        45     0.004500000000000001                       0      -1304.412496873028         27831.505767711                       0      -8488157.132231584      -8488157.132231584       7566     0.007701597589103848      0.2532429687187458
WARNING: Pair style restartinfo set but has no restart support (src/pair.cpp:754)
WARNING: Pair style restartinfo set but has no restart support (src/pair.cpp:754)
        46                   0.0046                       0      -1338.826948232216         28460.925604127                       0      -8488157.135472918      -8488157.135472918       7566      0.01409652151401092      0.2860614167573305
        46                   0.0046                       0      -1338.826948232216         28460.925604127                       0      -8488157.135472918      -8488157.135472918       7566      0.01409652151401092      0.2860614167573305
WARNING: Pair style restartinfo set but has no restart support (src/pair.cpp:754)
WARNING: Pair style restartinfo set but has no restart support (src/pair.cpp:754)
        47                   0.0047                       0       -1363.64366880313         29087.401050851                       0      -8488157.138066985      -8488157.138066985       7566     0.008958140343625883      0.2132455769426419
        47                   0.0047                       0       -1363.64366880313         29087.401050851                       0      -8488157.138066985      -8488157.138066985       7566     0.008958140343625883      0.2132455769426419
WARNING: Pair style restartinfo set but has no restart support (src/pair.cpp:754)
WARNING: Pair style restartinfo set but has no restart support (src/pair.cpp:754)
        48                   0.0048                       0      -1341.727280210717         29706.472365793                       0      -8488157.140321104      -8488157.140321104       7566      0.01742169678215866      0.2445680274367961
        48                   0.0048                       0      -1341.727280210717         29706.472365793                       0      -8488157.140321104      -8488157.140321104       7566      0.01742169678215866      0.2445680274367961
WARNING: Pair style restartinfo set but has no restart support (src/pair.cpp:754)
WARNING: Pair style restartinfo set but has no restart support (src/pair.cpp:754)
        49                   0.0049                       0      -1319.119874426928         30330.349230794                       0      -8488157.142395569      -8488157.142395569       7566     0.007841019230818515      0.2035172811704757
        49                   0.0049                       0      -1319.119874426928         30330.349230794                       0      -8488157.142395569      -8488157.142395569       7566     0.007841019230818515      0.2035172811704757
WARNING: Pair style restartinfo set but has no restart support (src/pair.cpp:754)
WARNING: Pair style restartinfo set but has no restart support (src/pair.cpp:754)
        50                    0.005                       0      -1336.721216304901         30951.526967574                       0      -8488157.144954909      -8488157.144954909       7566      0.01497138338137068      0.2557791288662531
        50                    0.005                       0      -1336.721216304901         30951.526967574                       0      -8488157.144954909      -8488157.144954909       7566      0.01497138338137068      0.2557791288662531
WARNING: Pair style restartinfo set but has no restart support (src/pair.cpp:754)
WARNING: Pair style restartinfo set but has no restart support (src/pair.cpp:754)
        51                   0.0051                       0      -1354.870177958215         31573.448311509                       0      -8488157.146764413      -8488157.146764413       7566     0.007824410442896529        0.15240197324292
        51                   0.0051                       0      -1354.870177958215         31573.448311509                       0      -8488157.146764413      -8488157.146764413       7566     0.007824410442896529        0.15240197324292
WARNING: Pair style restartinfo set but has no restart support (src/pair.cpp:754)
WARNING: Pair style restartinfo set but has no restart support (src/pair.cpp:754)
        52     0.005200000000000001                       0      -1348.526675523651         32191.570118431                       0      -8488157.147817388      -8488157.147817388       7566      0.01222688354827823      0.1841882844875072
        52     0.005200000000000001                       0      -1348.526675523651         32191.570118431                       0      -8488157.147817388      -8488157.147817388       7566      0.01222688354827823      0.1841882844875072
WARNING: Pair style restartinfo set but has no restart support (src/pair.cpp:754)
WARNING: Pair style restartinfo set but has no restart support (src/pair.cpp:754)
        53                   0.0053                       0      -1331.629835798373         32816.549927158                       0      -8488157.149509344      -8488157.149509344       7566     0.007788922671561171      0.1921912132346861
        53                   0.0053                       0      -1331.629835798373         32816.549927158                       0      -8488157.149509344      -8488157.149509344       7566     0.007788922671561171      0.1921912132346861
WARNING: Pair style restartinfo set but has no restart support (src/pair.cpp:754)
WARNING: Pair style restartinfo set but has no restart support (src/pair.cpp:754)
        54                   0.0054                       0      -1336.167406184193         33438.808574118                       0      -8488157.151245184      -8488157.151245184       7566      0.01310596767579833      0.2180301162217835
        54                   0.0054                       0      -1336.167406184193         33438.808574118                       0      -8488157.151245184      -8488157.151245184       7566      0.01310596767579833      0.2180301162217835
WARNING: Pair style restartinfo set but has no restart support (src/pair.cpp:754)
WARNING: Pair style restartinfo set but has no restart support (src/pair.cpp:754)
        55     0.005500000000000001                       0      -1354.417167072636       34060.90529563301                       0      -8488157.153122313      -8488157.153122313       7566     0.008494683621716237      0.1847268100475175
        55     0.005500000000000001                       0      -1354.417167072636       34060.90529563301                       0      -8488157.153122313      -8488157.153122313       7566     0.008494683621716237      0.1847268100475175
WARNING: Pair style restartinfo set but has no restart support (src/pair.cpp:754)
WARNING: Pair style restartinfo set but has no restart support (src/pair.cpp:754)
        56                   0.0056                       0      -1357.130269614662         34683.019117609                       0      -8488157.154498808      -8488157.154498808       7566     0.009620096689339129       0.196905557712284
        56                   0.0056                       0      -1357.130269614662         34683.019117609                       0      -8488157.154498808      -8488157.154498808       7566     0.009620096689339129       0.196905557712284
WARNING: Pair style restartinfo set but has no restart support (src/pair.cpp:754)
WARNING: Pair style restartinfo set but has no restart support (src/pair.cpp:754)
        57                   0.0057                       0      -1343.784708061143         35313.042829867                       0      -8488157.156431291      -8488157.156431291       7566     0.009276534100859407      0.1880004593958028
        57                   0.0057                       0      -1343.784708061143         35313.042829867                       0      -8488157.156431291      -8488157.156431291       7566     0.009276534100859407      0.1880004593958028
WARNING: Pair style restartinfo set but has no restart support (src/pair.cpp:754)
WARNING: Pair style restartinfo set but has no restart support (src/pair.cpp:754)
        58                   0.0058                       0      -1339.817744744576         35940.280859745                       0      -8488157.157569364      -8488157.157569364       7566     0.006954056275908893      0.1696650530481047
        58                   0.0058                       0      -1339.817744744576         35940.280859745                       0      -8488157.157569364      -8488157.157569364       7566     0.006954056275908893      0.1696650530481047
WARNING: Pair style restartinfo set but has no restart support (src/pair.cpp:754)
WARNING: Pair style restartinfo set but has no restart support (src/pair.cpp:754)
        59                   0.0059                       0      -1349.735902915415         36564.898856902                       0      -8488157.159370188      -8488157.159370188       7566      0.01168910355465021      0.2087577553289235
        59                   0.0059                       0      -1349.735902915415         36564.898856902                       0      -8488157.159370188      -8488157.159370188       7566      0.01168910355465021      0.2087577553289235
WARNING: Pair style restartinfo set but has no restart support (src/pair.cpp:754)
WARNING: Pair style restartinfo set but has no restart support (src/pair.cpp:754)
        60                    0.006                       0      -1355.213659190806         37186.235546877                       0      -8488157.160863053      -8488157.160863053       7566     0.006675466739702264      0.1879325913245929
        60                    0.006                       0      -1355.213659190806         37186.235546877                       0      -8488157.160863053      -8488157.160863053       7566     0.006675466739702264      0.1879325913245929
WARNING: Pair style restartinfo set but has no restart support (src/pair.cpp:754)
WARNING: Pair style restartinfo set but has no restart support (src/pair.cpp:754)
        61                   0.0061                       0      -1345.568066270003         37809.621993296                       0       -8488157.16325335       -8488157.16325335       7566      0.01522782973065645      0.2666418491320164
        61                   0.0061                       0      -1345.568066270003         37809.621993296                       0       -8488157.16325335       -8488157.16325335       7566      0.01522782973065645      0.2666418491320164
WARNING: Pair style restartinfo set but has no restart support (src/pair.cpp:754)
WARNING: Pair style restartinfo set but has no restart support (src/pair.cpp:754)
        62     0.006200000000000001                       0       -1335.65163919482         38434.937578262                       0      -8488157.166190747      -8488157.166190747       7566      0.01199453411622063      0.2763054459464099
        62     0.006200000000000001                       0       -1335.65163919482         38434.937578262                       0      -8488157.166190747      -8488157.166190747       7566      0.01199453411622063      0.2763054459464099
WARNING: Pair style restartinfo set but has no restart support (src/pair.cpp:754)
WARNING: Pair style restartinfo set but has no restart support (src/pair.cpp:754)
        63                   0.0063                       0      -1342.090915352489         39051.101643616                       0      -8488157.170867611      -8488157.170867611       7566      0.02343893216095532      0.3248117369762701
        63                   0.0063                       0      -1342.090915352489         39051.101643616                       0      -8488157.170867611      -8488157.170867611       7566      0.02343893216095532      0.3248117369762701
WARNING: Pair style restartinfo set but has no restart support (src/pair.cpp:754)
WARNING: Pair style restartinfo set but has no restart support (src/pair.cpp:754)
        64                   0.0064                       0      -1349.033162365743         39678.724188947                       0      -8488157.173833635      -8488157.173833635       7566     0.008987007349678042      0.2132653249589319
        64                   0.0064                       0      -1349.033162365743         39678.724188947                       0      -8488157.173833635      -8488157.173833635       7566     0.008987007349678042      0.2132653249589319
WARNING: Pair style restartinfo set but has no restart support (src/pair.cpp:754)
WARNING: Pair style restartinfo set but has no restart support (src/pair.cpp:754)
        65     0.006500000000000001                       0      -1346.251617765392         40310.992187751                       0      -8488157.176106961      -8488157.176106961       7566      0.01339502115850198      0.2500651580374949
        65     0.006500000000000001                       0      -1346.251617765392         40310.992187751                       0      -8488157.176106961      -8488157.176106961       7566      0.01339502115850198      0.2500651580374949
WARNING: Pair style restartinfo set but has no restart support (src/pair.cpp:754)
WARNING: Pair style restartinfo set but has no restart support (src/pair.cpp:754)
        66                   0.0066                       0      -1340.783501924717         40936.477772344                       0      -8488157.178258061      -8488157.178258061       7566     0.007650036346959521      0.1909758938653026
        66                   0.0066                       0      -1340.783501924717         40936.477772344                       0      -8488157.178258061      -8488157.178258061       7566     0.007650036346959521      0.1909758938653026
WARNING: Pair style restartinfo set but has no restart support (src/pair.cpp:754)
WARNING: Pair style restartinfo set but has no restart support (src/pair.cpp:754)
        67                   0.0067                       0      -1340.615303837803         41567.398324334                       0      -8488157.179958802      -8488157.179958802       7566      0.01041729530530352      0.2198471133222011
        67                   0.0067                       0      -1340.615303837803         41567.398324334                       0      -8488157.179958802      -8488157.179958802       7566      0.01041729530530352      0.2198471133222011
WARNING: Pair style restartinfo set but has no restart support (src/pair.cpp:754)
WARNING: Pair style restartinfo set but has no restart support (src/pair.cpp:754)
        68                   0.0068                       0      -1343.726736123453         42192.803131907                       0      -8488157.181997869      -8488157.181997869       7566     0.009156214471065892      0.1957427715110326
        68                   0.0068                       0      -1343.726736123453         42192.803131907                       0      -8488157.181997869      -8488157.181997869       7566     0.009156214471065892      0.1957427715110326
WARNING: Pair style restartinfo set but has no restart support (src/pair.cpp:754)
WARNING: Pair style restartinfo set but has no restart support (src/pair.cpp:754)
        69     0.006900000000000001                       0      -1344.133278804567         42819.491839038                       0      -8488157.183594305      -8488157.183594305       7566     0.009773052157817173      0.2128272616965007
        69     0.006900000000000001                       0      -1344.133278804567         42819.491839038                       0      -8488157.183594305      -8488157.183594305       7566     0.009773052157817173      0.2128272616965007
WARNING: Pair style restartinfo set but has no restart support (src/pair.cpp:754)
WARNING: Pair style restartinfo set but has no restart support (src/pair.cpp:754)
        70                    0.007                       0      -1341.487646308181         43444.029245636                       0      -8488157.185587371      -8488157.185587371       7566     0.007626693342469612      0.1898911443378531
        70                    0.007                       0      -1341.487646308181         43444.029245636                       0      -8488157.185587371      -8488157.185587371       7566     0.007626693342469612      0.1898911443378531
WARNING: Pair style restartinfo set but has no restart support (src/pair.cpp:754)
WARNING: Pair style restartinfo set but has no restart support (src/pair.cpp:754)
        71                   0.0071                       0      -1339.958081032438         44065.550257208                       0      -8488157.187019452      -8488157.187019452       7566     0.008494941860854539      0.1997107246405583
        71                   0.0071                       0      -1339.958081032438         44065.550257208                       0      -8488157.187019452      -8488157.187019452       7566     0.008494941860854539      0.1997107246405583
WARNING: Pair style restartinfo set but has no restart support (src/pair.cpp:754)
WARNING: Pair style restartinfo set but has no restart support (src/pair.cpp:754)
        72     0.007200000000000001                       0      -1340.445677055858         44690.393115402                       0      -8488157.188882295      -8488157.188882295       7566     0.008066517512211213      0.1764582971981257
        72     0.007200000000000001                       0      -1340.445677055858         44690.393115402                       0      -8488157.188882295      -8488157.188882295       7566     0.008066517512211213      0.1764582971981257
WARNING: Pair style restartinfo set but has no restart support (src/pair.cpp:754)
WARNING: Pair style restartinfo set but has no restart support (src/pair.cpp:754)
        73                   0.0073                       0      -1341.497548401299         45316.048050046                       0      -8488157.189860316      -8488157.189860316       7566     0.007441696896927329      0.1592300047614857
        73                   0.0073                       0      -1341.497548401299         45316.048050046                       0      -8488157.189860316      -8488157.189860316       7566     0.007441696896927329      0.1592300047614857
WARNING: Pair style restartinfo set but has no restart support (src/pair.cpp:754)
WARNING: Pair style restartinfo set but has no restart support (src/pair.cpp:754)
        74                   0.0074                       0      -1342.482937961077         45940.252868691                       0      -8488157.191494722      -8488157.191494722       7566     0.007952946218745842      0.1987332318047052
        74                   0.0074                       0      -1342.482937961077         45940.252868691                       0      -8488157.191494722      -8488157.191494722       7566     0.007952946218745842      0.1987332318047052
WARNING: Pair style restartinfo set but has no restart support (src/pair.cpp:754)
WARNING: Pair style restartinfo set but has no restart support (src/pair.cpp:754)
        75     0.007500000000000001                       0        -1342.0040893584         46568.207406299                       0        -8488157.1928671        -8488157.1928671       7566     0.006785385398567944      0.1774447810832921
        75     0.007500000000000001                       0        -1342.0040893584         46568.207406299                       0        -8488157.1928671        -8488157.1928671       7566     0.006785385398567944      0.1774447810832921
WARNING: Pair style restartinfo set but has no restart support (src/pair.cpp:754)
WARNING: Pair style restartinfo set but has no restart support (src/pair.cpp:754)
        76                   0.0076                       0      -1340.447041663707         47192.267548504                       0       -8488157.19454035       -8488157.19454035       7566      0.00973273073951981      0.1908362238377772
        76                   0.0076                       0      -1340.447041663707         47192.267548504                       0       -8488157.19454035       -8488157.19454035       7566      0.00973273073951981      0.1908362238377772
WARNING: Pair style restartinfo set but has no restart support (src/pair.cpp:754)
WARNING: Pair style restartinfo set but has no restart support (src/pair.cpp:754)
        77                   0.0077                       0      -1340.449868302436         47820.345534821                       0       -8488157.19567202       -8488157.19567202       7566      0.00619843207512269      0.1529949067025565
        77                   0.0077                       0      -1340.449868302436         47820.345534821                       0       -8488157.19567202       -8488157.19567202       7566      0.00619843207512269      0.1529949067025565
WARNING: Pair style restartinfo set but has no restart support (src/pair.cpp:754)
WARNING: Pair style restartinfo set but has no restart support (src/pair.cpp:754)
        78     0.007800000000000001                       0      -1342.506929044755         48447.465814477                       0      -8488157.196951639      -8488157.196951639       7566     0.009068274086569076      0.1749529150139997
        78     0.007800000000000001                       0      -1342.506929044755         48447.465814477                       0      -8488157.196951639      -8488157.196951639       7566     0.009068274086569076      0.1749529150139997
WARNING: Pair style restartinfo set but has no restart support (src/pair.cpp:754)
WARNING: Pair style restartinfo set but has no restart support (src/pair.cpp:754)
        79     0.007900000000000001                       0      -1343.473807069843         49075.881410679                       0      -8488157.197943745      -8488157.197943745       7566     0.005081912121973072      0.1425192300261055
        79     0.007900000000000001                       0      -1343.473807069843         49075.881410679                       0      -8488157.197943745      -8488157.197943745       7566     0.005081912121973072      0.1425192300261055
WARNING: Pair style restartinfo set but has no restart support (src/pair.cpp:754)
WARNING: Pair style restartinfo set but has no restart support (src/pair.cpp:754)
        80                    0.008                       0       -1342.17471867283         49707.342601366                       0      -8488157.199161164      -8488157.199161164       7566     0.007932437628882634      0.1844462567363197
        80                    0.008                       0       -1342.17471867283         49707.342601366                       0      -8488157.199161164      -8488157.199161164       7566     0.007932437628882634      0.1844462567363197
WARNING: Pair style restartinfo set but has no restart support (src/pair.cpp:754)
WARNING: Pair style restartinfo set but has no restart support (src/pair.cpp:754)
        81                   0.0081                       0      -1341.357687924524         50335.005664688                       0      -8488157.200338941      -8488157.200338941       7566     0.006029501644807124      0.1437945341159093
        81                   0.0081                       0      -1341.357687924524         50335.005664688                       0      -8488157.200338941      -8488157.200338941       7566     0.006029501644807124      0.1437945341159093
WARNING: Pair style restartinfo set but has no restart support (src/pair.cpp:754)
WARNING: Pair style restartinfo set but has no restart support (src/pair.cpp:754)
        82     0.008200000000000001                       0       -1343.10297912641         50967.992433922                       0      -8488157.201277774      -8488157.201277774       7566     0.007237337495161426      0.1624965183567182
        82     0.008200000000000001                       0       -1343.10297912641         50967.992433922                       0      -8488157.201277774      -8488157.201277774       7566     0.007237337495161426      0.1624965183567182
WARNING: Pair style restartinfo set but has no restart support (src/pair.cpp:754)
WARNING: Pair style restartinfo set but has no restart support (src/pair.cpp:754)
        83                   0.0083                       0      -1345.526782759621         51587.952006903                       0      -8488157.202358261      -8488157.202358261       7566      0.00517696326542719      0.1346814284018386
        83                   0.0083                       0      -1345.526782759621         51587.952006903                       0      -8488157.202358261      -8488157.202358261       7566      0.00517696326542719      0.1346814284018386
WARNING: Pair style restartinfo set but has no restart support (src/pair.cpp:754)
WARNING: Pair style restartinfo set but has no restart support (src/pair.cpp:754)
        84     0.008400000000000001                       0        -1344.9784611491         52214.244750612                       0      -8488157.203059889      -8488157.203059889       7566     0.005254895805424809      0.1361091761384382
        84     0.008400000000000001                       0        -1344.9784611491         52214.244750612                       0      -8488157.203059889      -8488157.203059889       7566     0.005254895805424809      0.1361091761384382
WARNING: Pair style restartinfo set but has no restart support (src/pair.cpp:754)
WARNING: Pair style restartinfo set but has no restart support (src/pair.cpp:754)
        85     0.008500000000000001                       0      -1343.324375264798       52842.56722883901                       0      -8488157.203774584      -8488157.203774584       7566     0.004059080473318888      0.1069775406774441
        85     0.008500000000000001                       0      -1343.324375264798       52842.56722883901                       0      -8488157.203774584      -8488157.203774584       7566     0.004059080473318888      0.1069775406774441
WARNING: Pair style restartinfo set but has no restart support (src/pair.cpp:754)
WARNING: Pair style restartinfo set but has no restart support (src/pair.cpp:754)
        86                   0.0086                       0      -1343.710659723544         53462.517716004                       0       -8488157.20423713       -8488157.20423713       7566     0.005094607069320485      0.1179354386959841
        86                   0.0086                       0      -1343.710659723544         53462.517716004                       0       -8488157.20423713       -8488157.20423713       7566     0.005094607069320485      0.1179354386959841
WARNING: Pair style restartinfo set but has no restart support (src/pair.cpp:754)
WARNING: Pair style restartinfo set but has no restart support (src/pair.cpp:754)
        87     0.008700000000000001                       0      -1345.996635342322          54085.35650424                       0       -8488157.20497153       -8488157.20497153       7566     0.005636216977278409      0.1229911746162592
        87     0.008700000000000001                       0      -1345.996635342322          54085.35650424                       0       -8488157.20497153       -8488157.20497153       7566     0.005636216977278409      0.1229911746162592
WARNING: Pair style restartinfo set but has no restart support (src/pair.cpp:754)
WARNING: Pair style restartinfo set but has no restart support (src/pair.cpp:754)
        88     0.008800000000000001                       0       -1346.65762712221         54724.442928316                       0      -8488157.205535335      -8488157.205535335       7566     0.005548374789259693      0.1268422666992707
        88     0.008800000000000001                       0       -1346.65762712221         54724.442928316                       0      -8488157.205535335      -8488157.205535335       7566     0.005548374789259693      0.1268422666992707
WARNING: Pair style restartinfo set but has no restart support (src/pair.cpp:754)
WARNING: Pair style restartinfo set but has no restart support (src/pair.cpp:754)
        89                   0.0089                       0      -1345.193795498437         55348.428968425                       0      -8488157.206519589      -8488157.206519589       7566     0.006917454214489626      0.1434978575933722
        89                   0.0089                       0      -1345.193795498437         55348.428968425                       0      -8488157.206519589      -8488157.206519589       7566     0.006917454214489626      0.1434978575933722
WARNING: Pair style restartinfo set but has no restart support (src/pair.cpp:754)
WARNING: Pair style restartinfo set but has no restart support (src/pair.cpp:754)
        90     0.009000000000000001                       0      -1344.866523788559         55973.746442851                       0      -8488157.207205821      -8488157.207205821       7566     0.005151325888515887      0.1337057549331834
        90     0.009000000000000001                       0      -1344.866523788559         55973.746442851                       0      -8488157.207205821      -8488157.207205821       7566     0.005151325888515887      0.1337057549331834
WARNING: Pair style restartinfo set but has no restart support (src/pair.cpp:754)
WARNING: Pair style restartinfo set but has no restart support (src/pair.cpp:754)
        91                   0.0091                       0      -1347.184003094505         56604.576918499                       0      -8488157.208369389      -8488157.208369389       7566     0.007809438497101993       0.172049578940547
        91                   0.0091                       0      -1347.184003094505         56604.576918499                       0      -8488157.208369389      -8488157.208369389       7566     0.007809438497101993       0.172049578940547
WARNING: Pair style restartinfo set but has no restart support (src/pair.cpp:754)
WARNING: Pair style restartinfo set but has no restart support (src/pair.cpp:754)
        92                   0.0092                       0      -1348.833854688257          57232.66571981                       0      -8488157.209459469      -8488157.209459469       7566     0.006382156629193445      0.1631597165011076
        92                   0.0092                       0      -1348.833854688257          57232.66571981                       0      -8488157.209459469      -8488157.209459469       7566     0.006382156629193445      0.1631597165011076
WARNING: Pair style restartinfo set but has no restart support (src/pair.cpp:754)
WARNING: Pair style restartinfo set but has no restart support (src/pair.cpp:754)
        93     0.009300000000000001                       0      -1348.082424777928         57858.945883991                       0      -8488157.210960375      -8488157.210960375       7566     0.008495980048942475      0.1849645437935405
        93     0.009300000000000001                       0      -1348.082424777928         57858.945883991                       0      -8488157.210960375      -8488157.210960375       7566     0.008495980048942475      0.1849645437935405
WARNING: Pair style restartinfo set but has no restart support (src/pair.cpp:754)
WARNING: Pair style restartinfo set but has no restart support (src/pair.cpp:754)
        94                   0.0094                       0       -1347.21225259396         58489.662684608                       0      -8488157.212053102      -8488157.212053102       7566     0.006111832551505381      0.1496274494028136
        94                   0.0094                       0       -1347.21225259396         58489.662684608                       0      -8488157.212053102      -8488157.212053102       7566     0.006111832551505381      0.1496274494028136
WARNING: Pair style restartinfo set but has no restart support (src/pair.cpp:754)
WARNING: Pair style restartinfo set but has no restart support (src/pair.cpp:754)
        95                   0.0095                       0      -1348.046291443508         59114.347721862                       0      -8488157.213295277      -8488157.213295277       7566     0.008838779425400392       0.186076197325226
        95                   0.0095                       0      -1348.046291443508         59114.347721862                       0      -8488157.213295277      -8488157.213295277       7566     0.008838779425400392       0.186076197325226
WARNING: Pair style restartinfo set but has no restart support (src/pair.cpp:754)
WARNING: Pair style restartinfo set but has no restart support (src/pair.cpp:754)
        96     0.009600000000000001                       0      -1349.759373190948         59741.274708405                       0      -8488157.214567441      -8488157.214567441       7566     0.005956725751437384      0.1545060440766651
        96     0.009600000000000001                       0      -1349.759373190948         59741.274708405                       0      -8488157.214567441      -8488157.214567441       7566     0.005956725751437384      0.1545060440766651
WARNING: Pair style restartinfo set but has no restart support (src/pair.cpp:754)
WARNING: Pair style restartinfo set but has no restart support (src/pair.cpp:754)
        97                   0.0097                       0      -1350.343475330107         60358.657805808                       0      -8488157.215813279      -8488157.215813279       7566     0.008177743201846473      0.1956331776183752
        97                   0.0097                       0      -1350.343475330107         60358.657805808                       0      -8488157.215813279      -8488157.215813279       7566     0.008177743201846473      0.1956331776183752
WARNING: Pair style restartinfo set but has no restart support (src/pair.cpp:754)
WARNING: Pair style restartinfo set but has no restart support (src/pair.cpp:754)
        98                   0.0098                       0      -1349.750998680961          60978.32802866                       0      -8488157.217346974      -8488157.217346974       7566     0.006807120413741236       0.163263974329037
        98                   0.0098                       0      -1349.750998680961          60978.32802866                       0      -8488157.217346974      -8488157.217346974       7566     0.006807120413741236       0.163263974329037
WARNING: Pair style restartinfo set but has no restart support (src/pair.cpp:754)
WARNING: Pair style restartinfo set but has no restart support (src/pair.cpp:754)
        99     0.009900000000000001                       0      -1349.122292492527         61603.604956702                       0      -8488157.218510609      -8488157.218510609       7566     0.007740129180224979      0.1839349569713565
        99     0.009900000000000001                       0      -1349.122292492527         61603.604956702                       0      -8488157.218510609      -8488157.218510609       7566     0.007740129180224979      0.1839349569713565
WARNING: Too many warnings: 101 vs 100. All future warnings will be suppressed (src/thermo.cpp:466)
WARNING: Too many warnings: 101 vs 100. All future warnings will be suppressed (src/thermo.cpp:466)
       100                     0.01                       0      -1349.318964486663         62237.877477108                       0      -8488157.219990779      -8488157.219990779       7566     0.006450159186384689      0.1653393212479257
       100                     0.01                       0      -1349.318964486663         62237.877477108                       0      -8488157.219990779      -8488157.219990779       7566     0.006450159186384689      0.1653393212479257
       101                   0.0101                       0      -1350.395126122345          62862.26328667                       0      -8488157.221105002      -8488157.221105002       7566     0.008552047857030431      0.1780491566236794
       101                   0.0101                       0      -1350.395126122345          62862.26328667                       0      -8488157.221105002      -8488157.221105002       7566     0.008552047857030431      0.1780491566236794
       102                   0.0102                       0      -1351.266035227917         63490.228049614                       0      -8488157.222592952      -8488157.222592952       7566     0.006851842597948382      0.1623951045746028
       102                   0.0102                       0      -1351.266035227917         63490.228049614                       0      -8488157.222592952      -8488157.222592952       7566     0.006851842597948382      0.1623951045746028
       103                   0.0103                       0      -1350.278607854525         64119.380065365                       0      -8488157.223532911      -8488157.223532911       7566       0.0076292857927942      0.1633269779261871
       103                   0.0103                       0      -1350.278607854525         64119.380065365                       0      -8488157.223532911      -8488157.223532911       7566       0.0076292857927942      0.1633269779261871
       104                   0.0104                       0      -1348.118770335195         64746.154604294                       0      -8488157.225040318      -8488157.225040318       7566     0.007032299720398332      0.1720531014618486
       104                   0.0104                       0      -1348.118770335195         64746.154604294                       0      -8488157.225040318      -8488157.225040318       7566     0.007032299720398332      0.1720531014618486
       105                   0.0105                       0      -1348.608095110514         65368.336689582                       0      -8488157.226026863      -8488157.226026863       7566     0.006098716539826562      0.1587863475870827
       105                   0.0105                       0      -1348.608095110514         65368.336689582                       0      -8488157.226026863      -8488157.226026863       7566     0.006098716539826562      0.1587863475870827
       106                   0.0106                       0      -1351.471985049443         65992.955298845                       0      -8488157.227527728      -8488157.227527728       7566     0.009253565923643179      0.1841777858658391
       106                   0.0106                       0      -1351.471985049443         65992.955298845                       0      -8488157.227527728      -8488157.227527728       7566     0.009253565923643179      0.1841777858658391
       107                   0.0107                       0      -1351.207707115382       66620.62236940399                       0      -8488157.228642005      -8488157.228642005       7566      0.00791588499155832      0.1562276500670243
       107                   0.0107                       0      -1351.207707115382       66620.62236940399                       0      -8488157.228642005      -8488157.228642005       7566      0.00791588499155832      0.1562276500670243
       108                   0.0108                       0      -1347.072001720972       67252.28085183799                       0      -8488157.229892248      -8488157.229892248       7566     0.007431392789692594      0.1654823751849554
       108                   0.0108                       0      -1347.072001720972       67252.28085183799                       0      -8488157.229892248      -8488157.229892248       7566     0.007431392789692594      0.1654823751849554
       109                   0.0109                       0      -1345.987373579133       67877.52669927999                       0      -8488157.230736099      -8488157.230736099       7566     0.005355614600686398      0.1227353982354624
       109                   0.0109                       0      -1345.987373579133       67877.52669927999                       0      -8488157.230736099      -8488157.230736099       7566     0.005355614600686398      0.1227353982354624
       110                    0.011                       0       -1349.04519676565         68500.319917702                       0      -8488157.231435629      -8488157.231435629       7566     0.006494898687369133      0.1273985244549495
       110                    0.011                       0       -1349.04519676565         68500.319917702                       0      -8488157.231435629      -8488157.231435629       7566     0.006494898687369133      0.1273985244549495
       111                   0.0111                       0      -1350.477969255969         69125.941495911                       0      -8488157.231942384      -8488157.231942384       7566      0.00335334525809631     0.09353213301631021
       111                   0.0111                       0      -1350.477969255969         69125.941495911                       0      -8488157.231942384      -8488157.231942384       7566      0.00335334525809631     0.09353213301631021
       112                   0.0112                       0      -1347.618022802046         69749.959275687                       0      -8488157.232395867      -8488157.232395867       7566     0.006145307527626554      0.1165605236183684
       112                   0.0112                       0      -1347.618022802046         69749.959275687                       0      -8488157.232395867      -8488157.232395867       7566     0.006145307527626554      0.1165605236183684
       113                   0.0113                       0      -1344.693330329661         70376.424087632                       0      -8488157.232920907      -8488157.232920907       7566     0.004568591854963985     0.09269667329470302
       113                   0.0113                       0      -1344.693330329661         70376.424087632                       0      -8488157.232920907      -8488157.232920907       7566     0.004568591854963985     0.09269667329470302
       114                   0.0114                       0      -1347.004746591325         71004.633887284                       0        -8488157.2332821        -8488157.2332821       7566     0.004650558636120235      0.1023519484971691
       114                   0.0114                       0      -1347.004746591325         71004.633887284                       0        -8488157.2332821        -8488157.2332821       7566     0.004650558636120235      0.1023519484971691
       115                   0.0115                       0      -1350.849693604188       71627.86226938199                       0      -8488157.233738553      -8488157.233738553       7566     0.004216702892637272     0.09078058930588127
       115                   0.0115                       0      -1350.849693604188       71627.86226938199                       0      -8488157.233738553      -8488157.233738553       7566     0.004216702892637272     0.09078058930588127
       116                   0.0116                       0      -1348.984259848838       72256.80243917399                       0      -8488157.234068628      -8488157.234068628       7566     0.004403527759441504     0.09549683475791486
       116                   0.0116                       0      -1348.984259848838       72256.80243917399                       0      -8488157.234068628      -8488157.234068628       7566     0.004403527759441504     0.09549683475791486
       117                   0.0117                       0      -1344.331280580509       72883.43762779399                       0      -8488157.234461054      -8488157.234461054       7566     0.003093631205667594     0.07881756383021572
       117                   0.0117                       0      -1344.331280580509       72883.43762779399                       0      -8488157.234461054      -8488157.234461054       7566     0.003093631205667594     0.07881756383021572
       118                   0.0118                       0      -1345.110257862118       73505.20552017899                       0      -8488157.234669365      -8488157.234669365       7566     0.003016692837712194     0.07298352859866454
       118                   0.0118                       0      -1345.110257862118       73505.20552017899                       0      -8488157.234669365      -8488157.234669365       7566     0.003016692837712194     0.07298352859866454
       119                   0.0119                       0      -1349.304441279036       74128.04087789099                       0      -8488157.234919019      -8488157.234919019       7566     0.002740188250959383     0.06618793743530461
       119                   0.0119                       0      -1349.304441279036       74128.04087789099                       0      -8488157.234919019      -8488157.234919019       7566     0.002740188250959383     0.06618793743530461
       120                    0.012                       0      -1349.268403059684       74747.76254497799                       0      -8488157.235060023      -8488157.235060023       7566     0.002311921509754816     0.05922881154398278
       120                    0.012                       0      -1349.268403059684       74747.76254497799                       0      -8488157.235060023      -8488157.235060023       7566     0.002311921509754816     0.05922881154398278
       121                   0.0121                       0      -1344.768597983124         75374.166285314                       0      -8488157.235266581      -8488157.235266581       7566     0.003441078399945791     0.06764628371485631
       121                   0.0121                       0      -1344.768597983124         75374.166285314                       0      -8488157.235266581      -8488157.235266581       7566     0.003441078399945791     0.06764628371485631
       122                   0.0122                       0      -1344.052914195528       75997.18196048499                       0       -8488157.23540798       -8488157.23540798       7566     0.002772919094251163      0.0532961807024032
       122                   0.0122                       0      -1344.052914195528       75997.18196048499                       0       -8488157.23540798       -8488157.23540798       7566     0.002772919094251163      0.0532961807024032
       123                   0.0123                       0      -1348.306106837382         76622.435409563                       0      -8488157.235546207      -8488157.235546207       7566     0.002248014214940114     0.05467690317800013
       123                   0.0123                       0      -1348.306106837382         76622.435409563                       0      -8488157.235546207      -8488157.235546207       7566     0.002248014214940114     0.05467690317800013
       124                   0.0124                       0      -1349.949005275347         77240.663162357                       0      -8488157.235642474      -8488157.235642474       7566     0.001914096613493923      0.0443940777740881
       124                   0.0124                       0      -1349.949005275347         77240.663162357                       0      -8488157.235642474      -8488157.235642474       7566     0.001914096613493923      0.0443940777740881
       125                   0.0125                       0      -1346.618318178434       77869.54740608399                       0      -8488157.235748466      -8488157.235748466       7566     0.002132059969338893     0.05236004640694708
       125                   0.0125                       0      -1346.618318178434       77869.54740608399                       0      -8488157.235748466      -8488157.235748466       7566     0.002132059969338893     0.05236004640694708
       126                   0.0126                       0      -1344.391234160853         78492.224290349                       0      -8488157.235839445      -8488157.235839445       7566     0.001646974269144535     0.04019712471528047
       126                   0.0126                       0      -1344.391234160853         78492.224290349                       0      -8488157.235839445      -8488157.235839445       7566     0.001646974269144535     0.04019712471528047
       127                   0.0127                       0      -1347.158366762554       79121.00064939199                       0      -8488157.235917151      -8488157.235917151       7566     0.002190964899710487     0.04542662236887114
       127                   0.0127                       0      -1347.158366762554       79121.00064939199                       0      -8488157.235917151      -8488157.235917151       7566     0.002190964899710487     0.04542662236887114
       128                   0.0128                       0      -1350.043870539818       79743.44518337199                       0       -8488157.23599181       -8488157.23599181       7566     0.001435381198238049     0.03551926447458184
       128                   0.0128                       0      -1350.043870539818       79743.44518337199                       0       -8488157.23599181       -8488157.23599181       7566     0.001435381198238049     0.03551926447458184
       129                   0.0129                       0      -1348.224891130233         80371.105419471                       0      -8488157.236048259      -8488157.236048259       7566     0.001920305147028345     0.04233558673510222
       129                   0.0129                       0      -1348.224891130233         80371.105419471                       0      -8488157.236048259      -8488157.236048259       7566     0.001920305147028345     0.04233558673510222
       130                    0.013                       0      -1344.384775858125         80995.228233993                       0      -8488157.236131612      -8488157.236131612       7566     0.001914807706097983     0.03818758318613527
       130                    0.013                       0      -1344.384775858125         80995.228233993                       0      -8488157.236131612      -8488157.236131612       7566     0.001914807706097983     0.03818758318613527
       131                   0.0131                       0      -1346.138035253937         81617.485067025                       0      -8488157.236191321      -8488157.236191321       7566     0.001807810096367407     0.04112631831806233
       131                   0.0131                       0      -1346.138035253937         81617.485067025                       0      -8488157.236191321      -8488157.236191321       7566     0.001807810096367407     0.04112631831806233
       132                   0.0132                       0      -1350.569221234218       82233.70613755799                       0      -8488157.236263089      -8488157.236263089       7566     0.001505158558314757     0.03496024508085856
       132                   0.0132                       0      -1350.569221234218       82233.70613755799                       0      -8488157.236263089      -8488157.236263089       7566     0.001505158558314757     0.03496024508085856
       133                   0.0133                       0      -1350.019315004062       82859.39040111299                       0        -8488157.2363081        -8488157.2363081       7566     0.001966308523126899     0.03429704821328438
       133                   0.0133                       0      -1350.019315004062       82859.39040111299                       0        -8488157.2363081        -8488157.2363081       7566     0.001966308523126899     0.03429704821328438
       134                   0.0134                       0      -1346.360572734118       83481.54640382099                       0      -8488157.236359905      -8488157.236359905       7566     0.001269785972173303     0.02898443337251638
       134                   0.0134                       0      -1346.360572734118       83481.54640382099                       0      -8488157.236359905      -8488157.236359905       7566     0.001269785972173303     0.02898443337251638
       135                   0.0135                       0      -1346.359037919286       84106.19484009099                       0      -8488157.236385018      -8488157.236385018       7566      0.00100922217567647     0.02340885126588899
       135                   0.0135                       0      -1346.359037919286       84106.19484009099                       0      -8488157.236385018      -8488157.236385018       7566      0.00100922217567647     0.02340885126588899
       136                   0.0136                       0      -1349.356445530693       84734.37327348199                       0      -8488157.236411735      -8488157.236411735       7566     0.001102899819994328     0.02245660205269061
       136                   0.0136                       0      -1349.356445530693       84734.37327348199                       0      -8488157.236411735      -8488157.236411735       7566     0.001102899819994328     0.02245660205269061
       137                   0.0137                       0      -1349.919887435759       85358.15321412099                       0      -8488157.236426832      -8488157.236426832       7566    0.0007259491507088755     0.01810232633544474
       137                   0.0137                       0      -1349.919887435759       85358.15321412099                       0      -8488157.236426832      -8488157.236426832       7566    0.0007259491507088755     0.01810232633544474
       138                   0.0138                       0      -1347.614061130759         85975.490239669                       0      -8488157.236444436      -8488157.236444436       7566    0.0009731295067905921     0.02029117348093555
       138                   0.0138                       0      -1347.614061130759         85975.490239669                       0      -8488157.236444436      -8488157.236444436       7566    0.0009731295067905921     0.02029117348093555
       139                   0.0139                       0      -1346.643961455819       86595.92230039499                       0      -8488157.236458199      -8488157.236458199       7566    0.0006047299473581075     0.01633464852593111
       139                   0.0139                       0      -1346.643961455819       86595.92230039499                       0      -8488157.236458199      -8488157.236458199       7566    0.0006047299473581075     0.01633464852593111
       140                    0.014                       0      -1348.542252494861       87225.16496173599                       0      -8488157.236470722      -8488157.236470722       7566    0.0008422126507097692     0.01723034884128237
       140                    0.014                       0      -1348.542252494861       87225.16496173599                       0      -8488157.236470722      -8488157.236470722       7566    0.0008422126507097692     0.01723034884128237
       141                   0.0141                       0      -1349.897702528311       87849.17115195199                       0      -8488157.236480385      -8488157.236480385       7566    0.0005152019378412837     0.01321175715195644
       141                   0.0141                       0      -1349.897702528311       87849.17115195199                       0      -8488157.236480385      -8488157.236480385       7566    0.0005152019378412837     0.01321175715195644
       142                   0.0142                       0      -1348.711176648465         88476.815917128                       0      -8488157.236489054      -8488157.236489054       7566    0.0007500261642632944     0.01539875365829429
       142                   0.0142                       0      -1348.711176648465         88476.815917128                       0      -8488157.236489054      -8488157.236489054       7566    0.0007500261642632944     0.01539875365829429
       143                   0.0143                       0      -1347.327492588067         89108.526284087                       0      -8488157.236497382      -8488157.236497382       7566    0.0004384792779675295     0.01137915958999466
       143                   0.0143                       0      -1347.327492588067         89108.526284087                       0      -8488157.236497382      -8488157.236497382       7566    0.0004384792779675295     0.01137915958999466
       144                   0.0144                       0      -1348.140390098583         89737.590699387                       0      -8488157.236502837      -8488157.236502837       7566    0.0005279541980979449     0.01230577962736814
       144                   0.0144                       0      -1348.140390098583         89737.590699387                       0      -8488157.236502837      -8488157.236502837       7566    0.0005279541980979449     0.01230577962736814
       145                   0.0145                       0      -1349.590700780491       90362.24472676999                       0      -8488157.236508833      -8488157.236508833       7566    0.0003268527582137242     0.01007409289976897
       145                   0.0145                       0      -1349.590700780491       90362.24472676999                       0      -8488157.236508833      -8488157.236508833       7566    0.0003268527582137242     0.01007409289976897
       146                   0.0146                       0      -1349.212883204109       90985.52220198599                       0      -8488157.236512806      -8488157.236512806       7566    0.0003946678382374669      0.0106057185458659
       146                   0.0146                       0      -1349.212883204109       90985.52220198599                       0      -8488157.236512806      -8488157.236512806       7566    0.0003946678382374669      0.0106057185458659
       147                   0.0147                       0      -1347.644960251657       91612.20245331299                       0      -8488157.236518402      -8488157.236518402       7566    0.0005205477930857565     0.01027199988998652
       147                   0.0147                       0      -1347.644960251657       91612.20245331299                       0      -8488157.236518402      -8488157.236518402       7566    0.0005205477930857565     0.01027199988998652
       148                   0.0148                       0       -1347.76809841457       92239.73833051999                       0       -8488157.23652222       -8488157.23652222       7566    0.0004294660281444207     0.01002444172386295
       148                   0.0148                       0       -1347.76809841457       92239.73833051999                       0       -8488157.23652222       -8488157.23652222       7566    0.0004294660281444207     0.01002444172386295
       149                   0.0149                       0      -1349.216605742527       92873.30378736299                       0       -8488157.23652669       -8488157.23652669       7566    0.0003530574081038511    0.008625291307357615
       149                   0.0149                       0      -1349.216605742527       92873.30378736299                       0       -8488157.23652669       -8488157.23652669       7566    0.0003530574081038511    0.008625291307357615
       150                    0.015                       0      -1349.372780145631       93502.34293062899                       0      -8488157.236529091      -8488157.236529091       7566    0.0003738382478563618    0.007621835722685639
       150                    0.015                       0      -1349.372780145631       93502.34293062899                       0      -8488157.236529091      -8488157.236529091       7566    0.0003738382478563618    0.007621835722685639
       151                   0.0151                       0      -1348.279534736088         94126.983971023                       0      -8488157.236532211      -8488157.236532211       7566    0.0004064505821916135    0.008095476561180889
       151                   0.0151                       0      -1348.279534736088         94126.983971023                       0      -8488157.236532211      -8488157.236532211       7566    0.0004064505821916135    0.008095476561180889
       152                   0.0152                       0      -1347.978131500876         94746.690632535                       0      -8488157.236534232      -8488157.236534232       7566    0.0002255488165185183    0.006510947505697049
       152                   0.0152                       0      -1347.978131500876         94746.690632535                       0      -8488157.236534232      -8488157.236534232       7566    0.0002255488165185183    0.006510947505697049
       153                   0.0153                       0      -1348.882497785238         95374.474947219                       0       -8488157.23653644       -8488157.23653644       7566    0.0003400937580309415    0.007228937963820855
       153                   0.0153                       0      -1348.882497785238         95374.474947219                       0       -8488157.23653644       -8488157.23653644       7566    0.0003400937580309415    0.007228937963820855
       154                   0.0154                       0      -1349.381478298119       95999.59459841299                       0       -8488157.23653822       -8488157.23653822       7566     0.000234342544789351    0.005847210915342313
       154                   0.0154                       0      -1349.381478298119       95999.59459841299                       0       -8488157.23653822       -8488157.23653822       7566     0.000234342544789351    0.005847210915342313
       155                   0.0155                       0      -1348.718386128395         96625.805886986                       0      -8488157.236539882      -8488157.236539882       7566    0.0002822272862757346     0.00668905926848713
       155                   0.0155                       0      -1348.718386128395         96625.805886986                       0      -8488157.236539882      -8488157.236539882       7566    0.0002822272862757346     0.00668905926848713
       156                   0.0156                       0      -1348.036450112999       97252.26147546599                       0      -8488157.236541523      -8488157.236541523       7566    0.0001960733196661249    0.005600149695296584
       156                   0.0156                       0      -1348.036450112999       97252.26147546599                       0      -8488157.236541523      -8488157.236541523       7566    0.0001960733196661249    0.005600149695296584
       157                   0.0157                       0      -1348.516102091756         97878.020911841                       0      -8488157.236543093      -8488157.236543093       7566    0.0003261336739377654    0.006713358374361078
       157                   0.0157                       0      -1348.516102091756         97878.020911841                       0      -8488157.236543093      -8488157.236543093       7566    0.0003261336739377654    0.006713358374361078
       158                   0.0158                       0      -1349.301863877221         98506.237857599                       0      -8488157.236544847      -8488157.236544847       7566    0.0002000999367966125    0.005415640588573827
       158                   0.0158                       0      -1349.301863877221         98506.237857599                       0      -8488157.236544847      -8488157.236544847       7566    0.0002000999367966125    0.005415640588573827
       159                   0.0159                       0      -1349.022726040208       99136.27378259499                       0      -8488157.236546077      -8488157.236546077       7566    0.0002639008639126542     0.00601991118546503
       159                   0.0159                       0      -1349.022726040208       99136.27378259499                       0      -8488157.236546077      -8488157.236546077       7566    0.0002639008639126542     0.00601991118546503
       160                    0.016                       0      -1348.252398577928       99758.11714223999                       0      -8488157.236547597      -8488157.236547597       7566    0.0001913773673359571    0.004893446781728998
       160                    0.016                       0      -1348.252398577928       99758.11714223999                       0      -8488157.236547597      -8488157.236547597       7566    0.0001913773673359571    0.004893446781728998
       161                   0.0161                       0       -1348.39225972395        100387.394655901                       0      -8488157.236548455      -8488157.236548455       7566    0.0002062176437775409    0.004732745366550206
       161                   0.0161                       0       -1348.39225972395        100387.394655901                       0      -8488157.236548455      -8488157.236548455       7566    0.0002062176437775409    0.004732745366550206
       162                   0.0162                       0      -1349.132147020226        101010.646207729                       0      -8488157.236549532      -8488157.236549532       7566    0.0002182133600256986    0.004599391114317166
       162                   0.0162                       0      -1349.132147020226        101010.646207729                       0      -8488157.236549532      -8488157.236549532       7566    0.0002182133600256986    0.004599391114317166
       163                   0.0163                       0      -1349.166411204515        101632.893224121                       0      -8488157.236550268      -8488157.236550268       7566    0.0001559791596775495    0.004353271211806231
       163                   0.0163                       0      -1349.166411204515        101632.893224121                       0      -8488157.236550268      -8488157.236550268       7566    0.0001559791596775495    0.004353271211806231
       164                   0.0164                       0      -1348.464387192258        102260.143286211                       0      -8488157.236551259      -8488157.236551259       7566    0.0001905736134209018    0.004437511761237974
       164                   0.0164                       0      -1348.464387192258        102260.143286211                       0      -8488157.236551259      -8488157.236551259       7566    0.0001905736134209018    0.004437511761237974
       165                   0.0165                       0      -1348.309286607365        102888.385782661                       0      -8488157.236551933      -8488157.236551933       7566    0.0001540404068341992    0.004055199547990078
       165                   0.0165                       0      -1348.309286607365        102888.385782661                       0      -8488157.236551933      -8488157.236551933       7566    0.0001540404068341992    0.004055199547990078
       166                   0.0166                       0       -1348.90237433361         103519.05979854                       0      -8488157.236552823      -8488157.236552823       7566    0.0002141558389821187    0.004378176379987354
       166                   0.0166                       0       -1348.90237433361         103519.05979854                       0      -8488157.236552823      -8488157.236552823       7566    0.0002141558389821187    0.004378176379987354
       167                   0.0167                       0      -1349.149399474368        104145.285314521                       0      -8488157.236553404      -8488157.236553404       7566    0.0001533696663008236    0.003445331765351736
       167                   0.0167                       0      -1349.149399474368        104145.285314521                       0      -8488157.236553404      -8488157.236553404       7566    0.0001533696663008236    0.003445331765351736
       168                   0.0168                       0      -1348.681072422819         104766.51448749                       0      -8488157.236554082      -8488157.236554082       7566    0.0002185357838627275    0.004302166833888206
       168                   0.0168                       0      -1348.681072422819         104766.51448749                       0      -8488157.236554082      -8488157.236554082       7566    0.0002185357838627275    0.004302166833888206
       169                   0.0169                       0      -1348.330350789062        105395.034974471                       0      -8488157.236554744      -8488157.236554744       7566     0.000141555373978447    0.003498511195202892
       169                   0.0169                       0      -1348.330350789062        105395.034974471                       0      -8488157.236554744      -8488157.236554744       7566     0.000141555373978447    0.003498511195202892
       170                    0.017                       0      -1348.722891238183         106018.34518785                       0      -8488157.236555312      -8488157.236555312       7566    0.0002321446018501859    0.003929094155350795
       170                    0.017                       0      -1348.722891238183         106018.34518785                       0      -8488157.236555312      -8488157.236555312       7566    0.0002321446018501859    0.003929094155350795
       171                   0.0171                       0      -1349.186701198448        106642.195370521                       0      -8488157.236555891      -8488157.236555891       7566    0.0001115902966274743    0.003289290533409117
       171                   0.0171                       0      -1349.186701198448        106642.195370521                       0      -8488157.236555891      -8488157.236555891       7566    0.0001115902966274743    0.003289290533409117
       172                   0.0172                       0      -1348.944936807656        107267.906762026                       0      -8488157.236556418      -8488157.236556418       7566    0.0001798309337628279    0.003898228213157172
       172                   0.0172                       0      -1348.944936807656        107267.906762026                       0      -8488157.236556418      -8488157.236556418       7566    0.0001798309337628279    0.003898228213157172
       173                   0.0173                       0      -1348.444493545221        107895.511955772                       0      -8488157.236557018      -8488157.236557018       7566     0.000123642144357512    0.003138023087178118
       173                   0.0173                       0      -1348.444493545221        107895.511955772                       0      -8488157.236557018      -8488157.236557018       7566     0.000123642144357512    0.003138023087178118
       174                   0.0174                       0       -1348.59086397854           108522.971553                       0      -8488157.236557426      -8488157.236557426       7566    0.0001697783393294211    0.003506111688430208
       174                   0.0174                       0       -1348.59086397854           108522.971553                       0      -8488157.236557426      -8488157.236557426       7566    0.0001697783393294211    0.003506111688430208
       175                   0.0175                       0      -1349.135718796603        109155.824023309                       0      -8488157.236558009      -8488157.236558009       7566    0.0001193730949169873    0.003280439635376026
       175                   0.0175                       0      -1349.135718796603        109155.824023309                       0      -8488157.236558009      -8488157.236558009       7566    0.0001193730949169873    0.003280439635376026
       176                   0.0176                       0      -1349.085777832192         109777.81491001                       0      -8488157.236558406      -8488157.236558406       7566    0.0001410031875212043    0.003318704000057516
       176                   0.0176                       0      -1349.085777832192         109777.81491001                       0      -8488157.236558406      -8488157.236558406       7566    0.0001410031875212043    0.003318704000057516
       177                   0.0177                       0      -1348.499341334018        110397.531094408                       0      -8488157.236559011      -8488157.236559011       7566    0.0001654415175474898    0.003466625699971187
       177                   0.0177                       0      -1348.499341334018        110397.531094408                       0      -8488157.236559011      -8488157.236559011       7566    0.0001654415175474898    0.003466625699971187
       178                   0.0178                       0       -1348.44964775436        111021.738793123                       0      -8488157.236559438      -8488157.236559438       7566    0.0001453199572465091    0.003381811261512211
       178                   0.0178                       0       -1348.44964775436        111021.738793123                       0      -8488157.236559438      -8488157.236559438       7566    0.0001453199572465091    0.003381811261512211
       179                   0.0179                       0      -1349.005641121744        111649.012149503                       0      -8488157.236560009      -8488157.236560009       7566     0.000144706280801149    0.003227038086865276
       179                   0.0179                       0      -1349.005641121744        111649.012149503                       0      -8488157.236560009      -8488157.236560009       7566     0.000144706280801149    0.003227038086865276
       180                    0.018                       0       -1349.11487806844        112273.923650188                       0      -8488157.236560326      -8488157.236560326       7566    9.771603395056981e-05     0.00248394597526574
       180                    0.018                       0       -1349.11487806844        112273.923650188                       0      -8488157.236560326      -8488157.236560326       7566    9.771603395056981e-05     0.00248394597526574
       181                   0.0181                       0      -1348.732922903537        112894.022521379                       0      -8488157.236560635      -8488157.236560635       7566    0.0001138355049091731    0.002655865907336854
       181                   0.0181                       0      -1348.732922903537        112894.022521379                       0      -8488157.236560635      -8488157.236560635       7566    0.0001138355049091731    0.002655865907336854
       182                   0.0182                       0      -1348.551020957093        113516.030869088                       0      -8488157.236560857      -8488157.236560857       7566    6.508234195481808e-05    0.002086155929962702
       182                   0.0182                       0      -1348.551020957093        113516.030869088                       0      -8488157.236560857      -8488157.236560857       7566    6.508234195481808e-05    0.002086155929962702
       183                   0.0183                       0      -1348.852391277106        114134.790384786                       0      -8488157.236561075      -8488157.236561075       7566    0.0001171524847752407    0.002362924075299184
       183                   0.0183                       0      -1348.852391277106        114134.790384786                       0      -8488157.236561075      -8488157.236561075       7566    0.0001171524847752407    0.002362924075299184
       184                   0.0184                       0      -1349.077192141571        114757.877667931                       0      -8488157.236561261      -8488157.236561261       7566    7.754661378932531e-05    0.001881275994027571
       184                   0.0184                       0      -1349.077192141571        114757.877667931                       0      -8488157.236561261      -8488157.236561261       7566    7.754661378932531e-05    0.001881275994027571
       185                   0.0185                       0      -1348.874554563253        115383.858046088                       0      -8488157.236561451      -8488157.236561451       7566     9.16556037126922e-05    0.002261974648557746
       185                   0.0185                       0      -1348.874554563253        115383.858046088                       0      -8488157.236561451      -8488157.236561451       7566     9.16556037126922e-05    0.002261974648557746
       186                   0.0186                       0      -1348.588514512707        116011.063641816                       0      -8488157.236561652      -8488157.236561652       7566     7.01599439514658e-05    0.001905468510819815
       186                   0.0186                       0      -1348.588514512707        116011.063641816                       0      -8488157.236561652      -8488157.236561652       7566     7.01599439514658e-05    0.001905468510819815
       187                   0.0187                       0      -1348.730821364035        116636.116397888                       0      -8488157.236561809      -8488157.236561809       7566    0.0001065787258707376     0.00223638411928157
       187                   0.0187                       0      -1348.730821364035        116636.116397888                       0      -8488157.236561809      -8488157.236561809       7566    0.0001065787258707376     0.00223638411928157
       188                   0.0188                       0      -1349.081676008674        117259.901903604                       0      -8488157.236562034      -8488157.236562034       7566    6.681507354361918e-05    0.001920726760237045
       188                   0.0188                       0      -1349.081676008674        117259.901903604                       0      -8488157.236562034      -8488157.236562034       7566    6.681507354361918e-05    0.001920726760237045
       189                   0.0189                       0      -1348.989783452491        117891.719122423                       0      -8488157.236562178      -8488157.236562178       7566    8.796530982040638e-05    0.002020392616436563
       189                   0.0189                       0      -1348.989783452491        117891.719122423                       0      -8488157.236562178      -8488157.236562178       7566    8.796530982040638e-05    0.002020392616436563
       190                    0.019                       0      -1348.652813149478        118516.691516303                       0      -8488157.236562356      -8488157.236562356       7566    7.905850214299061e-05    0.001864924287848741
       190                    0.019                       0      -1348.652813149478        118516.691516303                       0      -8488157.236562356      -8488157.236562356       7566    7.905850214299061e-05    0.001864924287848741
       191                   0.0191                       0       -1348.65054780039        119145.415418919                       0      -8488157.236562476      -8488157.236562476       7566    8.176238387016093e-05    0.001881048493474494
       191                   0.0191                       0       -1348.65054780039        119145.415418919                       0      -8488157.236562476      -8488157.236562476       7566    8.176238387016093e-05    0.001881048493474494
       192                   0.0192                       0      -1349.006085936132        119759.762429625                       0      -8488157.236562693      -8488157.236562693       7566    9.071068239729224e-05    0.001919743354475227
       192                   0.0192                       0      -1349.006085936132        119759.762429625                       0      -8488157.236562693      -8488157.236562693       7566    9.071068239729224e-05    0.001919743354475227
       193                   0.0193                       0      -1349.047324602112        120384.209773946                       0        -8488157.2365628        -8488157.2365628       7566    7.246553378400092e-05    0.001728053510987795
       193                   0.0193                       0      -1349.047324602112        120384.209773946                       0        -8488157.2365628        -8488157.2365628       7566    7.246553378400092e-05    0.001728053510987795
       194                   0.0194                       0      -1348.733019387453        121013.321209489                       0      -8488157.236562967      -8488157.236562967       7566    0.0001050618881730259    0.001865883721780539
       194                   0.0194                       0      -1348.733019387453        121013.321209489                       0      -8488157.236562967      -8488157.236562967       7566    0.0001050618881730259    0.001865883721780539
       195                   0.0195                       0      -1348.639193833485        121643.994643228                       0      -8488157.236563087      -8488157.236563087       7566    6.989427109865484e-05    0.001531108781930192
       195                   0.0195                       0      -1348.639193833485        121643.994643228                       0      -8488157.236563087      -8488157.236563087       7566    6.989427109865484e-05    0.001531108781930192
       196                   0.0196                       0      -1348.889562168256        122268.276173376                       0      -8488157.236563204      -8488157.236563204       7566     8.45177599590339e-05    0.001655029371148319
       196                   0.0196                       0      -1348.889562168256        122268.276173376                       0      -8488157.236563204      -8488157.236563204       7566     8.45177599590339e-05    0.001655029371148319
       197                   0.0197                       0      -1349.039899732225        122896.853968431                       0      -8488157.236563284      -8488157.236563284       7566    5.331341267812723e-05    0.001289087283394991
       197                   0.0197                       0      -1349.039899732225        122896.853968431                       0      -8488157.236563284      -8488157.236563284       7566    5.331341267812723e-05    0.001289087283394991
       198                   0.0198                       0      -1348.849358508087        123520.019094458                       0      -8488157.236563364      -8488157.236563364       7566    9.801534895096525e-05    0.001561104642694172
       198                   0.0198                       0      -1348.849358508087        123520.019094458                       0      -8488157.236563364      -8488157.236563364       7566    9.801534895096525e-05    0.001561104642694172
       199                   0.0199                       0      -1348.646905401861        124147.969703737                       0      -8488157.236563461      -8488157.236563461       7566      6.4001751315549e-05    0.001419834085730399
       199                   0.0199                       0      -1348.646905401861        124147.969703737                       0      -8488157.236563461      -8488157.236563461       7566      6.4001751315549e-05    0.001419834085730399
       200                     0.02                       0      -1348.791474865857        124770.285390716                       0      -8488157.236563582      -8488157.236563582       7566      8.5069253197817e-05    0.001982490492614482
       200                     0.02                       0      -1348.791474865857        124770.285390716                       0      -8488157.236563582      -8488157.236563582       7566      8.5069253197817e-05    0.001982490492614482
       201                   0.0201                       0      -1349.089527242039        125403.645101008                       0      -8488157.236563763      -8488157.236563763       7566    9.515619721357782e-05     0.00175366063224515
       201                   0.0201                       0      -1349.089527242039        125403.645101008                       0      -8488157.236563763      -8488157.236563763       7566    9.515619721357782e-05     0.00175366063224515
       202                   0.0202                       0      -1348.974115685169        126024.798854973                       0      -8488157.236563889      -8488157.236563889       7566    0.0001140362143708627    0.001860433381696402
       202                   0.0202                       0      -1348.974115685169        126024.798854973                       0      -8488157.236563889      -8488157.236563889       7566    0.0001140362143708627    0.001860433381696402
       203                   0.0203                       0      -1348.645296952186        126658.406861017                       0      -8488157.236564033      -8488157.236564033       7566    8.706282093678269e-05    0.001649924038082198
       203                   0.0203                       0      -1348.645296952186        126658.406861017                       0      -8488157.236564033      -8488157.236564033       7566    8.706282093678269e-05    0.001649924038082198
       204                   0.0204                       0      -1348.679770715006        127283.391264556                       0      -8488157.236564133      -8488157.236564133       7566    8.166114460820065e-05    0.001601767842305556
       204                   0.0204                       0      -1348.679770715006        127283.391264556                       0      -8488157.236564133      -8488157.236564133       7566    8.166114460820065e-05    0.001601767842305556
       205                   0.0205                       0      -1349.006762109322        127918.467039693                       0      -8488157.236564256      -8488157.236564256       7566    6.589095000225642e-05     0.00151483137182791
       205                   0.0205                       0      -1349.006762109322        127918.467039693                       0      -8488157.236564256      -8488157.236564256       7566    6.589095000225642e-05     0.00151483137182791
       206                   0.0206                       0       -1349.02082728742        128539.018316812                       0      -8488157.236564338      -8488157.236564338       7566    7.210066994073339e-05    0.001504604313188678
       206                   0.0206                       0       -1349.02082728742        128539.018316812                       0      -8488157.236564338      -8488157.236564338       7566    7.210066994073339e-05    0.001504604313188678
       207                   0.0207                       0      -1348.724886152379        129167.144355035                       0      -8488157.236564469      -8488157.236564469       7566    8.166926203106994e-05    0.001573815027917173
       207                   0.0207                       0      -1348.724886152379        129167.144355035                       0      -8488157.236564469      -8488157.236564469       7566    8.166926203106994e-05    0.001573815027917173
       208                   0.0208                       0      -1348.652072514676        129793.739960443                       0      -8488157.236564543      -8488157.236564543       7566    5.219678924723702e-05    0.001368354031853139
       208                   0.0208                       0      -1348.652072514676        129793.739960443                       0      -8488157.236564543      -8488157.236564543       7566    5.219678924723702e-05    0.001368354031853139
       209                   0.0209                       0      -1348.907607993023        130419.711754511                       0      -8488157.236564651      -8488157.236564651       7566    8.060197999312933e-05    0.001555390455792792
       209                   0.0209                       0      -1348.907607993023        130419.711754511                       0      -8488157.236564651      -8488157.236564651       7566    8.060197999312933e-05    0.001555390455792792
       210                    0.021                       0      -1349.022583397051        131046.456498549                       0      -8488157.236564726      -8488157.236564726       7566    4.792630773156614e-05    0.001247041572975382
       210                    0.021                       0      -1349.022583397051        131046.456498549                       0      -8488157.236564726      -8488157.236564726       7566    4.792630773156614e-05    0.001247041572975382
       211                   0.0211                       0      -1348.806492153007        131674.163810671                       0      -8488157.236564804      -8488157.236564804       7566    6.361713401517588e-05    0.001464620653381601
       211                   0.0211                       0      -1348.806492153007        131674.163810671                       0      -8488157.236564804      -8488157.236564804       7566    6.361713401517588e-05    0.001464620653381601
       212                   0.0212                       0      -1348.636965364283        132302.842646421                       0       -8488157.23656489       -8488157.23656489       7566    3.802427515166598e-05    0.001230863077056919
       212                   0.0212                       0      -1348.636965364283        132302.842646421                       0       -8488157.23656489       -8488157.23656489       7566    3.802427515166598e-05    0.001230863077056919
       213                   0.0213                       0      -1348.794875151931        132928.415088386                       0      -8488157.236564957      -8488157.236564957       7566    7.628014664148863e-05    0.001493429298941016
       213                   0.0213                       0      -1348.794875151931        132928.415088386                       0      -8488157.236564957      -8488157.236564957       7566    7.628014664148863e-05    0.001493429298941016
       214                   0.0214                       0      -1349.000851169368        133546.157322991                       0      -8488157.236565042      -8488157.236565042       7566    4.311611270920584e-05    0.001208250373619463
       214                   0.0214                       0      -1349.000851169368        133546.157322991                       0      -8488157.236565042      -8488157.236565042       7566    4.311611270920584e-05    0.001208250373619463
       215                   0.0215                       0      -1348.885684402306        134173.507103878                       0      -8488157.236565107      -8488157.236565107       7566    6.719734929358859e-05    0.001372514136719946
       215                   0.0215                       0      -1348.885684402306        134173.507103878                       0      -8488157.236565107      -8488157.236565107       7566    6.719734929358859e-05    0.001372514136719946
       216                   0.0216                       0      -1348.665340825816        134806.876524971                       0      -8488157.236565188      -8488157.236565188       7566    3.992529312247389e-05     0.00108779010577038
       216                   0.0216                       0      -1348.665340825816        134806.876524971                       0      -8488157.236565188      -8488157.236565188       7566    3.992529312247389e-05     0.00108779010577038
       217                   0.0217                       0      -1348.717757978776        135438.035248143                       0      -8488157.236565232      -8488157.236565232       7566    5.180466325011013e-05    0.001119304865222546
       217                   0.0217                       0      -1348.717757978776        135438.035248143                       0      -8488157.236565232      -8488157.236565232       7566    5.180466325011013e-05    0.001119304865222546
       218                   0.0218                       0      -1348.916332259765        136375.262178279                       0      -8488157.236565292      -8488157.236565292       7566    3.867531209227754e-05   0.0009607456282816561
       218                   0.0218                       0      -1348.916332259765        136375.262178279                       0      -8488157.236565292      -8488157.236565292       7566    3.867531209227754e-05   0.0009607456282816561
Loop time of 136375 on 128 procs for 218 steps with 7566 atoms

Loop time of 136375 on 128 procs for 218 steps with 7566 atoms

267.3% CPU use with 4 MPI tasks x 32 OpenMP threads
267.3% CPU use with 4 MPI tasks x 32 OpenMP threads

Minimization stats:
  Stopping criterion = force tolerance
  Energy initial, next-to-last, final = 
      -8488062.4445972  -8488157.23656523  -8488157.23656529
  Force two-norm initial, final = 36.906878 0.00096074563
  Force max component initial, final = 0.71749059 3.8675312e-05
  Final line search alpha, max atom move = 1 3.8675312e-05
  Iterations, force evaluations = 218 435

Minimization stats:
  Stopping criterion = force tolerance
  Energy initial, next-to-last, final = 
      -8488062.4445972  -8488157.23656523  -8488157.23656529
  Force two-norm initial, final = 36.906878 0.00096074563
  Force max component initial, final = 0.71749059 3.8675312e-05
  Final line search alpha, max atom move = 1 3.8675312e-05
  Iterations, force evaluations = 218 435

MPI task timing breakdown:
Section |  min time  |  avg time  |  max time  |%varavg| %total
---------------------------------------------------------------

MPI task timing breakdown:
Section |  min time  |  avg time  |  max time  |%varavg| %total
---------------------------------------------------------------
Pair    | 1.3402e+05 | 1.3475e+05 | 1.3532e+05 | 129.5 | 98.81
Pair    | 1.3402e+05 | 1.3475e+05 | 1.3532e+05 | 129.5 | 98.81
Neigh   | 28.969     | 29.213     | 29.485     |   3.5 |  0.02
Neigh   | 28.969     | 29.213     | 29.485     |   3.5 |  0.02
Comm    | 1029.6     | 1596.7     | 2322.1     |1189.6 |  1.17
Comm    | 1029.6     | 1596.7     | 2322.1     |1189.6 |  1.17
Output  | 0.56578    | 0.56639    | 0.5682     |   0.1 |  0.00
Output  | 0.56578    | 0.56639    | 0.5682     |   0.1 |  0.00
Modify  | 0          | 0          | 0          |   0.0 |  0.00
Modify  | 0          | 0          | 0          |   0.0 |  0.00
Other   |            | 0.2014     |            |       |  0.00
Other   |            | 0.2014     |            |       |  0.00

Nlocal:         1891.5 ave        1921 max        1871 min
Histogram: 2 0 0 0 0 0 1 0 0 1
Nghost:           9122 ave        9139 max        9101 min
Histogram: 1 0 1 0 0 0 0 0 0 2
Neighs:              0 ave           0 max           0 min
Histogram: 4 0 0 0 0 0 0 0 0 0
FullNghs:  1.10864e+06 ave 1.12815e+06 max 1.09604e+06 min
Histogram: 2 0 0 0 0 1 0 0 0 1

Nlocal:         1891.5 ave        1921 max        1871 min
Histogram: 2 0 0 0 0 0 1 0 0 1
Nghost:           9122 ave        9139 max        9101 min
Histogram: 1 0 1 0 0 0 0 0 0 2
Neighs:              0 ave           0 max           0 min
Histogram: 4 0 0 0 0 0 0 0 0 0
FullNghs:  1.10864e+06 ave 1.12815e+06 max 1.09604e+06 min
Histogram: 2 0 0 0 0 1 0 0 0 1


Total # of neighbors = 4434570
Ave neighs/atom = 586.11816
Neighbor list builds = 436
Dangerous builds = 0
Total # of neighbors = 4434570
Ave neighs/atom = 586.11816
Neighbor list builds = 436
Dangerous builds = 0
write_dump all xyz /home/p/phrrpq/bilayer_relaxations/WSe2_WSe2/AP/20/WSe2_WSe2_AP_20.xyz modify sort id pbc yes element W Se

Total wall time: 38:03:33
Total wall time: 38:03:33
