OMP_THREADS: 12
MPI: 1
NTASKS-PER-NODE: 4
CPUS_PER_TASK: 12
LAMMPS (28 Mar 2023 - Development)
  using 12 OpenMP thread(s) per MPI task
  using 12 OpenMP thread(s) per MPI task
Reading data file ...
  triclinic box = (0 0 0) to (129.50687 112.15624 30) with tilt (-64.753434 0 0)
WARNING: Triclinic box skew is large. LAMMPS will run inefficiently. (src/domain.cpp:220)
  2 by 2 by 1 MPI processor grid
  reading atoms ...
  9114 atoms
  read_data CPU = 0.040 seconds
CUDA unavailable, setting device type to torch::kCPU.
CUDA unavailable, setting device type to torch::kCPU.
CUDA unavailable, setting device type to torch::kCPU.
CUDA unavailable, setting device type to torch::kCPU.
Loading MACE model from "/home/theory/phrrpq/bilayer_relaxations/MoWSSe_bi_radius_8_reduced_all_1_swa_800_run-123_swa.model-lammps.pt" ... finished.
Loading MACE model from "/home/theory/phrrpq/bilayer_relaxations/MoWSSe_bi_radius_8_reduced_all_1_swa_800_run-123_swa.model-lammps.pt" ... finished.
Loading MACE model from "/home/theory/phrrpq/bilayer_relaxations/MoWSSe_bi_radius_8_reduced_all_1_swa_800_run-123_swa.model-lammps.pt" ... finished.
  - The torch_float_dtype is: Double
  - The torch_float_dtype is: Double
Loading MACE model from "/home/theory/phrrpq/bilayer_relaxations/MoWSSe_bi_radius_8_reduced_all_1_swa_800_run-123_swa.model-lammps.pt" ... finished.
  - The r_max is: 8.
  - The r_max is: 8.
  - The model has: 2 layers.
  - The model has: 2 layers.
  - The torch_float_dtype is: Double
  - The r_max is: 8.
  - The model has: 2 layers.
  - The model atomic numbers are: 16 34 42 74.
  - The pair_coeff atomic numbers are: 74 34.
  - The model atomic numbers are: 16 34 42 74.
  - The pair_coeff atomic numbers are: 74 34.
  - The model atomic numbers are: 16 34 42 74.
  - The pair_coeff atomic numbers are: 74 34.
  - The torch_float_dtype is: Double
  - The r_max is: 8.
  - The model has: 2 layers.
  - The model atomic numbers are: 16 34 42 74.
  - The pair_coeff atomic numbers are: 74 34.
Generated 0 of 1 mixed pair_coeff terms from geometric mixing rule
Neighbor list info ...
  update: every = 1 steps, delay = 0 steps, check = yes
  max neighbors/atom: 2000, page size: 100000
  master list distance cutoff = 18
  ghost atom cutoff = 18
  binsize = 9, bins = 22 13 4
  1 neighbor lists, perpetual/occasional/extra = 1 0 0
  (1) pair mace, perpetual
      attributes: full, newton on, ghost
      pair build: full/bin/ghost
      stencil: full/ghost/bin/3d
      bin: standard
Setting up Verlet run ...
  Unit style    : metal
  Current step  : 0
  Time step     : 0.0001
Per MPI rank memory allocation (min/avg/max) = 37.3 | 37.3 | 37.3 Mbytes
   Step          Time           CPU           TotEng          Fmax          Fnorm     
         0                        0                       0      -10224720.69182311      0.6590350733647236       37.48250709584378
Loop time of 2.497e-06 on 48 procs for 0 steps with 9114 atoms

60.1% CPU use with 4 MPI tasks x 12 OpenMP threads

MPI task timing breakdown:
Section |  min time  |  avg time  |  max time  |%varavg| %total
---------------------------------------------------------------
Pair    | 0          | 0          | 0          |   0.0 |  0.00
Neigh   | 0          | 0          | 0          |   0.0 |  0.00
Comm    | 0          | 0          | 0          |   0.0 |  0.00
Output  | 0          | 0          | 0          |   0.0 |  0.00
Modify  | 0          | 0          | 0          |   0.0 |  0.00
Other   |            | 2.497e-06  |            |       |100.00

Nlocal:         2278.5 ave        2313 max        2244 min
Histogram: 2 0 0 0 0 0 0 0 0 2
Nghost:         9997.5 ave       10032 max        9963 min
Histogram: 2 0 0 0 0 0 0 0 0 2
Neighs:              0 ave           0 max           0 min
Histogram: 4 0 0 0 0 0 0 0 0 0
FullNghs:  1.34581e+06 ave 1.36619e+06 max 1.32529e+06 min
Histogram: 2 0 0 0 0 0 0 0 0 2

Total # of neighbors = 5383230
Ave neighs/atom = 590.65504
Neighbor list builds = 0
Dangerous builds = 0
BEGIN LAMMPS STANDALONE MINIMIZATION; ii = 22; OMP = 12; MPI = 4
minimize 0.0 1e-3 1000 100000
Generated 0 of 1 mixed pair_coeff terms from geometric mixing rule
Generated 0 of 1 mixed pair_coeff terms from geometric mixing rule
Setting up cg style minimization ...
  Unit style    : metal
  Current step  : 0
Per MPI rank memory allocation (min/avg/max) = 38.42 | 38.42 | 38.42 Mbytes
Per MPI rank memory allocation (min/avg/max) = 38.42 | 38.42 | 38.42 Mbytes
   Step          Time           CPU           TotEng          Fmax          Fnorm     
   Step          Time           CPU           TotEng          Fmax          Fnorm     
         0                        0                       0      -10224720.69182311      0.6590350733647906       37.48250709584484
         0                        0                       0      -10224720.69182311      0.6590350733647906       37.48250709584484
WARNING: Pair style restartinfo set but has no restart support (src/pair.cpp:754)
WARNING: Pair style restartinfo set but has no restart support (src/pair.cpp:754)
         1                   0.0001           297.085261325      -10224750.84163024      0.2880639326734121       10.55553463604098
         1                   0.0001           297.085261325      -10224750.84163024      0.2880639326734121       10.55553463604098
WARNING: Pair style restartinfo set but has no restart support (src/pair.cpp:754)
WARNING: Pair style restartinfo set but has no restart support (src/pair.cpp:754)
         2                   0.0002           594.828497795      -10224762.04689533      0.7061663492547683       20.77941884523262
         2                   0.0002           594.828497795      -10224762.04689533      0.7061663492547683       20.77941884523262
WARNING: Pair style restartinfo set but has no restart support (src/pair.cpp:754)
WARNING: Pair style restartinfo set but has no restart support (src/pair.cpp:754)
         3                   0.0003       891.3917010929999      -10224780.90562657      0.5730214720272528       22.09672312064298
         3                   0.0003       891.3917010929999      -10224780.90562657      0.5730214720272528       22.09672312064298
WARNING: Pair style restartinfo set but has no restart support (src/pair.cpp:754)
WARNING: Pair style restartinfo set but has no restart support (src/pair.cpp:754)
         4                   0.0004          1038.759584099      -10224803.48718742      0.2149083579716895       10.63092837477854
         4                   0.0004          1038.759584099      -10224803.48718742      0.2149083579716895       10.63092837477854
WARNING: Pair style restartinfo set but has no restart support (src/pair.cpp:754)
WARNING: Pair style restartinfo set but has no restart support (src/pair.cpp:754)
         5                   0.0005          1334.902675721      -10224809.00633974      0.1745866717990588       9.638201892425128
         5                   0.0005          1334.902675721      -10224809.00633974      0.1745866717990588       9.638201892425128
WARNING: Pair style restartinfo set but has no restart support (src/pair.cpp:754)
WARNING: Pair style restartinfo set but has no restart support (src/pair.cpp:754)
         6    0.0006000000000000001          1630.271273045      -10224810.76195288     0.06698838597728386        3.95602501559602
         6    0.0006000000000000001          1630.271273045      -10224810.76195288     0.06698838597728386        3.95602501559602
WARNING: Pair style restartinfo set but has no restart support (src/pair.cpp:754)
WARNING: Pair style restartinfo set but has no restart support (src/pair.cpp:754)
         7                   0.0007          1924.842980549      -10224812.12257729      0.1055325975687348       5.942008659790327
         7                   0.0007          1924.842980549      -10224812.12257729      0.1055325975687348       5.942008659790327
WARNING: Pair style restartinfo set but has no restart support (src/pair.cpp:754)
WARNING: Pair style restartinfo set but has no restart support (src/pair.cpp:754)
         8                   0.0008          2217.931978461      -10224818.23014856      0.3046859067005279       12.31830023693384
         8                   0.0008          2217.931978461      -10224818.23014856      0.3046859067005279       12.31830023693384
WARNING: Pair style restartinfo set but has no restart support (src/pair.cpp:754)
WARNING: Pair style restartinfo set but has no restart support (src/pair.cpp:754)
         9    0.0009000000000000001          2509.847826582       -10224825.1801457      0.2477868099523735       6.582355579886739
         9    0.0009000000000000001          2509.847826582       -10224825.1801457      0.2477868099523735       6.582355579886739
WARNING: Pair style restartinfo set but has no restart support (src/pair.cpp:754)
WARNING: Pair style restartinfo set but has no restart support (src/pair.cpp:754)
        10                    0.001          2805.118205808      -10224825.87507508     0.05875115793672799        2.90510280576634
        10                    0.001          2805.118205808      -10224825.87507508     0.05875115793672799        2.90510280576634
WARNING: Pair style restartinfo set but has no restart support (src/pair.cpp:754)
WARNING: Pair style restartinfo set but has no restart support (src/pair.cpp:754)
        11                   0.0011          3100.664331688      -10224826.33114058     0.02692167356903988       1.036482988093215
        11                   0.0011          3100.664331688      -10224826.33114058     0.02692167356903988       1.036482988093215
WARNING: Pair style restartinfo set but has no restart support (src/pair.cpp:754)
WARNING: Pair style restartinfo set but has no restart support (src/pair.cpp:754)
        12                   0.0012           3392.52772038       -10224826.3678353     0.03829601274424464       1.100401030379697
        12                   0.0012           3392.52772038       -10224826.3678353     0.03829601274424464       1.100401030379697
WARNING: Pair style restartinfo set but has no restart support (src/pair.cpp:754)
WARNING: Pair style restartinfo set but has no restart support (src/pair.cpp:754)
        13                   0.0013          3681.612198435       -10224826.4295611     0.03468747128395113       1.484937714053352
        13                   0.0013          3681.612198435       -10224826.4295611     0.03468747128395113       1.484937714053352
WARNING: Pair style restartinfo set but has no restart support (src/pair.cpp:754)
WARNING: Pair style restartinfo set but has no restart support (src/pair.cpp:754)
        14                   0.0014          3973.637843379      -10224827.18783844      0.1350109939868445       5.575932602355757
        14                   0.0014          3973.637843379      -10224827.18783844      0.1350109939868445       5.575932602355757
WARNING: Pair style restartinfo set but has no restart support (src/pair.cpp:754)
WARNING: Pair style restartinfo set but has no restart support (src/pair.cpp:754)
        15                   0.0015          4264.102609511      -10224829.26014067      0.2246052153200266       5.709484860635129
        15                   0.0015          4264.102609511      -10224829.26014067      0.2246052153200266       5.709484860635129
WARNING: Pair style restartinfo set but has no restart support (src/pair.cpp:754)
WARNING: Pair style restartinfo set but has no restart support (src/pair.cpp:754)
        16                   0.0016          4556.311212323       -10224829.8623544     0.04547502362225064       1.752869637274068
        16                   0.0016          4556.311212323       -10224829.8623544     0.04547502362225064       1.752869637274068
WARNING: Pair style restartinfo set but has no restart support (src/pair.cpp:754)
WARNING: Pair style restartinfo set but has no restart support (src/pair.cpp:754)
        17                   0.0017          4849.966780586      -10224829.97795585     0.02312531305418822       0.787691991765036
        17                   0.0017          4849.966780586      -10224829.97795585     0.02312531305418822       0.787691991765036
WARNING: Pair style restartinfo set but has no restart support (src/pair.cpp:754)
WARNING: Pair style restartinfo set but has no restart support (src/pair.cpp:754)
        18                   0.0018          5142.164379023      -10224830.02137927     0.04636016284218555       1.146690399951966
        18                   0.0018          5142.164379023      -10224830.02137927     0.04636016284218555       1.146690399951966
WARNING: Pair style restartinfo set but has no restart support (src/pair.cpp:754)
WARNING: Pair style restartinfo set but has no restart support (src/pair.cpp:754)
        19                   0.0019       5432.949910689001        -10224830.066975     0.02942943227663311       1.052871835680597
        19                   0.0019       5432.949910689001        -10224830.066975     0.02942943227663311       1.052871835680597
WARNING: Pair style restartinfo set but has no restart support (src/pair.cpp:754)
WARNING: Pair style restartinfo set but has no restart support (src/pair.cpp:754)
        20                    0.002          5725.889008662      -10224830.37213679      0.1525779556601833       3.195448590052358
        20                    0.002          5725.889008662      -10224830.37213679      0.1525779556601833       3.195448590052358
WARNING: Pair style restartinfo set but has no restart support (src/pair.cpp:754)
WARNING: Pair style restartinfo set but has no restart support (src/pair.cpp:754)
        21                   0.0021          6017.446766176      -10224831.01305192      0.0579642450577593       1.601464471580043
        21                   0.0021          6017.446766176      -10224831.01305192      0.0579642450577593       1.601464471580043
WARNING: Pair style restartinfo set but has no restart support (src/pair.cpp:754)
WARNING: Pair style restartinfo set but has no restart support (src/pair.cpp:754)
        22                   0.0022           6309.48800373      -10224831.06830167     0.03958417459752377      0.9359056914862959
        22                   0.0022           6309.48800373      -10224831.06830167     0.03958417459752377      0.9359056914862959
WARNING: Pair style restartinfo set but has no restart support (src/pair.cpp:754)
WARNING: Pair style restartinfo set but has no restart support (src/pair.cpp:754)
        23                   0.0023       6601.428579674001      -10224831.09744083     0.02258997429712563      0.6948671360256578
        23                   0.0023       6601.428579674001      -10224831.09744083     0.02258997429712563      0.6948671360256578
WARNING: Pair style restartinfo set but has no restart support (src/pair.cpp:754)
WARNING: Pair style restartinfo set but has no restart support (src/pair.cpp:754)
        24                   0.0024          6894.504717066      -10224831.14445994     0.03998063898749828      0.9869135263824041
        24                   0.0024          6894.504717066      -10224831.14445994     0.03998063898749828      0.9869135263824041
WARNING: Pair style restartinfo set but has no restart support (src/pair.cpp:754)
WARNING: Pair style restartinfo set but has no restart support (src/pair.cpp:754)
        25                   0.0025          7188.093358746       -10224831.1842595     0.03596572040047326       1.068171901831211
        25                   0.0025          7188.093358746       -10224831.1842595     0.03596572040047326       1.068171901831211
WARNING: Pair style restartinfo set but has no restart support (src/pair.cpp:754)
WARNING: Pair style restartinfo set but has no restart support (src/pair.cpp:754)
        26                   0.0026       7480.869182234001      -10224831.27666644     0.03865176712581659       1.412885908248007
        26                   0.0026       7480.869182234001      -10224831.27666644     0.03865176712581659       1.412885908248007
WARNING: Pair style restartinfo set but has no restart support (src/pair.cpp:754)
WARNING: Pair style restartinfo set but has no restart support (src/pair.cpp:754)
        27                   0.0027          7775.809123394      -10224831.33485543     0.02588598674583311      0.6809185327722695
        27                   0.0027          7775.809123394      -10224831.33485543     0.02588598674583311      0.6809185327722695
WARNING: Pair style restartinfo set but has no restart support (src/pair.cpp:754)
WARNING: Pair style restartinfo set but has no restart support (src/pair.cpp:754)
        28                   0.0028       8067.937731643001      -10224831.35142606      0.0279959556972017      0.7413444732031176
        28                   0.0028       8067.937731643001      -10224831.35142606      0.0279959556972017      0.7413444732031176
WARNING: Pair style restartinfo set but has no restart support (src/pair.cpp:754)
WARNING: Pair style restartinfo set but has no restart support (src/pair.cpp:754)
        29                   0.0029       8363.891105081999      -10224831.41158451     0.04087392527444843       1.102988210744825
        29                   0.0029       8363.891105081999      -10224831.41158451     0.04087392527444843       1.102988210744825
WARNING: Pair style restartinfo set but has no restart support (src/pair.cpp:754)
WARNING: Pair style restartinfo set but has no restart support (src/pair.cpp:754)
        30                    0.003       8659.851264417999      -10224831.46904358     0.04477083743949031       1.149792988189446
        30                    0.003       8659.851264417999      -10224831.46904358     0.04477083743949031       1.149792988189446
WARNING: Pair style restartinfo set but has no restart support (src/pair.cpp:754)
WARNING: Pair style restartinfo set but has no restart support (src/pair.cpp:754)
        31                   0.0031          8954.950198318       -10224831.5109133       0.015609903680059       0.676900594299222
        31                   0.0031          8954.950198318       -10224831.5109133       0.015609903680059       0.676900594299222
WARNING: Pair style restartinfo set but has no restart support (src/pair.cpp:754)
WARNING: Pair style restartinfo set but has no restart support (src/pair.cpp:754)
        32                   0.0032       9248.391643113999        -10224831.535091     0.03536762433890386      0.7516226761752889
        32                   0.0032       9248.391643113999        -10224831.535091     0.03536762433890386      0.7516226761752889
WARNING: Pair style restartinfo set but has no restart support (src/pair.cpp:754)
WARNING: Pair style restartinfo set but has no restart support (src/pair.cpp:754)
        33                   0.0033       9541.729343707999      -10224831.55259935     0.01291055133028526      0.4968879651388559
        33                   0.0033       9541.729343707999      -10224831.55259935     0.01291055133028526      0.4968879651388559
WARNING: Pair style restartinfo set but has no restart support (src/pair.cpp:754)
WARNING: Pair style restartinfo set but has no restart support (src/pair.cpp:754)
        34                   0.0034       9834.663370983999      -10224831.57596828     0.03813385251380266      0.9456116855608434
        34                   0.0034       9834.663370983999      -10224831.57596828     0.03813385251380266      0.9456116855608434
WARNING: Pair style restartinfo set but has no restart support (src/pair.cpp:754)
WARNING: Pair style restartinfo set but has no restart support (src/pair.cpp:754)
        35                   0.0035         10127.329823692      -10224831.62221972     0.02559797257351441      0.7256496116978221
        35                   0.0035         10127.329823692      -10224831.62221972     0.02559797257351441      0.7256496116978221
WARNING: Pair style restartinfo set but has no restart support (src/pair.cpp:754)
WARNING: Pair style restartinfo set but has no restart support (src/pair.cpp:754)
        36                   0.0036         10420.456993965      -10224831.63678092     0.01461475898240492      0.4765015334517146
        36                   0.0036         10420.456993965      -10224831.63678092     0.01461475898240492      0.4765015334517146
WARNING: Pair style restartinfo set but has no restart support (src/pair.cpp:754)
WARNING: Pair style restartinfo set but has no restart support (src/pair.cpp:754)
        37                   0.0037         10712.496772523      -10224831.65010414     0.02121315676122952      0.5539898576722033
        37                   0.0037         10712.496772523      -10224831.65010414     0.02121315676122952      0.5539898576722033
WARNING: Pair style restartinfo set but has no restart support (src/pair.cpp:754)
WARNING: Pair style restartinfo set but has no restart support (src/pair.cpp:754)
        38                   0.0038         11007.698622662      -10224831.66456317     0.02253978493939899      0.6153959255594809
        38                   0.0038         11007.698622662      -10224831.66456317     0.02253978493939899      0.6153959255594809
WARNING: Pair style restartinfo set but has no restart support (src/pair.cpp:754)
WARNING: Pair style restartinfo set but has no restart support (src/pair.cpp:754)
        39                   0.0039         11302.315890953      -10224831.68337762     0.01806137738219042      0.4976952334364693
        39                   0.0039         11302.315890953      -10224831.68337762     0.01806137738219042      0.4976952334364693
WARNING: Pair style restartinfo set but has no restart support (src/pair.cpp:754)
WARNING: Pair style restartinfo set but has no restart support (src/pair.cpp:754)
        40                    0.004         11600.633823727      -10224831.69345792     0.02536657639177299      0.5060835028750311
        40                    0.004         11600.633823727      -10224831.69345792     0.02536657639177299      0.5060835028750311
WARNING: Pair style restartinfo set but has no restart support (src/pair.cpp:754)
WARNING: Pair style restartinfo set but has no restart support (src/pair.cpp:754)
        41                   0.0041         11894.344583056      -10224831.70338114    0.009001745232761895      0.2898917323263647
        41                   0.0041         11894.344583056      -10224831.70338114    0.009001745232761895      0.2898917323263647
WARNING: Pair style restartinfo set but has no restart support (src/pair.cpp:754)
WARNING: Pair style restartinfo set but has no restart support (src/pair.cpp:754)
        42     0.004200000000000001         12187.461262706      -10224831.70746191     0.01857821552476413      0.3928408175891509
        42     0.004200000000000001         12187.461262706      -10224831.70746191     0.01857821552476413      0.3928408175891509
WARNING: Pair style restartinfo set but has no restart support (src/pair.cpp:754)
WARNING: Pair style restartinfo set but has no restart support (src/pair.cpp:754)
        43                   0.0043         12480.618404026       -10224831.7189326     0.01440794864181007      0.4010800082385301
        43                   0.0043         12480.618404026       -10224831.7189326     0.01440794864181007      0.4010800082385301
WARNING: Pair style restartinfo set but has no restart support (src/pair.cpp:754)
WARNING: Pair style restartinfo set but has no restart support (src/pair.cpp:754)
        44                   0.0044         12773.940370092      -10224831.72399136     0.01507278435119527      0.3147874113869903
        44                   0.0044         12773.940370092      -10224831.72399136     0.01507278435119527      0.3147874113869903
WARNING: Pair style restartinfo set but has no restart support (src/pair.cpp:754)
WARNING: Pair style restartinfo set but has no restart support (src/pair.cpp:754)
        45     0.004500000000000001         13068.605027877      -10224831.72931894     0.01269579343106929      0.3342572205719291
        45     0.004500000000000001         13068.605027877      -10224831.72931894     0.01269579343106929      0.3342572205719291
WARNING: Pair style restartinfo set but has no restart support (src/pair.cpp:754)
WARNING: Pair style restartinfo set but has no restart support (src/pair.cpp:754)
        46                   0.0046          13366.62227404      -10224831.73453352    0.009945997899211642      0.3522669544748401
        46                   0.0046          13366.62227404      -10224831.73453352    0.009945997899211642      0.3522669544748401
WARNING: Pair style restartinfo set but has no restart support (src/pair.cpp:754)
WARNING: Pair style restartinfo set but has no restart support (src/pair.cpp:754)
        47                   0.0047         13661.752392749      -10224831.74140194     0.01465594863713952      0.3562669492351649
        47                   0.0047         13661.752392749      -10224831.74140194     0.01465594863713952      0.3562669492351649
WARNING: Pair style restartinfo set but has no restart support (src/pair.cpp:754)
WARNING: Pair style restartinfo set but has no restart support (src/pair.cpp:754)
        48                   0.0048          13958.30139648      -10224831.74636721     0.01222208720132775      0.3367355373952234
        48                   0.0048          13958.30139648      -10224831.74636721     0.01222208720132775      0.3367355373952234
WARNING: Pair style restartinfo set but has no restart support (src/pair.cpp:754)
WARNING: Pair style restartinfo set but has no restart support (src/pair.cpp:754)
        49                   0.0049         14252.248713762       -10224831.7516123    0.008519979155972895      0.2601553831004052
        49                   0.0049         14252.248713762       -10224831.7516123    0.008519979155972895      0.2601553831004052
WARNING: Pair style restartinfo set but has no restart support (src/pair.cpp:754)
WARNING: Pair style restartinfo set but has no restart support (src/pair.cpp:754)
        50                    0.005         14544.556754439      -10224831.75450366     0.01164781695788667      0.3067574725989133
        50                    0.005         14544.556754439      -10224831.75450366     0.01164781695788667      0.3067574725989133
WARNING: Pair style restartinfo set but has no restart support (src/pair.cpp:754)
WARNING: Pair style restartinfo set but has no restart support (src/pair.cpp:754)
        51                   0.0051         14838.342410231      -10224831.76130568     0.01040619554762218      0.2869660862098064
        51                   0.0051         14838.342410231      -10224831.76130568     0.01040619554762218      0.2869660862098064
WARNING: Pair style restartinfo set but has no restart support (src/pair.cpp:754)
WARNING: Pair style restartinfo set but has no restart support (src/pair.cpp:754)
        52     0.005200000000000001         15130.474309863      -10224831.76399999     0.01105433307150666      0.2638349346458767
        52     0.005200000000000001         15130.474309863      -10224831.76399999     0.01105433307150666      0.2638349346458767
WARNING: Pair style restartinfo set but has no restart support (src/pair.cpp:754)
WARNING: Pair style restartinfo set but has no restart support (src/pair.cpp:754)
        53                   0.0053         15423.834121385      -10224831.76865042    0.009852618523216046      0.2879185730733352
        53                   0.0053         15423.834121385      -10224831.76865042    0.009852618523216046      0.2879185730733352
WARNING: Pair style restartinfo set but has no restart support (src/pair.cpp:754)
WARNING: Pair style restartinfo set but has no restart support (src/pair.cpp:754)
        54                   0.0054         15716.416276799      -10224831.77202898    0.009880158248623771      0.3037400500198866
        54                   0.0054         15716.416276799      -10224831.77202898    0.009880158248623771      0.3037400500198866
WARNING: Pair style restartinfo set but has no restart support (src/pair.cpp:754)
WARNING: Pair style restartinfo set but has no restart support (src/pair.cpp:754)
        55     0.005500000000000001         16009.947479551      -10224831.77795845     0.01239921329038341      0.3303091672541427
        55     0.005500000000000001         16009.947479551      -10224831.77795845     0.01239921329038341      0.3303091672541427
WARNING: Pair style restartinfo set but has no restart support (src/pair.cpp:754)
WARNING: Pair style restartinfo set but has no restart support (src/pair.cpp:754)
        56                   0.0056         16308.040395705      -10224831.78214947      0.0108724352951663       0.277284446485001
        56                   0.0056         16308.040395705      -10224831.78214947      0.0108724352951663       0.277284446485001
WARNING: Pair style restartinfo set but has no restart support (src/pair.cpp:754)
WARNING: Pair style restartinfo set but has no restart support (src/pair.cpp:754)
        57                   0.0057         16602.229892571       -10224831.7854608    0.008352137631981699      0.2330687829954627
        57                   0.0057         16602.229892571       -10224831.7854608    0.008352137631981699      0.2330687829954627
WARNING: Pair style restartinfo set but has no restart support (src/pair.cpp:754)
WARNING: Pair style restartinfo set but has no restart support (src/pair.cpp:754)
        58                   0.0058           16900.9232308      -10224831.78810696     0.01123504099252502      0.2828724335617132
        58                   0.0058           16900.9232308      -10224831.78810696     0.01123504099252502      0.2828724335617132
WARNING: Pair style restartinfo set but has no restart support (src/pair.cpp:754)
WARNING: Pair style restartinfo set but has no restart support (src/pair.cpp:754)
        59                   0.0059         17195.284219452      -10224831.79298336     0.01125574737646509      0.2808505892416546
        59                   0.0059         17195.284219452      -10224831.79298336     0.01125574737646509      0.2808505892416546
WARNING: Pair style restartinfo set but has no restart support (src/pair.cpp:754)
WARNING: Pair style restartinfo set but has no restart support (src/pair.cpp:754)
        60                    0.006         17490.684087338      -10224831.79594073     0.01184901622609599      0.2863886020611295
        60                    0.006         17490.684087338      -10224831.79594073     0.01184901622609599      0.2863886020611295
WARNING: Pair style restartinfo set but has no restart support (src/pair.cpp:754)
WARNING: Pair style restartinfo set but has no restart support (src/pair.cpp:754)
        61                   0.0061          17784.06378946       -10224831.8024933      0.0127755216831137      0.3447055168989451
        61                   0.0061          17784.06378946       -10224831.8024933      0.0127755216831137      0.3447055168989451
WARNING: Pair style restartinfo set but has no restart support (src/pair.cpp:754)
WARNING: Pair style restartinfo set but has no restart support (src/pair.cpp:754)
        62     0.006200000000000001         18077.294740958      -10224831.80730459     0.01465049511208709      0.3663239131440663
        62     0.006200000000000001         18077.294740958      -10224831.80730459     0.01465049511208709      0.3663239131440663
WARNING: Pair style restartinfo set but has no restart support (src/pair.cpp:754)
WARNING: Pair style restartinfo set but has no restart support (src/pair.cpp:754)
        63                   0.0063         18371.502400011      -10224831.81664868     0.01293955091488622      0.3571481344026096
        63                   0.0063         18371.502400011      -10224831.81664868     0.01293955091488622      0.3571481344026096
WARNING: Pair style restartinfo set but has no restart support (src/pair.cpp:754)
WARNING: Pair style restartinfo set but has no restart support (src/pair.cpp:754)
        64                   0.0064         18663.445866516      -10224831.82061395     0.01017704506791914      0.2789301520424418
        64                   0.0064         18663.445866516      -10224831.82061395     0.01017704506791914      0.2789301520424418
WARNING: Pair style restartinfo set but has no restart support (src/pair.cpp:754)
WARNING: Pair style restartinfo set but has no restart support (src/pair.cpp:754)
        65     0.006500000000000001         18957.676124163      -10224831.82433587    0.007043200848016212       0.246551059964373
        65     0.006500000000000001         18957.676124163      -10224831.82433587    0.007043200848016212       0.246551059964373
WARNING: Pair style restartinfo set but has no restart support (src/pair.cpp:754)
WARNING: Pair style restartinfo set but has no restart support (src/pair.cpp:754)
        66                   0.0066         19253.771446407      -10224831.82698857     0.01027646480841491      0.2686727379137727
        66                   0.0066         19253.771446407      -10224831.82698857     0.01027646480841491      0.2686727379137727
WARNING: Pair style restartinfo set but has no restart support (src/pair.cpp:754)
WARNING: Pair style restartinfo set but has no restart support (src/pair.cpp:754)
        67                   0.0067         19546.357406581      -10224831.83093936     0.00919540927505993      0.2505138889792857
        67                   0.0067         19546.357406581      -10224831.83093936     0.00919540927505993      0.2505138889792857
WARNING: Pair style restartinfo set but has no restart support (src/pair.cpp:754)
WARNING: Pair style restartinfo set but has no restart support (src/pair.cpp:754)
        68                   0.0068         19839.845638313      -10224831.83341938    0.007654189533173443      0.2442625790807576
        68                   0.0068         19839.845638313      -10224831.83341938    0.007654189533173443      0.2442625790807576
WARNING: Pair style restartinfo set but has no restart support (src/pair.cpp:754)
WARNING: Pair style restartinfo set but has no restart support (src/pair.cpp:754)
        69     0.006900000000000001         20135.048118056      -10224831.83683095    0.008618268815458071      0.2439998141928497
        69     0.006900000000000001         20135.048118056      -10224831.83683095    0.008618268815458071      0.2439998141928497
WARNING: Pair style restartinfo set but has no restart support (src/pair.cpp:754)
WARNING: Pair style restartinfo set but has no restart support (src/pair.cpp:754)
        70                    0.007         20430.012948856      -10224831.83946368    0.008559431474344223      0.2636363200494334
        70                    0.007         20430.012948856      -10224831.83946368    0.008559431474344223      0.2636363200494334
WARNING: Pair style restartinfo set but has no restart support (src/pair.cpp:754)
WARNING: Pair style restartinfo set but has no restart support (src/pair.cpp:754)
        71                   0.0071         20722.818448287      -10224831.84308825    0.008460106676240621      0.2289273464541797
        71                   0.0071         20722.818448287      -10224831.84308825    0.008460106676240621      0.2289273464541797
WARNING: Pair style restartinfo set but has no restart support (src/pair.cpp:754)
WARNING: Pair style restartinfo set but has no restart support (src/pair.cpp:754)
        72     0.007200000000000001         21016.651224181      -10224831.84486593    0.006924193604255802      0.2057954759363084
        72     0.007200000000000001         21016.651224181      -10224831.84486593    0.006924193604255802      0.2057954759363084
WARNING: Pair style restartinfo set but has no restart support (src/pair.cpp:754)
WARNING: Pair style restartinfo set but has no restart support (src/pair.cpp:754)
        73                   0.0073         21309.658843408      -10224831.84751501    0.007789747137552341      0.2076303640023278
        73                   0.0073         21309.658843408      -10224831.84751501    0.007789747137552341      0.2076303640023278
WARNING: Pair style restartinfo set but has no restart support (src/pair.cpp:754)
WARNING: Pair style restartinfo set but has no restart support (src/pair.cpp:754)
        74                   0.0074         21606.076297172      -10224831.84941467     0.01009474252147542      0.2339334934405398
        74                   0.0074         21606.076297172      -10224831.84941467     0.01009474252147542      0.2339334934405398
WARNING: Pair style restartinfo set but has no restart support (src/pair.cpp:754)
WARNING: Pair style restartinfo set but has no restart support (src/pair.cpp:754)
        75     0.007500000000000001         21902.310939583      -10224831.85258728     0.00640725768037563       0.216477280697445
        75     0.007500000000000001         21902.310939583      -10224831.85258728     0.00640725768037563       0.216477280697445
WARNING: Pair style restartinfo set but has no restart support (src/pair.cpp:754)
WARNING: Pair style restartinfo set but has no restart support (src/pair.cpp:754)
        76                   0.0076         22201.137707633      -10224831.85442264    0.007934935320115157      0.2188482364630933
        76                   0.0076         22201.137707633      -10224831.85442264    0.007934935320115157      0.2188482364630933
WARNING: Pair style restartinfo set but has no restart support (src/pair.cpp:754)
WARNING: Pair style restartinfo set but has no restart support (src/pair.cpp:754)
        77                   0.0077         22494.330666842      -10224831.85700142    0.006284592727130762      0.2003329617669517
        77                   0.0077         22494.330666842      -10224831.85700142    0.006284592727130762      0.2003329617669517
WARNING: Pair style restartinfo set but has no restart support (src/pair.cpp:754)
WARNING: Pair style restartinfo set but has no restart support (src/pair.cpp:754)
        78     0.007800000000000001         22788.401468206      -10224831.85871507    0.009223942009751429      0.2161933819460698
        78     0.007800000000000001         22788.401468206      -10224831.85871507    0.009223942009751429      0.2161933819460698
WARNING: Pair style restartinfo set but has no restart support (src/pair.cpp:754)
WARNING: Pair style restartinfo set but has no restart support (src/pair.cpp:754)
        79     0.007900000000000001         23081.484702293      -10224831.86119399    0.006678661046748136      0.1945941263853164
        79     0.007900000000000001         23081.484702293      -10224831.86119399    0.006678661046748136      0.1945941263853164
WARNING: Pair style restartinfo set but has no restart support (src/pair.cpp:754)
WARNING: Pair style restartinfo set but has no restart support (src/pair.cpp:754)
        80                    0.008         23374.579135167      -10224831.86286375     0.00823608947794776      0.2137560261058319
        80                    0.008         23374.579135167      -10224831.86286375     0.00823608947794776      0.2137560261058319
WARNING: Pair style restartinfo set but has no restart support (src/pair.cpp:754)
WARNING: Pair style restartinfo set but has no restart support (src/pair.cpp:754)
        81                   0.0081         23668.135275377      -10224831.86552753     0.00731092455315635      0.2235957483701518
        81                   0.0081         23668.135275377      -10224831.86552753     0.00731092455315635      0.2235957483701518
WARNING: Pair style restartinfo set but has no restart support (src/pair.cpp:754)
WARNING: Pair style restartinfo set but has no restart support (src/pair.cpp:754)
        82     0.008200000000000001         23962.718033536      -10224831.86779498    0.009915849719202102      0.2346522016329728
        82     0.008200000000000001         23962.718033536      -10224831.86779498    0.009915849719202102      0.2346522016329728
WARNING: Pair style restartinfo set but has no restart support (src/pair.cpp:754)
WARNING: Pair style restartinfo set but has no restart support (src/pair.cpp:754)
        83                   0.0083          24256.33444729      -10224831.87029465    0.006806949977843179      0.1813804879057683
        83                   0.0083          24256.33444729      -10224831.87029465    0.006806949977843179      0.1813804879057683
WARNING: Pair style restartinfo set but has no restart support (src/pair.cpp:754)
WARNING: Pair style restartinfo set but has no restart support (src/pair.cpp:754)
        84     0.008400000000000001         24550.283779537      -10224831.87157585    0.006228245555499236       0.186290493071431
        84     0.008400000000000001         24550.283779537      -10224831.87157585    0.006228245555499236       0.186290493071431
WARNING: Pair style restartinfo set but has no restart support (src/pair.cpp:754)
WARNING: Pair style restartinfo set but has no restart support (src/pair.cpp:754)
        85     0.008500000000000001         24843.491970031      -10224831.87344911    0.005801410553962121      0.1673921544941312
        85     0.008500000000000001         24843.491970031      -10224831.87344911    0.005801410553962121      0.1673921544941312
WARNING: Pair style restartinfo set but has no restart support (src/pair.cpp:754)
WARNING: Pair style restartinfo set but has no restart support (src/pair.cpp:754)
        86                   0.0086         25136.939230909      -10224831.87468387    0.006734302815800564      0.1862008358281746
        86                   0.0086         25136.939230909      -10224831.87468387    0.006734302815800564      0.1862008358281746
WARNING: Pair style restartinfo set but has no restart support (src/pair.cpp:754)
WARNING: Pair style restartinfo set but has no restart support (src/pair.cpp:754)
        87     0.008700000000000001         25430.307943335      -10224831.87652334    0.004743301650425252      0.1610819580829665
        87     0.008700000000000001         25430.307943335      -10224831.87652334    0.004743301650425252      0.1610819580829665
WARNING: Pair style restartinfo set but has no restart support (src/pair.cpp:754)
WARNING: Pair style restartinfo set but has no restart support (src/pair.cpp:754)
        88     0.008800000000000001         25724.243007349      -10224831.87763419    0.007732648403705236      0.1792188660778759
        88     0.008800000000000001         25724.243007349      -10224831.87763419    0.007732648403705236      0.1792188660778759
WARNING: Pair style restartinfo set but has no restart support (src/pair.cpp:754)
WARNING: Pair style restartinfo set but has no restart support (src/pair.cpp:754)
        89                   0.0089         26016.970860215      -10224831.87961788    0.006176128459715116      0.1915968908376402
        89                   0.0089         26016.970860215      -10224831.87961788    0.006176128459715116      0.1915968908376402
WARNING: Pair style restartinfo set but has no restart support (src/pair.cpp:754)
WARNING: Pair style restartinfo set but has no restart support (src/pair.cpp:754)
        90     0.009000000000000001         26309.742583475       -10224831.8814813     0.00815289598853563      0.2332617868666671
        90     0.009000000000000001         26309.742583475       -10224831.8814813     0.00815289598853563      0.2332617868666671
WARNING: Pair style restartinfo set but has no restart support (src/pair.cpp:754)
WARNING: Pair style restartinfo set but has no restart support (src/pair.cpp:754)
        91                   0.0091         26603.669769478       -10224831.8842573    0.006015795877803725      0.2091329005916923
        91                   0.0091         26603.669769478       -10224831.8842573    0.006015795877803725      0.2091329005916923
WARNING: Pair style restartinfo set but has no restart support (src/pair.cpp:754)
WARNING: Pair style restartinfo set but has no restart support (src/pair.cpp:754)
        92                   0.0092         26897.125659766      -10224831.88638132     0.00901274093006357      0.2475170166605671
        92                   0.0092         26897.125659766      -10224831.88638132     0.00901274093006357      0.2475170166605671
WARNING: Pair style restartinfo set but has no restart support (src/pair.cpp:754)
WARNING: Pair style restartinfo set but has no restart support (src/pair.cpp:754)
        93     0.009300000000000001         27189.025199078      -10224831.88967459    0.007204063828444102      0.2300644290214381
        93     0.009300000000000001         27189.025199078      -10224831.88967459    0.007204063828444102      0.2300644290214381
WARNING: Pair style restartinfo set but has no restart support (src/pair.cpp:754)
WARNING: Pair style restartinfo set but has no restart support (src/pair.cpp:754)
        94                   0.0094         27482.968526263      -10224831.89197177     0.01021080985726364      0.2412872125692291
        94                   0.0094         27482.968526263      -10224831.89197177     0.01021080985726364      0.2412872125692291
WARNING: Pair style restartinfo set but has no restart support (src/pair.cpp:754)
WARNING: Pair style restartinfo set but has no restart support (src/pair.cpp:754)
        95                   0.0095         27776.902989431      -10224831.89480519    0.006736993739111807      0.2108865096966317
        95                   0.0095         27776.902989431      -10224831.89480519    0.006736993739111807      0.2108865096966317
WARNING: Pair style restartinfo set but has no restart support (src/pair.cpp:754)
WARNING: Pair style restartinfo set but has no restart support (src/pair.cpp:754)
        96     0.009600000000000001         28071.559857274      -10224831.89681419    0.009941713525224828       0.236863712539119
        96     0.009600000000000001         28071.559857274      -10224831.89681419    0.009941713525224828       0.236863712539119
WARNING: Pair style restartinfo set but has no restart support (src/pair.cpp:754)
WARNING: Pair style restartinfo set but has no restart support (src/pair.cpp:754)
        97                   0.0097          28365.17244063      -10224831.89979778     0.00757344245571559      0.2077187654637822
        97                   0.0097          28365.17244063      -10224831.89979778     0.00757344245571559      0.2077187654637822
WARNING: Pair style restartinfo set but has no restart support (src/pair.cpp:754)
WARNING: Pair style restartinfo set but has no restart support (src/pair.cpp:754)
        98                   0.0098         28658.164677706      -10224831.90156712    0.008564125705328409      0.2133238852233997
        98                   0.0098         28658.164677706      -10224831.90156712    0.008564125705328409      0.2133238852233997
WARNING: Pair style restartinfo set but has no restart support (src/pair.cpp:754)
WARNING: Pair style restartinfo set but has no restart support (src/pair.cpp:754)
        99     0.009900000000000001         28951.102928251      -10224831.90381093    0.005417383047748393      0.1866288326539067
        99     0.009900000000000001         28951.102928251      -10224831.90381093    0.005417383047748393      0.1866288326539067
WARNING: Too many warnings: 101 vs 100. All future warnings will be suppressed (src/thermo.cpp:466)
WARNING: Too many warnings: 101 vs 100. All future warnings will be suppressed (src/thermo.cpp:466)
       100                     0.01          29244.30092907       -10224831.9055322    0.007742140047094592      0.2223291178835719
       100                     0.01          29244.30092907       -10224831.9055322    0.007742140047094592      0.2223291178835719
       101                   0.0101         29537.136132665      -10224831.90796401    0.006165313385450608      0.1887011275633245
       101                   0.0101         29537.136132665      -10224831.90796401    0.006165313385450608      0.1887011275633245
       102                   0.0102         29829.849686618      -10224831.90945652    0.006996405609762057      0.1964311361764112
       102                   0.0102         29829.849686618      -10224831.90945652    0.006996405609762057      0.1964311361764112
       103                   0.0103         30122.906870091      -10224831.91139479    0.006614872229937369      0.1752526224461917
       103                   0.0103         30122.906870091      -10224831.91139479    0.006614872229937369      0.1752526224461917
       104                   0.0104         30417.229954083      -10224831.91286008    0.009712714564234748      0.2078705245664072
       104                   0.0104         30417.229954083      -10224831.91286008    0.009712714564234748      0.2078705245664072
       105                   0.0105          30709.09420956      -10224831.91542635    0.007387851015710893      0.2067687410193174
       105                   0.0105          30709.09420956      -10224831.91542635    0.007387851015710893      0.2067687410193174
       106                   0.0106         31000.913596282      -10224831.91726315    0.008507354056082333       0.216872195957023
       106                   0.0106         31000.913596282      -10224831.91726315    0.008507354056082333       0.216872195957023
       107                   0.0107           31294.8415039      -10224831.91975183    0.007140206636655221      0.2115497535530289
       107                   0.0107           31294.8415039      -10224831.91975183    0.007140206636655221      0.2115497535530289
       108                   0.0108         31588.565470366       -10224831.9218149    0.009502916924450724      0.2358117980872786
       108                   0.0108         31588.565470366       -10224831.9218149    0.009502916924450724      0.2358117980872786
       109                   0.0109         31883.242582833      -10224831.92487578     0.00722383793880582      0.2172754330567208
       109                   0.0109         31883.242582833      -10224831.92487578     0.00722383793880582      0.2172754330567208
       110                    0.011         32176.376728528      -10224831.92662719    0.006614139195427637      0.2012177340665191
       110                    0.011         32176.376728528      -10224831.92662719    0.006614139195427637      0.2012177340665191
       111                   0.0111         32467.848078767      -10224831.92860103    0.005690833191592696      0.1696992267816607
       111                   0.0111         32467.848078767      -10224831.92860103    0.005690833191592696      0.1696992267816607
       112                   0.0112         32765.104189155      -10224831.92974501    0.006493604790790902      0.1694158482721098
       112                   0.0112         32765.104189155      -10224831.92974501    0.006493604790790902      0.1694158482721098
       113                   0.0113       33058.11245766901      -10224831.93139567    0.005332161090759728      0.1636870386502204
       113                   0.0113       33058.11245766901      -10224831.93139567    0.005332161090759728      0.1636870386502204
       114                   0.0114         33351.559872598      -10224831.93244372    0.005664720401891643      0.1645725006584764
       114                   0.0114         33351.559872598      -10224831.93244372    0.005664720401891643      0.1645725006584764
       115                   0.0115         33645.005803228      -10224831.93405204    0.007130784938045057      0.1717462630404461
       115                   0.0115         33645.005803228      -10224831.93405204    0.007130784938045057      0.1717462630404461
       116                   0.0116         33938.700437747      -10224831.93530281    0.007040295940286477      0.1760086733531628
       116                   0.0116         33938.700437747      -10224831.93530281    0.007040295940286477      0.1760086733531628
       117                   0.0117          34232.07693559       -10224831.9369893       0.006768713548852       0.165832877565215
       117                   0.0117          34232.07693559       -10224831.9369893       0.006768713548852       0.165832877565215
       118                   0.0118       34525.07315301801      -10224831.93801416    0.005357278398913261      0.1580357290932165
       118                   0.0118       34525.07315301801      -10224831.93801416    0.005357278398913261      0.1580357290932165
       119                   0.0119       34816.78397223001      -10224831.93958255    0.006019048761825935      0.1596476742661153
       119                   0.0119       34816.78397223001      -10224831.93958255    0.006019048761825935      0.1596476742661153
       120                    0.012          35110.32749683      -10224831.94050822    0.005139794673447661      0.1473861601824345
       120                    0.012          35110.32749683      -10224831.94050822    0.005139794673447661      0.1473861601824345
       121                   0.0121         35404.626077507      -10224831.94173299    0.005636446224135937       0.143627007370886
       121                   0.0121         35404.626077507      -10224831.94173299    0.005636446224135937       0.143627007370886
       122                   0.0122         35698.794967548      -10224831.94249729    0.004572957456249718      0.1338105290541062
       122                   0.0122         35698.794967548      -10224831.94249729    0.004572957456249718      0.1338105290541062
       123                   0.0123         35991.252214601      -10224831.94355537    0.005735103566837008      0.1330549819343618
       123                   0.0123         35991.252214601      -10224831.94355537    0.005735103566837008      0.1330549819343618
       124                   0.0124       36283.18113418001      -10224831.94421209    0.004154324811025288       0.123371491075509
       124                   0.0124       36283.18113418001      -10224831.94421209    0.004154324811025288       0.123371491075509
       125                   0.0125         36576.648342114      -10224831.94503316    0.005038777029162358      0.1147164311684392
       125                   0.0125         36576.648342114      -10224831.94503316    0.005038777029162358      0.1147164311684392
       126                   0.0126       36869.35988622101      -10224831.94552641    0.003576008530033684      0.1101855669950838
       126                   0.0126       36869.35988622101      -10224831.94552641    0.003576008530033684      0.1101855669950838
       127                   0.0127         37162.814783763      -10224831.94624383    0.004251859028484959      0.1045373360390271
       127                   0.0127         37162.814783763      -10224831.94624383    0.004251859028484959      0.1045373360390271
       128                   0.0128         37460.024368627       -10224831.9466222    0.002912585238871148     0.08970198244979925
       128                   0.0128         37460.024368627       -10224831.9466222    0.002912585238871148     0.08970198244979925
       129                   0.0129         37756.971383425      -10224831.94702912    0.002768006410513023     0.08076629045559811
       129                   0.0129         37756.971383425      -10224831.94702912    0.002768006410513023     0.08076629045559811
       130                    0.013       38049.45853295201      -10224831.94728162    0.002511069977004004     0.08041181525905951
       130                    0.013       38049.45853295201      -10224831.94728162    0.002511069977004004     0.08041181525905951
       131                   0.0131         38345.605521817      -10224831.94769054    0.003253944493686704     0.08528403681763495
       131                   0.0131         38345.605521817      -10224831.94769054    0.003253944493686704     0.08528403681763495
       132                   0.0132         38640.445465515       -10224831.9479555    0.002913790567037005      0.0766290667192667
       132                   0.0132         38640.445465515       -10224831.9479555    0.002913790567037005      0.0766290667192667
       133                   0.0133         38933.922456293      -10224831.94828205    0.002712939699725303     0.07388867650327069
       133                   0.0133         38933.922456293      -10224831.94828205    0.002712939699725303     0.07388867650327069
       134                   0.0134         39227.547375209      -10224831.94849055    0.002630702140121569     0.07022414896919379
       134                   0.0134         39227.547375209      -10224831.94849055    0.002630702140121569     0.07022414896919379
       135                   0.0135         39521.478237044      -10224831.94877414    0.002253631412014854     0.06754549079015677
       135                   0.0135         39521.478237044      -10224831.94877414    0.002253631412014854     0.06754549079015677
       136                   0.0136         39813.248562474      -10224831.94892967    0.001827691826136709     0.05765433425560879
       136                   0.0136         39813.248562474      -10224831.94892967    0.001827691826136709     0.05765433425560879
       137                   0.0137       40108.23001976901      -10224831.94910512     0.00226465147705913     0.05358946744841617
       137                   0.0137       40108.23001976901      -10224831.94910512     0.00226465147705913     0.05358946744841617
       138                   0.0138         40401.668267745      -10224831.94920986    0.001799114649960427     0.04847689558933154
       138                   0.0138         40401.668267745      -10224831.94920986    0.001799114649960427     0.04847689558933154
       139                   0.0139         40695.913377435      -10224831.94934869    0.002133437093764813     0.04978599352380118
       139                   0.0139         40695.913377435      -10224831.94934869    0.002133437093764813     0.04978599352380118
       140                    0.014         40988.331063792      -10224831.94943891    0.001658196937193865     0.04443054141518844
       140                    0.014         40988.331063792      -10224831.94943891    0.001658196937193865     0.04443054141518844
       141                   0.0141         41282.096996975      -10224831.94955207    0.001583417000024499     0.04628623114200985
       141                   0.0141         41282.096996975      -10224831.94955207    0.001583417000024499     0.04628623114200985
       142                   0.0142         41575.390542268      -10224831.94963727    0.001476792903104957     0.04463245057947557
       142                   0.0142         41575.390542268      -10224831.94963727    0.001476792903104957     0.04463245057947557
       143                   0.0143         41870.277221819      -10224831.94975278    0.001854408466489501     0.04303853018831324
       143                   0.0143         41870.277221819      -10224831.94975278    0.001854408466489501     0.04303853018831324
       144                   0.0144         42163.595030871      -10224831.94981369    0.001201660797210211     0.03495432281547741
       144                   0.0144         42163.595030871      -10224831.94981369    0.001201660797210211     0.03495432281547741
       145                   0.0145         42458.243012093      -10224831.94988095    0.001119317511198991     0.03512698138189888
       145                   0.0145         42458.243012093      -10224831.94988095    0.001119317511198991     0.03512698138189888
       146                   0.0146         42751.899055126      -10224831.94992629     0.00109088334435874     0.03168360558168169
       146                   0.0146         42751.899055126      -10224831.94992629     0.00109088334435874     0.03168360558168169
       147                   0.0147       43045.96433938701      -10224831.94998846    0.001628007765153619     0.03395723453163563
       147                   0.0147       43045.96433938701      -10224831.94998846    0.001628007765153619     0.03395723453163563
       148                   0.0148         43340.084625961      -10224831.95002901   0.0008846378072876456     0.02908505854125692
       148                   0.0148         43340.084625961      -10224831.95002901   0.0008846378072876456     0.02908505854125692
       149                   0.0149         43635.601740658       -10224831.9500795    0.001432149814148342     0.03025406396951805
       149                   0.0149         43635.601740658       -10224831.9500795    0.001432149814148342     0.03025406396951805
       150                    0.015         43928.342059382      -10224831.95011307   0.0008913658949098152     0.02721104482168634
       150                    0.015         43928.342059382      -10224831.95011307   0.0008913658949098152     0.02721104482168634
       151                   0.0151       44222.40675778301      -10224831.95015721      0.0013414557931198      0.0278279905641878
       151                   0.0151       44222.40675778301      -10224831.95015721      0.0013414557931198      0.0278279905641878
       152                   0.0152         44518.910583483      -10224831.95018323   0.0008306480892389237     0.02348355089494018
       152                   0.0152         44518.910583483      -10224831.95018323   0.0008306480892389237     0.02348355089494018
       153                   0.0153         44818.127369333        -10224831.950215    0.000830854499425906      0.0241444522813243
       153                   0.0153         44818.127369333        -10224831.950215    0.000830854499425906      0.0241444522813243
       154                   0.0154       45117.98333702501      -10224831.95023644   0.0006548424013183285     0.02107063943182171
       154                   0.0154       45117.98333702501      -10224831.95023644   0.0006548424013183285     0.02107063943182171
       155                   0.0155         45412.843537569      -10224831.95026239   0.0008603538858850211      0.0211191481303283
       155                   0.0155         45412.843537569      -10224831.95026239   0.0008603538858850211      0.0211191481303283
       156                   0.0156         45705.740580126      -10224831.95027833   0.0006380789446105949     0.01926057917345665
       156                   0.0156         45705.740580126      -10224831.95027833   0.0006380789446105949     0.01926057917345665
       157                   0.0157         46001.785549588      -10224831.95030207   0.0009351730532475584     0.02180904385428179
       157                   0.0157         46001.785549588      -10224831.95030207   0.0009351730532475584     0.02180904385428179
       158                   0.0158         46296.048843507       -10224831.9503198    0.000650301238708439     0.01979289708725968
       158                   0.0158         46296.048843507       -10224831.9503198    0.000650301238708439     0.01979289708725968
       159                   0.0159       46589.50032521501      -10224831.95034486   0.0006973802479400288     0.02171999049963164
       159                   0.0159       46589.50032521501      -10224831.95034486   0.0006973802479400288     0.02171999049963164
       160                    0.016         46884.201365695      -10224831.95036309   0.0009444283905435866     0.02108594369463929
       160                    0.016         46884.201365695      -10224831.95036309   0.0009444283905435866     0.02108594369463929
       161                   0.0161         47177.858374675      -10224831.95039084   0.0009029793310353308     0.02289707005261956
       161                   0.0161         47177.858374675      -10224831.95039084   0.0009029793310353308     0.02289707005261956
       162                   0.0162         47470.441036495      -10224831.95040964   0.0006460842847785565     0.02000538825419661
       162                   0.0162         47470.441036495      -10224831.95040964   0.0006460842847785565     0.02000538825419661
       163                   0.0163         47762.780512042      -10224831.95043609   0.0008914600728369025     0.02236852664025193
       163                   0.0163         47762.780512042      -10224831.95043609   0.0008914600728369025     0.02236852664025193
       164                   0.0164         48055.698827722      -10224831.95045377   0.0009446561530619384     0.01928197940644279
       164                   0.0164         48055.698827722      -10224831.95045377   0.0009446561530619384     0.01928197940644279
       165                   0.0165          48348.24168111      -10224831.95047505   0.0006682819701083391     0.02043582864100225
       165                   0.0165          48348.24168111      -10224831.95047505   0.0006682819701083391     0.02043582864100225
       166                   0.0166         48639.869922817      -10224831.95049128   0.0006976408080327473     0.01924637714206662
       166                   0.0166         48639.869922817      -10224831.95049128   0.0006976408080327473     0.01924637714206662
       167                   0.0167          48936.31668675      -10224831.95051466   0.0009291899916642928     0.02129704455206146
       167                   0.0167          48936.31668675      -10224831.95051466   0.0009291899916642928     0.02129704455206146
       168                   0.0168       49229.87713042901      -10224831.95053064    0.000641826303012117     0.01796114858960147
       168                   0.0168       49229.87713042901      -10224831.95053064    0.000641826303012117     0.01796114858960147
       169                   0.0169         49523.587980525      -10224831.95055038   0.0008031063927346396     0.01926685413710692
       169                   0.0169         49523.587980525      -10224831.95055038   0.0008031063927346396     0.01926685413710692
       170                    0.017         49816.954798172      -10224831.95056318   0.0005276892915218082     0.01564385304859928
       170                    0.017         49816.954798172      -10224831.95056318   0.0005276892915218082     0.01564385304859928
       171                   0.0171       50109.88011671801      -10224831.95057701   0.0007285611349261492     0.01710133072281959
       171                   0.0171       50109.88011671801      -10224831.95057701   0.0007285611349261492     0.01710133072281959
       172                   0.0172         50401.640701417      -10224831.95058776   0.0005355522021296779     0.01450195873722892
       172                   0.0172         50401.640701417      -10224831.95058776   0.0005355522021296779     0.01450195873722892
       173                   0.0173         50694.831439097      -10224831.95060036   0.0006110601439408593     0.01518420833030834
       173                   0.0173         50694.831439097      -10224831.95060036   0.0006110601439408593     0.01518420833030834
       174                   0.0174       50986.99328571501      -10224831.95060803   0.0004471217593447216     0.01218357735664885
       174                   0.0174       50986.99328571501      -10224831.95060803   0.0004471217593447216     0.01218357735664885
       175                   0.0175         51279.869893402      -10224831.95061733   0.0006262567616081016     0.01410969797098367
       175                   0.0175         51279.869893402      -10224831.95061733   0.0006262567616081016     0.01410969797098367
       176                   0.0176         51572.616267619      -10224831.95062456   0.0004441899672878585     0.01158590694800904
       176                   0.0176         51572.616267619      -10224831.95062456   0.0004441899672878585     0.01158590694800904
       177                   0.0177         51867.167456743      -10224831.95063219   0.0004819501252522271     0.01242549650208515
       177                   0.0177         51867.167456743      -10224831.95063219   0.0004819501252522271     0.01242549650208515
       178                   0.0178         52160.336795534       -10224831.9506377   0.0004022231123480893      0.0107890679238991
       178                   0.0178         52160.336795534       -10224831.9506377   0.0004022231123480893      0.0107890679238991
       179                   0.0179         52453.723550103      -10224831.95064616   0.0004618128531788376     0.01397817920866118
       179                   0.0179         52453.723550103      -10224831.95064616   0.0004618128531788376     0.01397817920866118
       180                    0.018         52747.299346648      -10224831.95065341    0.000398470524974598     0.01155422317981531
       180                    0.018         52747.299346648      -10224831.95065341    0.000398470524974598     0.01155422317981531
       181                   0.0181       53041.26128968201      -10224831.95066102    0.000517841972001544     0.01229777140342676
       181                   0.0181       53041.26128968201      -10224831.95066102    0.000517841972001544     0.01229777140342676
       182                   0.0182         53334.866464314      -10224831.95066617   0.0003313200415899636    0.009588848510720647
       182                   0.0182         53334.866464314      -10224831.95066617   0.0003313200415899636    0.009588848510720647
       183                   0.0183         53627.025886219      -10224831.95067169   0.0004166638183252247     0.01090374027663266
       183                   0.0183         53627.025886219      -10224831.95067169   0.0004166638183252247     0.01090374027663266
       184                   0.0184         53919.080617892      -10224831.95067577   0.0002989125310372386    0.008340910230028984
       184                   0.0184         53919.080617892      -10224831.95067577   0.0002989125310372386    0.008340910230028984
       185                   0.0185          54214.67647537      -10224831.95067966   0.0003320913515290462    0.008905748359235395
       185                   0.0185          54214.67647537      -10224831.95067966   0.0003320913515290462    0.008905748359235395
       186                   0.0186         54509.802417996      -10224831.95068247   0.0002252649994861321    0.007422486765303553
       186                   0.0186         54509.802417996      -10224831.95068247   0.0002252649994861321    0.007422486765303553
       187                   0.0187         54808.682520192      -10224831.95068604   0.0003235454341739772    0.008880888783074312
       187                   0.0187         54808.682520192      -10224831.95068604   0.0003235454341739772    0.008880888783074312
       188                   0.0188         55101.226827384      -10224831.95068903   0.0002605658571103037    0.007689412777171933
       188                   0.0188         55101.226827384      -10224831.95068903   0.0002605658571103037    0.007689412777171933
       189                   0.0189         55393.958341725      -10224831.95069281   0.0003501020201730274    0.009277933835445956
       189                   0.0189         55393.958341725      -10224831.95069281   0.0003501020201730274    0.009277933835445956
       190                    0.019         55686.640238879        -10224831.950696   0.0002648943600943637    0.007791197572654636
       190                    0.019         55686.640238879        -10224831.950696   0.0002648943600943637    0.007791197572654636
       191                   0.0191       55979.36457710101      -10224831.95069975   0.0003924680059015744    0.009021955118864272
       191                   0.0191       55979.36457710101      -10224831.95069975   0.0003924680059015744    0.009021955118864272
       192                   0.0192         56272.523950759      -10224831.95070257   0.0002162730488836117    0.006873849141860086
       192                   0.0192         56272.523950759      -10224831.95070257   0.0002162730488836117    0.006873849141860086
       193                   0.0193         56565.617883806      -10224831.95070516    0.000358620062434228     0.00750498680300418
       193                   0.0193         56565.617883806      -10224831.95070516    0.000358620062434228     0.00750498680300418
       194                   0.0194         56859.071533044      -10224831.95070725   0.0002013257255926202    0.006169168221263562
       194                   0.0194         56859.071533044      -10224831.95070725   0.0002013257255926202    0.006169168221263562
       195                   0.0195          57152.76591839      -10224831.95070964   0.0002944522523267849    0.007483945979229825
       195                   0.0195          57152.76591839      -10224831.95070964   0.0002944522523267849    0.007483945979229825
       196                   0.0196         57446.646408134      -10224831.95071166   0.0001920493397918957     0.00582645061604384
       196                   0.0196         57446.646408134      -10224831.95071166   0.0001920493397918957     0.00582645061604384
       197                   0.0197         57740.903728955      -10224831.95071357   0.0002332900936282845    0.006394490971223053
       197                   0.0197         57740.903728955      -10224831.95071357   0.0002332900936282845    0.006394490971223053
       198                   0.0198         58033.268873653      -10224831.95071501   0.0001300363195501399    0.004760083145560616
       198                   0.0198         58033.268873653      -10224831.95071501   0.0001300363195501399    0.004760083145560616
       199                   0.0199         58327.015693232      -10224831.95071618   0.0001890957633846248    0.005041884267442322
       199                   0.0199         58327.015693232      -10224831.95071618   0.0001890957633846248    0.005041884267442322
       200                     0.02       58620.44344729601      -10224831.95071707   0.0001126118393678464     0.00379111350376091
       200                     0.02       58620.44344729601      -10224831.95071707   0.0001126118393678464     0.00379111350376091
       201                   0.0201       58913.57409596301      -10224831.95071789   0.0001802908321965115    0.004428954043691263
       201                   0.0201       58913.57409596301      -10224831.95071789   0.0001802908321965115    0.004428954043691263
       202                   0.0202          59206.57284477      -10224831.95071866   0.0001093480600612828    0.003885380716638058
       202                   0.0202          59206.57284477      -10224831.95071866   0.0001093480600612828    0.003885380716638058
       203                   0.0203         59500.500499733      -10224831.95071969   0.0001947914927456773    0.005096486971559956
       203                   0.0203         59500.500499733      -10224831.95071969   0.0001947914927456773    0.005096486971559956
       204                   0.0204       59794.75417797401      -10224831.95072068   0.0001243610190910627    0.004165713439732817
       204                   0.0204       59794.75417797401      -10224831.95072068   0.0001243610190910627    0.004165713439732817
       205                   0.0205         60089.697025038      -10224831.95072171    0.000199281816455669    0.005036570597734122
       205                   0.0205         60089.697025038      -10224831.95072171    0.000199281816455669    0.005036570597734122
       206                   0.0206          60385.38663859      -10224831.95072269   0.0001211140671988509    0.003910073086659703
       206                   0.0206          60385.38663859      -10224831.95072269   0.0001211140671988509    0.003910073086659703
       207                   0.0207         60677.890201243      -10224831.95072348   0.0002442107340445215    0.004075410519536253
       207                   0.0207         60677.890201243      -10224831.95072348   0.0002442107340445215    0.004075410519536253
       208                   0.0208         60974.202953683      -10224831.95072405   0.0001220564444891516    0.002994472586674307
       208                   0.0208         60974.202953683      -10224831.95072405   0.0001220564444891516    0.002994472586674307
       209                   0.0209         61267.660806854      -10224831.95072459    0.000141437737507783    0.003724055409297944
       209                   0.0209         61267.660806854      -10224831.95072459    0.000141437737507783    0.003724055409297944
       210                    0.021         61560.480193561      -10224831.95072512   9.206726884485907e-05    0.002885088347009233
       210                    0.021         61560.480193561      -10224831.95072512   9.206726884485907e-05    0.002885088347009233
       211                   0.0211       61853.40094233101      -10224831.95072556   0.0001393420224948378     0.00327639838593849
       211                   0.0211       61853.40094233101      -10224831.95072556   0.0001393420224948378     0.00327639838593849
       212                   0.0212       62146.61480653301      -10224831.95072598   8.003228532824712e-05    0.002599358425446661
       212                   0.0212       62146.61480653301      -10224831.95072598   8.003228532824712e-05    0.002599358425446661
       213                   0.0213         62441.066383842      -10224831.95072635   0.0001093793788445732    0.003079384966410629
       213                   0.0213         62441.066383842      -10224831.95072635   0.0001093793788445732    0.003079384966410629
       214                   0.0214         62737.315750555      -10224831.95072675   8.801668487475219e-05    0.002603014605749413
       214                   0.0214         62737.315750555      -10224831.95072675   8.801668487475219e-05    0.002603014605749413
       215                   0.0215         63030.828738681      -10224831.95072716   0.0001558110166178794    0.003344297606095869
       215                   0.0215         63030.828738681      -10224831.95072716   0.0001558110166178794    0.003344297606095869
       216                   0.0216       63325.73197182301      -10224831.95072762   9.471540054213808e-05    0.002876655266547737
       216                   0.0216       63325.73197182301      -10224831.95072762   9.471540054213808e-05    0.002876655266547737
       217                   0.0217         63620.249646965      -10224831.95072814   0.0001536773567867421    0.003618621231895007
       217                   0.0217         63620.249646965      -10224831.95072814   0.0001536773567867421    0.003618621231895007
       218                   0.0218         63914.018809448      -10224831.95072867   9.873209253261073e-05    0.002964648536617749
       218                   0.0218         63914.018809448      -10224831.95072867   9.873209253261073e-05    0.002964648536617749
       219                   0.0219         64207.437223613      -10224831.95072912    0.000132654992153123    0.003302996572261302
       219                   0.0219         64207.437223613      -10224831.95072912    0.000132654992153123    0.003302996572261302
       220                    0.022         64500.906095756      -10224831.95072952   8.059193820484788e-05    0.002509416374492612
       220                    0.022         64500.906095756      -10224831.95072952   8.059193820484788e-05    0.002509416374492612
       221                   0.0221       64794.89709741101      -10224831.95072988   0.0001138719064881222     0.00287305952160017
       221                   0.0221       64794.89709741101      -10224831.95072988   0.0001138719064881222     0.00287305952160017
       222                   0.0222         65087.573419977      -10224831.95073019   7.512672289789607e-05    0.002228709250085721
       222                   0.0222         65087.573419977      -10224831.95073019   7.512672289789607e-05    0.002228709250085721
       223                   0.0223         65380.547553456      -10224831.95073048   0.0001045040350224902    0.002751959038869319
       223                   0.0223         65380.547553456      -10224831.95073048   0.0001045040350224902    0.002751959038869319
       224                   0.0224         65673.934052792       -10224831.9507308   8.013809805324824e-05    0.002285322213131113
       224                   0.0224         65673.934052792       -10224831.9507308   8.013809805324824e-05    0.002285322213131113
       225                   0.0225       65966.63016297399      -10224831.95073108   0.0001316137966627384    0.002742386908457403
       225                   0.0225       65966.63016297399      -10224831.95073108   0.0001316137966627384    0.002742386908457403
       226                   0.0226         66259.933216441      -10224831.95073139    9.09927478192768e-05    0.002314280475972284
       226                   0.0226         66259.933216441      -10224831.95073139    9.09927478192768e-05    0.002314280475972284
       227                   0.0227         66553.526247056      -10224831.95073169   0.0001049057632801394    0.002794384125594257
       227                   0.0227         66553.526247056      -10224831.95073169   0.0001049057632801394    0.002794384125594257
       228                   0.0228         66847.329992556      -10224831.95073204   8.155871654950617e-05    0.002440655473878335
       228                   0.0228         66847.329992556      -10224831.95073204   8.155871654950617e-05    0.002440655473878335
       229                   0.0229         67139.690789452      -10224831.95073238   0.0001757813553368397    0.002936617529658878
       229                   0.0229         67139.690789452      -10224831.95073238   0.0001757813553368397    0.002936617529658878
       230                    0.023         67436.076140081      -10224831.95073271   8.443542472749524e-05    0.002264027516887234
       230                    0.023         67436.076140081      -10224831.95073271   8.443542472749524e-05    0.002264027516887234
       231                   0.0231         67729.234227001      -10224831.95073297   0.0001249123176005895    0.002569186516025045
       231                   0.0231         67729.234227001      -10224831.95073297   0.0001249123176005895    0.002569186516025045
       232                   0.0232       68022.90810612499      -10224831.95073325    8.93377226379756e-05    0.002036352110462078
       232                   0.0232       68022.90810612499      -10224831.95073325    8.93377226379756e-05    0.002036352110462078
       233                   0.0233         68316.632977256      -10224831.95073347   0.0001498125482363496    0.002363000356194245
       233                   0.0233         68316.632977256      -10224831.95073347   0.0001498125482363496    0.002363000356194245
       234                   0.0234         68610.893948126       -10224831.9507337   5.766787643162189e-05    0.001782277873703864
       234                   0.0234         68610.893948126       -10224831.9507337   5.766787643162189e-05    0.001782277873703864
       235                   0.0235       68903.77601820799      -10224831.95073384   8.030005689032198e-05    0.001943842650516526
       235                   0.0235       68903.77601820799      -10224831.95073384   8.030005689032198e-05    0.001943842650516526
       236                   0.0236       69200.39879048399      -10224831.95073397    5.55389139607846e-05    0.001419401583223542
       236                   0.0236       69200.39879048399      -10224831.95073397    5.55389139607846e-05    0.001419401583223542
       237                   0.0237         69498.563410877      -10224831.95073408   7.327531357545653e-05    0.001586233606099307
       237                   0.0237         69498.563410877      -10224831.95073408   7.327531357545653e-05    0.001586233606099307
       238                   0.0238       69794.62517430499      -10224831.95073419   4.766148768486217e-05    0.001275850110894872
       238                   0.0238       69794.62517430499      -10224831.95073419   4.766148768486217e-05    0.001275850110894872
       239                   0.0239       70089.99042598199      -10224831.95073428   6.942758600777046e-05    0.001603090746933889
       239                   0.0239       70089.99042598199      -10224831.95073428   6.942758600777046e-05    0.001603090746933889
       240                    0.024         70382.998080658      -10224831.95073438   4.762401871880552e-05    0.001357062644219983
       240                    0.024         70382.998080658      -10224831.95073438   4.762401871880552e-05    0.001357062644219983
       241                   0.0241       70675.94656952699      -10224831.95073451   6.458409893470951e-05    0.001618158149290071
       241                   0.0241       70675.94656952699      -10224831.95073451   6.458409893470951e-05    0.001618158149290071
       242                   0.0242         70970.782894737       -10224831.9507346   5.130504397465527e-05    0.001351265495132928
       242                   0.0242         70970.782894737       -10224831.9507346   5.130504397465527e-05    0.001351265495132928
       243                   0.0243         71263.982739731      -10224831.95073469   5.710183845714221e-05    0.001538438067294717
       243                   0.0243         71263.982739731      -10224831.95073469   5.710183845714221e-05    0.001538438067294717
       244                   0.0244         71556.132648992      -10224831.95073478   3.879421209692437e-05    0.001188085877884121
       244                   0.0244         71556.132648992      -10224831.95073478   3.879421209692437e-05    0.001188085877884121
       245                   0.0245         71850.220729337      -10224831.95073488   6.464488869633699e-05    0.001389723411845185
       245                   0.0245         71850.220729337      -10224831.95073488   6.464488869633699e-05    0.001389723411845185
       246                   0.0246           72145.4455651      -10224831.95073495   3.916373198685481e-05    0.001107675887087434
       246                   0.0246           72145.4455651      -10224831.95073495   3.916373198685481e-05    0.001107675887087434
       247                   0.0247       72440.93101926299      -10224831.95073501   4.617875925113248e-05    0.001318001248223173
       247                   0.0247       72440.93101926299      -10224831.95073501   4.617875925113248e-05    0.001318001248223173
       248                   0.0248         72734.259088726      -10224831.95073509   3.562957573869646e-05    0.001088551781700344
       248                   0.0248         72734.259088726      -10224831.95073509   3.562957573869646e-05    0.001088551781700344
       249                   0.0249       73027.58200996299      -10224831.95073517   4.805225805621409e-05    0.001290226022515139
       249                   0.0249       73027.58200996299      -10224831.95073517   4.805225805621409e-05    0.001290226022515139
       250                    0.025         73320.554440287      -10224831.95073523   3.473295810371355e-05    0.001054800096833228
       250                    0.025         73320.554440287      -10224831.95073523   3.473295810371355e-05    0.001054800096833228
       251                   0.0251         73617.383163352      -10224831.95073527   4.625687294375781e-05    0.001185085528050343
       251                   0.0251         73617.383163352      -10224831.95073527   4.625687294375781e-05    0.001185085528050343
       252                   0.0252       74060.01803861199      -10224831.95073534   2.837642516703579e-05    0.000930819630434707
       252                   0.0252       74060.01803861199      -10224831.95073534   2.837642516703579e-05    0.000930819630434707
Loop time of 74060 on 48 procs for 252 steps with 9114 atoms

Loop time of 74060 on 48 procs for 252 steps with 9114 atoms

517.0% CPU use with 4 MPI tasks x 12 OpenMP threads
517.0% CPU use with 4 MPI tasks x 12 OpenMP threads

Minimization stats:
  Stopping criterion = force tolerance
  Energy initial, next-to-last, final = 
     -10224720.6918231  -10224831.9507353  -10224831.9507353
  Force two-norm initial, final = 37.482507 0.00093081963
  Force max component initial, final = 0.65903507 2.8376425e-05
  Final line search alpha, max atom move = 1 2.8376425e-05
  Iterations, force evaluations = 252 503

Minimization stats:
  Stopping criterion = force tolerance
  Energy initial, next-to-last, final = 
     -10224720.6918231  -10224831.9507353  -10224831.9507353
  Force two-norm initial, final = 37.482507 0.00093081963
  Force max component initial, final = 0.65903507 2.8376425e-05
  Final line search alpha, max atom move = 1 2.8376425e-05
  Iterations, force evaluations = 252 503

MPI task timing breakdown:
Section |  min time  |  avg time  |  max time  |%varavg| %total
---------------------------------------------------------------

MPI task timing breakdown:
Section |  min time  |  avg time  |  max time  |%varavg| %total
---------------------------------------------------------------
Pair    | 73223      | 73522      | 73658      |  64.6 | 99.27
Pair    | 73223      | 73522      | 73658      |  64.6 | 99.27
Neigh   | 36.699     | 36.786     | 36.861     |   1.0 |  0.05
Neigh   | 36.699     | 36.786     | 36.861     |   1.0 |  0.05
Comm    | 364.52     | 500.55     | 799.54     | 782.4 |  0.68
Comm    | 364.52     | 500.55     | 799.54     | 782.4 |  0.68
Output  | 0.50756    | 0.50821    | 0.51012    |   0.2 |  0.00
Output  | 0.50756    | 0.50821    | 0.51012    |   0.2 |  0.00
Modify  | 0          | 0          | 0          |   0.0 |  0.00
Modify  | 0          | 0          | 0          |   0.0 |  0.00
Other   |            | 0.1321     |            |       |  0.00
Other   |            | 0.1321     |            |       |  0.00

Nlocal:         2278.5 ave        2311 max        2257 min
Histogram: 2 0 0 0 0 1 0 0 0 1
Nghost:        10035.5 ave       10047 max       10021 min
Histogram: 1 0 1 0 0 0 0 0 0 2
Neighs:              0 ave           0 max           0 min
Histogram: 4 0 0 0 0 0 0 0 0 0
FullNghs:  1.33571e+06 ave 1.35781e+06 max 1.32221e+06 min
Histogram: 2 0 0 0 0 1 0 0 0 1

Nlocal:         2278.5 ave        2311 max        2257 min
Histogram: 2 0 0 0 0 1 0 0 0 1
Nghost:        10035.5 ave       10047 max       10021 min
Histogram: 1 0 1 0 0 0 0 0 0 2
Neighs:              0 ave           0 max           0 min
Histogram: 4 0 0 0 0 0 0 0 0 0
FullNghs:  1.33571e+06 ave 1.35781e+06 max 1.32221e+06 min
Histogram: 2 0 0 0 0 1 0 0 0 1


Total # of neighbors = 5342830
Ave neighs/atom = 586.2223
Neighbor list builds = 504
Dangerous builds = 0
Total # of neighbors = 5342830
Ave neighs/atom = 586.2223
Neighbor list builds = 504
Dangerous builds = 0
write_data /home/theory/phrrpq/bilayer_relaxations/WSe2_WSe2/AP/22/WSe2_WSe2_AP_22.data
System init for write_data ...
System init for write_data ...
Generated 0 of 1 mixed pair_coeff terms from geometric mixing rule
Generated 0 of 1 mixed pair_coeff terms from geometric mixing rule
Total wall time: 20:39:22
Total wall time: 20:39:22
