2232
Lattice="592.6528293239999 0.0 0.0 1.3322676295501878e-15 5.5188430733258835 0.0 0.0 0.0 20.0" Properties=species:S:1:pos:R:3:forces:R:3 energy=-1905596.8057902646 stress="5.511912982177978e-05 -1.1306612767115033e-08 -8.330140096869432e-08 -1.1306612767115033e-08 4.582332755043622e-05 -3.701751959495919e-05 -8.330140096869432e-08 -3.701751959495919e-05 3.9944989691116487e-07" free_energy=-1905596.8057902646 pbc="T T T"
Mo      -0.00009104       0.00001578       7.50322983      -0.00000136      -0.00000029      -0.00000179
S       -0.00008998       1.83961920       9.07283584      -0.00000123      -0.00000056      -0.00001378
S       -0.00008890       1.83961419       5.93233955      -0.00000135      -0.00000060       0.00001048
Mo       1.59299188       2.75944352       7.50322629      -0.00000287       0.00000008      -0.00000187
S        1.59300253       4.59904689       9.07283244      -0.00000273      -0.00000020      -0.00001383
S        1.59298433       4.59904172       5.93233579      -0.00000290      -0.00000024       0.00001038
Mo       0.00000663      -0.00000687      13.69801832      -0.00000094      -0.00000106       0.00000081
S        0.00000435       3.67922834      15.26889662      -0.00000098      -0.00000073      -0.00001147
S        0.00000576       3.67923087      12.12841981      -0.00000108      -0.00000076       0.00001280
Mo     591.05972347       2.75940807      13.69801219       0.00000062      -0.00000144       0.00000087
S      591.05971202       0.91980038      15.26889064       0.00000058      -0.00000111      -0.00001142
S      591.05973156       0.91980277      12.12841361       0.00000049      -0.00000114       0.00001286
Mo       3.18607416       0.00002797       7.50321274      -0.00000440       0.00000042      -0.00000197
S        3.18609479       1.83963126       9.07281908      -0.00000425       0.00000014      -0.00001389
S        3.18605655       1.83962593       5.93232197      -0.00000446       0.00000010       0.00001024
Mo       4.77915566       2.75945535       7.50318880      -0.00000596       0.00000076      -0.00000209
S        4.77918669       4.59905855       9.07279535      -0.00000580       0.00000046      -0.00001396
S        4.77912762       4.59905303       5.93229771      -0.00000605       0.00000042       0.00001007
Mo       3.18623224       0.00000609      13.69800192      -0.00000409      -0.00000030       0.00000068
S        3.18624930       3.67924108      15.26888010      -0.00000413       0.00000003      -0.00001153
S        3.18621228       3.67924389      12.12840338      -0.00000427      -0.00000000       0.00001259
Mo       1.59311940       2.75942115      13.69801502      -0.00000250      -0.00000068       0.00000075
S        1.59312661       0.91981316      15.26889323      -0.00000255      -0.00000036      -0.00001150
S        1.59310918       0.91981583      12.12841653      -0.00000266      -0.00000039       0.00001270
Mo       6.37223626       0.00003959       7.50315403      -0.00000755       0.00000108      -0.00000223
S        6.37227811       1.83964269       9.07276083      -0.00000737       0.00000078      -0.00001404
S        6.37219738       1.83963697       5.93226258      -0.00000766       0.00000074       0.00000987
Mo       7.96531584       2.75946690       7.50310800      -0.00000914       0.00000140      -0.00000238
S        7.96536894       4.59906989       9.07271509      -0.00000895       0.00000109      -0.00001413
S        7.96526570       4.59906396       5.93221615      -0.00000927       0.00000104       0.00000965
Mo       6.37245732       0.00001947      13.69794470      -0.00000732       0.00000050       0.00000050
S        6.37249524       3.67925439      15.26882302      -0.00000735       0.00000083      -0.00001160
S        6.37241664       3.67925747      12.12834585      -0.00000752       0.00000080       0.00001231
Mo       4.77934495       2.75943421      13.69797862      -0.00000570       0.00000009       0.00000060
S        4.77937225       0.91982607      15.26885683      -0.00000573       0.00000042      -0.00001156
S        4.77931484       0.91982901      12.12837996      -0.00000589       0.00000039       0.00001246
Mo       9.55839428       0.00005120       7.50305026      -0.00001073       0.00000170      -0.00000256
S        9.55845904       1.83965406       9.07265769      -0.00001052       0.00000140      -0.00001425
S        9.55833245       1.83964791       5.93215797      -0.00001088       0.00000135       0.00000942
Mo      11.15147145       2.75947869       7.50298038      -0.00001228       0.00000201      -0.00000276
S       11.15154832       4.59908140       9.07258817      -0.00001206       0.00000171      -0.00001440
S       11.15139753       4.59907502       5.93208761      -0.00001243       0.00000166       0.00000918
Mo       9.55868019       0.00003421      13.69784324      -0.00001051       0.00000139       0.00000030
S        9.55874055       3.67926923      15.26872200      -0.00001054       0.00000171      -0.00001171
S        9.55861704       3.67927256      12.12824382      -0.00001072       0.00000167       0.00001201
Mo       7.96556914       2.75944814      13.69789972      -0.00000893       0.00000093       0.00000040
S        7.96561808       0.91984001      15.26877822      -0.00000896       0.00000126      -0.00001165
S        7.96551744       0.91984322      12.12830062      -0.00000914       0.00000122       0.00001216
Mo      12.74454725       0.00006326       7.50289790      -0.00001375       0.00000231      -0.00000296
S       12.74463663       1.83966581       9.07250610      -0.00001352       0.00000203      -0.00001456
S       12.74446083       1.83965919       5.93200463      -0.00001390       0.00000199       0.00000893
Mo      14.33762159       2.75949109       7.50280242      -0.00001511       0.00000262      -0.00000316
S       14.33772387       4.59909347       9.07241105      -0.00001490       0.00000236      -0.00001472
S       14.33752228       4.59908662       5.93190861      -0.00001525       0.00000232       0.00000870
Mo      12.74489909       0.00005143      13.69769409      -0.00001347       0.00000233       0.00000010
S       12.74498341       3.67928675      15.26857359      -0.00001348       0.00000262      -0.00001184
S       12.74481175       3.67929025      12.12809381      -0.00001369       0.00000259       0.00001173
Mo      11.15179025       2.75946397      13.69777484      -0.00001203       0.00000186       0.00000020
S       11.15186240       0.91985604      15.26865393      -0.00001206       0.00000216      -0.00001177
S       11.15171521       0.91985946      12.12817502      -0.00001225       0.00000213       0.00001187
Mo      15.93069440       0.00007608       7.50269355      -0.00001635       0.00000295      -0.00000334
S       15.93080991       1.83967827       9.07230263      -0.00001614       0.00000271      -0.00001487
S       15.93058186       1.83967118       5.93179919      -0.00001647       0.00000268       0.00000848
Mo      17.52376562       2.75950438       7.50257094      -0.00001749       0.00000332      -0.00000351
S       17.52389466       4.59910638       9.07218050      -0.00001728       0.00000310      -0.00001498
S       17.52363955       4.59909907       5.93167602      -0.00001758       0.00000308       0.00000826
Mo      15.93111229       0.00007240      13.69749396      -0.00001604       0.00000323      -0.00000016
S       15.93122192       3.67930820      15.26837450      -0.00001602       0.00000347      -0.00001199
S       15.93099916       3.67931178      12.12789255      -0.00001627       0.00000344       0.00001138
Mo      14.33800651       2.75948290      13.69760059      -0.00001480       0.00000280      -0.00000002
S       14.33810333       0.91987536      15.26848057      -0.00001480       0.00000306      -0.00001191
S       14.33790646       0.91987892      12.12799977      -0.00001503       0.00000303       0.00001156
Mo      19.11683521       0.00008989       7.50243431      -0.00001857       0.00000374      -0.00000366
S       19.11697801       1.83969169       9.07204437      -0.00001836       0.00000352      -0.00001506
S       19.11669538       1.83968416       5.93153882      -0.00001862       0.00000350       0.00000804
Mo      20.70990315       2.75951876       7.50228344      -0.00001967       0.00000418      -0.00000378
S       20.71005987       4.59912037       9.07189401      -0.00001946       0.00000396      -0.00001508
S       20.70974939       4.59911263       5.93138739      -0.00001968       0.00000394       0.00000781
Mo      19.11731809       0.00009845      13.69724000      -0.00001840       0.00000399      -0.00000045
S       19.11745407       3.67933497      15.26812188      -0.00001835       0.00000421      -0.00001209
S       19.11717791       3.67933848      12.12763724      -0.00001860       0.00000418       0.00001090
Mo      17.52421621       2.75950624      13.69737386      -0.00001722       0.00000363      -0.00000030
S       17.52433892       0.91989930      15.26825503      -0.00001718       0.00000385      -0.00001205
S       17.52408969       0.91990287      12.12777180      -0.00001744       0.00000382       0.00001115
Mo      22.30296942       0.00010489       7.50211818      -0.00002086       0.00000466      -0.00000388
S       22.30314015       1.83970629       9.07172928      -0.00002064       0.00000441      -0.00001505
S       22.30280165       1.83969836       5.93122158      -0.00002082       0.00000437       0.00000758
Mo      23.89603399       2.75953441       7.50193850      -0.00002218       0.00000513      -0.00000397
S       23.89621872       4.59913562       9.07155014      -0.00002196       0.00000484      -0.00001501
S       23.89585221       4.59912750       5.93104134      -0.00002210       0.00000480       0.00000737
Mo      22.30351484       0.00013099      13.69693024      -0.00002102       0.00000471      -0.00000075
S       22.30367770       3.67936845      15.26781378      -0.00002095       0.00000499      -0.00001211
S       22.30334683       3.67937169      12.12732586      -0.00002120       0.00000494       0.00001033
Mo      20.71041771       2.75953535      13.69709218      -0.00001965       0.00000434      -0.00000060
S       20.71056710       0.91992924      15.26797485      -0.00001959       0.00000458      -0.00001210
S       20.71026367       0.91993264      12.12748864      -0.00001984       0.00000455       0.00001061
Mo      25.48909683       0.00012119       7.50174443      -0.00002362       0.00000559      -0.00000404
S       25.48929544       1.83972218       9.07135664      -0.00002341       0.00000526      -0.00001498
S       25.48890115       1.83971390       5.93084670      -0.00002348       0.00000523       0.00000720
Mo      27.08215789       2.75955132       7.50153612      -0.00002511       0.00000603      -0.00000408
S       27.08237015       4.59915210       9.07114895      -0.00002490       0.00000569      -0.00001500
S       27.08194851       4.59914367       5.93063782      -0.00002489       0.00000567       0.00000714
Mo      25.48970067       0.00017161      13.69656388      -0.00002402       0.00000557      -0.00000102
S       25.48989023       3.67941030      15.26744947      -0.00002394       0.00000589      -0.00001218
S       25.48950471       3.67941302      12.12695760      -0.00002417       0.00000584       0.00000987
Mo      23.89660924       2.75957171      13.69675413      -0.00002250       0.00000512      -0.00000089
S       23.89678553       0.91996667      15.26763864      -0.00002243       0.00000543      -0.00001213
S       23.89642724       0.91996969      12.12714884      -0.00002267       0.00000538       0.00001006
Mo      28.67521712       0.00013861       7.50131387      -0.00002652       0.00000648      -0.00000407
S       28.67544267       1.83973917       9.07092733      -0.00002629       0.00000616      -0.00001507
S       28.67499438       1.83973060       5.93041499      -0.00002618       0.00000614       0.00000722
Mo      30.26827449       2.75956912       7.50107807      -0.00002774       0.00000693      -0.00000403
S       30.26851282       4.59916946       9.07069221      -0.00002744       0.00000668      -0.00001522
S       30.26803883       4.59916076       5.93017861      -0.00002727       0.00000666       0.00000745
Mo      28.67587352       0.00022237      13.69614169      -0.00002676       0.00000653      -0.00000123
S       28.67608871       3.67946260      15.26702975      -0.00002659       0.00000675      -0.00001251
S       28.67565023       3.67946449      12.12653320      -0.00002676       0.00000669       0.00000977
Mo      27.08278885       2.75961711      13.69635965      -0.00002548       0.00000605      -0.00000113
S       27.08299142       0.92001346      15.26724642      -0.00002536       0.00000634      -0.00001231
S       27.08257910       0.92001580      12.12675230      -0.00002558       0.00000629       0.00000976
Mo      31.86132998       0.00015660       7.50082928      -0.00002872       0.00000739      -0.00000398
S       31.86158047       1.83975673       9.07044411      -0.00002830       0.00000722      -0.00001547
S       31.86108197       1.83974791       5.92992924      -0.00002810       0.00000721       0.00000780
Mo      33.45438360       2.75958704       7.50056817      -0.00002950       0.00000782      -0.00000391
S       33.45464550       4.59918701       9.07018370      -0.00002897       0.00000770      -0.00001575
S       33.45412394       4.59917805       5.92966756      -0.00002871       0.00000771       0.00000825
Mo      31.86203143       0.00028580      13.69566629      -0.00002860       0.00000759      -0.00000126
S       31.86227010       3.67952788      15.26655719      -0.00002832       0.00000761      -0.00001298
S       31.86178236       3.67952853      12.12605532      -0.00002826       0.00000757       0.00001019
Mo      30.26895445       2.75967386      13.69591039      -0.00002779       0.00000703      -0.00000128
S       30.26918172       0.92007191      15.26679983      -0.00002756       0.00000715      -0.00001274
S       30.26871801       0.92007323      12.12630069      -0.00002763       0.00000709       0.00000991
Mo      35.04743540       0.00017413       7.50029551      -0.00003022       0.00000817      -0.00000377
S       35.04770782       1.83977397       9.06991176      -0.00002962       0.00000808      -0.00001601
S       35.04716490       1.83976488       5.92939437      -0.00002927       0.00000808       0.00000880
Mo      36.64048543       2.75960374       7.50001228      -0.00003105       0.00000840      -0.00000354
S       36.64076732       4.59920351       9.06962924      -0.00003041       0.00000829      -0.00001619
S       36.64020503       4.59919428       5.92911061      -0.00002996       0.00000825       0.00000944
Mo      35.04817283       0.00036506      13.69514259      -0.00003021       0.00000923      -0.00000115
S       35.04843161       3.67960920      15.26603667      -0.00002972       0.00000921      -0.00001351
S       35.04790062       3.67960818      12.12552897      -0.00002962       0.00000920       0.00001088
Mo      33.45510428       2.75974475      13.69541007      -0.00002935       0.00000830      -0.00000119
S       33.45535350       0.92014476      15.26630252      -0.00002898       0.00000826      -0.00001322
S       33.45484325       0.92014463      12.12579780      -0.00002886       0.00000825       0.00001053
Mo      38.23353371       0.00018938       7.49971955      -0.00003209       0.00000847      -0.00000326
S       38.23382386       1.83978916       9.06933725      -0.00003144       0.00000834      -0.00001634
S       38.23324449       1.83977975       5.92881738      -0.00003095       0.00000824       0.00001016
Mo      39.82658025       2.75961674       7.49941858      -0.00003332       0.00000826      -0.00000300
S       39.82687729       4.59921660       9.06903705      -0.00003268       0.00000813      -0.00001656
S       39.82628338       4.59920696       5.92851591      -0.00003217       0.00000798       0.00001093
Mo      38.23429633       0.00046466      13.69457777      -0.00003260       0.00001221      -0.00000121
S       38.23457073       3.67971102      15.26547536      -0.00003207       0.00001234      -0.00001440
S       38.23400437       3.67970788      12.12496124      -0.00003198       0.00001221       0.00001164
Mo      36.64123691       2.75983349      13.69486481      -0.00003129       0.00001048      -0.00000117
S       36.64150413       0.92023565      15.26576059      -0.00003074       0.00001054      -0.00001390
S       36.64095437       0.92023363      12.12524977      -0.00003068       0.00001048       0.00001122
Mo      41.41962501       0.00019905       7.49911074      -0.00003454       0.00000761      -0.00000278
S       41.41992744       1.83979912       9.06873001      -0.00003400       0.00000753      -0.00001692
S       41.41932173       1.83978913       5.92820754      -0.00003342       0.00000736       0.00001178
Mo      43.01266797       2.75962162       7.49879747      -0.00003549       0.00000634      -0.00000256
S       43.01297413       4.59922203       9.06841758      -0.00003520       0.00000635      -0.00001735
S       43.01235957       4.59921160       5.92789374      -0.00003448       0.00000616       0.00001266
Mo      41.42040028       0.00059163      13.69398066      -0.00003501       0.00001798      -0.00000104
S       41.42068465       3.67984038      15.26488219      -0.00003478       0.00001804      -0.00001564
S       41.42009249       3.67983447      12.12436089      -0.00003464       0.00001786       0.00001313
Mo      39.82735086       2.75994568      13.69428263      -0.00003394       0.00001465      -0.00000117
S       39.82763104       0.92035014      15.26518214      -0.00003352       0.00001477      -0.00001500
S       39.82705047       0.92034571      12.12466452      -0.00003337       0.00001460       0.00001228
Mo      44.60570911       0.00019715       7.49848035      -0.00003608       0.00000445      -0.00000232
S       44.60601718       1.83979812       9.06810133      -0.00003606       0.00000457      -0.00001769
S       44.60539694       1.83978707       5.92757609      -0.00003526       0.00000428       0.00001348
Mo      46.19874847       2.75961034       7.49816106      -0.00003641       0.00000224      -0.00000206
S       46.19905648       4.59921209       9.06778289      -0.00003662       0.00000237      -0.00001778
S       46.19843388       4.59920022       5.92725628      -0.00003592       0.00000195       0.00001401
Mo      44.60648314       0.00075736      13.69336194      -0.00003590       0.00002678      -0.00000075
S       44.60677039       3.68000858      15.26426773      -0.00003603       0.00002688      -0.00001668
S       44.60616379       3.67999908      12.12373872      -0.00003601       0.00002659       0.00001478
Mo      43.01344441       2.76009026      13.69367326      -0.00003565       0.00002217      -0.00000088
S       43.01373119       0.92049715      15.26457690      -0.00003558       0.00002218      -0.00001626
S       43.01313030       0.92048957      12.12405178      -0.00003553       0.00002199       0.00001406
Mo      47.79178610       0.00017328       7.49784133      -0.00003682       0.00000037      -0.00000187
S       47.79209199       1.83977609       9.06746399      -0.00003716       0.00000031      -0.00001747
S       47.79147046       1.83976311       5.92693608      -0.00003675      -0.00000020       0.00001398
Mo      49.38482205       2.75957024       7.49752294      -0.00003776      -0.00000022      -0.00000176
S       49.38512373       4.59917434       9.06714639      -0.00003807      -0.00000062      -0.00001671
S       49.38450671       4.59915990       5.92661724      -0.00003790      -0.00000108       0.00001341
Mo      47.79254415       0.00097825      13.69273401      -0.00003693       0.00003322      -0.00000029
S       47.79282599       3.68023228      15.26364411      -0.00003745       0.00003402      -0.00001592
S       47.79221796       3.68021805      12.12310738      -0.00003669       0.00003352       0.00001511
Mo      46.19951640       2.76028131      13.69304828      -0.00003616       0.00003087      -0.00000060
S       46.19980205       0.92069077      15.26395623      -0.00003651       0.00003127      -0.00001663
S       46.19919298       0.92067909      12.12342334      -0.00003624       0.00003085       0.00001512
Mo      50.97785626       0.00011325       7.49720766      -0.00003940       0.00000138      -0.00000157
S       50.97815166       1.83971882       9.06683189      -0.00003982       0.00000063      -0.00001536
S       50.97754271       1.83970257       5.92630153      -0.00003963       0.00000034       0.00001245
Mo      52.57088859       2.75948696       7.49689736      -0.00004189       0.00000532      -0.00000111
S       52.57117559       4.59909415       9.06652240      -0.00004243       0.00000451      -0.00001335
S       52.57057849       4.59907576       5.92599080      -0.00004199       0.00000436       0.00001138
Mo      50.97858265       0.00127111      13.69211135      -0.00004098       0.00002924       0.00000074
S       50.97884999       3.68052893      15.26302580      -0.00004164       0.00003022      -0.00001271
S       50.97825588       3.68050837      12.12248144      -0.00004036       0.00002989       0.00001394
Mo      49.38556629       2.76053639      13.69242100      -0.00003850       0.00003273       0.00000021
S       49.38584204       0.92094910      15.26333326      -0.00003918       0.00003382      -0.00001452
S       49.38523891       0.92093190      12.12279273      -0.00003798       0.00003336       0.00001474
Mo      54.16391881       0.00000403       7.49659410      -0.00004517       0.00001039      -0.00000038
S       54.16419517       1.83961307       9.06622004      -0.00004599       0.00000996      -0.00001085
S       54.16361403       1.83959217       5.92568705      -0.00004538       0.00000978       0.00001032
Mo      55.75694657       2.75934942       7.49630014      -0.00004941       0.00001440       0.00000034
S       55.75720996       4.59896075       9.06592710      -0.00005082       0.00001422      -0.00000808
S       55.75664912       4.59893690       5.92539249      -0.00005052       0.00001386       0.00000888
Mo      54.16459682       0.00164642      13.69151066      -0.00004784       0.00002026       0.00000106
S       54.16484080       3.68090873      15.26242973      -0.00004948       0.00002032      -0.00000889
S       54.16427700       3.68088026      12.12187719      -0.00004864       0.00002006       0.00001079
Mo      52.57159293       2.76086955      13.69180721      -0.00004408       0.00002417       0.00000103
S       52.57184966       0.92128654      15.26272391      -0.00004501       0.00002466      -0.00001080
S       52.57126871       0.92126222      12.12217558      -0.00004396       0.00002439       0.00001263
Mo      57.34997155      -0.00016488       7.49601780      -0.00005573       0.00001537       0.00000057
S       57.35021931       1.83944938       9.06564599      -0.00005691       0.00001492      -0.00000585
S       57.34968302       1.83942193       5.92510929      -0.00005729       0.00001442       0.00000705
Mo      58.94299312       2.75914407       7.49574921      -0.00006461       0.00001378       0.00000018
S       58.94322267       4.59876199       9.06537891      -0.00006566       0.00001202      -0.00000431
S       58.94271482       4.59873018       5.92483953      -0.00006662       0.00001148       0.00000465
Mo      57.35058411       0.00211526      13.69094811      -0.00006005       0.00002279       0.00000144
S       57.35079522       3.68138175      15.26187257      -0.00006292       0.00002438      -0.00000463
S       57.35027732       3.68134337      12.12131030      -0.00006108       0.00002396       0.00000756
Mo      55.75759403       2.76128939      13.69122366      -0.00005290       0.00001993       0.00000106
S       55.75782287       0.92171076      15.26214531      -0.00005515       0.00002015      -0.00000700
S       55.75728007       0.92167764      12.12158813      -0.00005408       0.00001983       0.00000898
Mo      60.53601050      -0.00041433       7.49549627      -0.00007724       0.00001222      -0.00000051
S       60.53621909       1.83920779       9.06512781      -0.00007698       0.00000892      -0.00000352
S       60.53574314       1.83917077       5.92458498      -0.00007770       0.00000846       0.00000258
Mo      62.12902241       2.75884102       7.49526069      -0.00009227       0.00001340      -0.00000100
S       62.12920737       4.59846758       9.06489457      -0.00009081       0.00000999      -0.00000360
S       62.12876669       4.59842452       5.92434727      -0.00009108       0.00000924       0.00000162
Mo      60.53654043       0.00270588      13.69043964      -0.00008440       0.00002498       0.00000383
S       60.53670664       3.68197747      15.26137073      -0.00008415       0.00002885      -0.00000014
S       60.53625131       3.68192634      12.12079646      -0.00008168       0.00002832       0.00000781
Mo      58.94356657       2.76181452      13.69068602      -0.00007084       0.00002565       0.00000248
S       58.94375679       0.92224021      15.26161361      -0.00007230       0.00002887      -0.00000213
S       58.94326797       0.92219583      12.12104569      -0.00006981       0.00002847       0.00000712
Mo      63.72202719      -0.00078092       7.49504428      -0.00010658       0.00001704      -0.00000153
S       63.72218611       1.83885047       9.06468100      -0.00010619       0.00001449      -0.00000413
S       63.72178414       1.83880037       5.92412825      -0.00010679       0.00001345       0.00000085
Mo      65.31502334       2.75840109       7.49484888      -0.00011666       0.00001897      -0.00000280
S       65.31515334       4.59803804       9.06448901      -0.00011796       0.00001821      -0.00000613
S       65.31479332       4.59797956       5.92392955      -0.00011950       0.00001790       0.00000049
Mo      63.72245707       0.00345436      13.69000293      -0.00010873       0.00001911       0.00000646
S       63.72256669       3.68273319      15.26094246      -0.00011038       0.00001984       0.00000056
S       63.72219088       3.68266602      12.12035255      -0.00010900       0.00001890       0.00001212
Mo      62.12950438       2.76247986      13.69021125      -0.00009841       0.00002118       0.00000515
S       62.12964375       0.92291177      15.26114627      -0.00009793       0.00002426       0.00000085
S       62.12922624       0.92285310      12.12056478      -0.00009624       0.00002351       0.00000922
Mo      66.90800944      -0.00130534       7.49467600      -0.00011620       0.00001751      -0.00000427
S       66.90810786       1.83833834       9.06431990      -0.00012220       0.00001845      -0.00000804
S       66.90779256       1.83827005       5.92375300      -0.00012381       0.00001918      -0.00000029
Mo      68.50098552       2.75777768       7.49452695      -0.00010303       0.00001389      -0.00000463
S       68.50104875       4.59742946       9.06417455      -0.00011107       0.00001841      -0.00000850
S       68.50078064       4.59734995       5.92360033      -0.00011088       0.00001964      -0.00000006
Mo      66.90832500       0.00440057      13.68965393      -0.00009899       0.00002633       0.00001056
S       66.90836550       3.68368737      15.26060293      -0.00010830       0.00002083       0.00000338
S       66.90808368       3.68359943      12.11999521      -0.00010616       0.00002156       0.00001763
Mo      65.31539722       2.76332081      13.68981655      -0.00010943       0.00002154       0.00000829
S       65.31547430       0.92376053      15.26076089      -0.00011706       0.00001994       0.00000131
S       65.31514375       0.92368365      12.12016191      -0.00011502       0.00001937       0.00001535
Mo      70.09395277      -0.00204592       7.49440300      -0.00007602       0.00001108      -0.00000307
S       70.09397722       1.83761570       9.06405373      -0.00008157       0.00002215      -0.00000730
S       70.09375866       1.83752348       5.92347345      -0.00008024       0.00002242       0.00000175
Mo      71.68691429       2.75689920       7.49430549      -0.00003917       0.00000675      -0.00000121
S       71.68689698       4.59657372       9.06395812      -0.00004261       0.00002242      -0.00000440
S       71.68672947       4.59646660       5.92337421      -0.00004202       0.00002216       0.00000229
Mo      70.09414978       0.00560931      13.68940718      -0.00004585       0.00003202       0.00001085
S       70.09410577       3.68490254      15.26036260      -0.00004912       0.00001737       0.00000772
S       70.09393105       3.68478854      12.11974292      -0.00004872       0.00001837       0.00001354
Mo      68.50124153       2.76438896      13.68951695      -0.00007626       0.00002867       0.00001160
S       68.50124164       0.92483640      15.26046975      -0.00008332       0.00001809       0.00000610
S       68.50101184       0.92473617      12.11985492      -0.00008196       0.00001925       0.00001695
Mo      73.27987442      -0.00308571       7.49423499      -0.00000551      -0.00000570      -0.00000113
S       73.27981306       1.83660601       9.06388815      -0.00000582       0.00000892      -0.00000056
S       73.27969620       1.83648106       5.92330315      -0.00000681       0.00001025      -0.00000078
Mo      74.87283771       2.75566844       7.49419061       0.00001092      -0.00003059      -0.00000098
S       74.87272944       4.59538213       9.06384328       0.00000695      -0.00002347       0.00001014
S       74.87266137       4.59523671       5.92325935       0.00000800      -0.00002279      -0.00001124
Mo      73.27995738       0.00716685      13.68927491       0.00000137       0.00007988       0.00000979
S       73.27981145       3.68646012      15.26023289      -0.00000498       0.00007165       0.00001453
S       73.27975806       3.68631183      12.11960890      -0.00000078       0.00007138       0.00000490
Mo      71.68705370       2.76575868      13.68932590      -0.00001664       0.00004670       0.00000972
S       71.68696148       0.92620996      15.26028306      -0.00001734       0.00003152       0.00000801
S       71.68684515       0.92608008      12.11966033      -0.00001532       0.00003236       0.00001069
Mo      76.46580575      -0.00454781       7.49417129       0.00000040      -0.00008018       0.00000328
S       76.46564807       1.83519310       9.06382303      -0.00002647      -0.00008323       0.00003544
S       76.46562817       1.83502474       5.92324156      -0.00001789      -0.00008688      -0.00002908
Mo      78.05877935       2.75391857       7.49417815      -0.00004886      -0.00017735       0.00001290
S       78.05856020       4.59369210       9.06383100      -0.00007740      -0.00018085       0.00006227
S       78.05859192       4.59349751       5.92324818      -0.00006669      -0.00019615      -0.00003724
Mo      76.46577246       0.00923452      13.68927427      -0.00004659       0.00024411       0.00000583
S       76.46549672       3.68851800      15.26023322      -0.00007208       0.00025732       0.00005069
S       76.46558240       3.68832508      12.11960737      -0.00008228       0.00025179      -0.00003952
Mo      74.87286334       2.76754326      13.68925685      -0.00000479       0.00013970       0.00001050
S       74.87265742       0.92798983      15.26021481      -0.00002572       0.00014265       0.00003330
S       74.87267231       0.92782036      12.11959117      -0.00002478       0.00014150      -0.00001270
Mo      79.65175212      -0.00666793       7.49421490      -0.00009611      -0.00034177       0.00001749
S       79.65145940       1.83314558       9.06387309      -0.00014057      -0.00033814       0.00006475
S       79.65154657       1.83291766       5.92328069      -0.00014654      -0.00036790      -0.00003509
Mo      81.24471889       2.75130707       7.49428334      -0.00012292      -0.00054287      -0.00000405
S       81.24433841       4.59117051       9.06395013      -0.00013754      -0.00054302       0.00001167
S       81.24447568       4.59089543       5.92333988      -0.00017509      -0.00056662      -0.00002319
Mo      79.65157878       0.01214423      13.68940794      -0.00013661       0.00061612      -0.00001679
S       79.65113417       3.69141354      15.26038064      -0.00016879       0.00064537       0.00000922
S       79.65134611       3.69116086      12.11972486      -0.00017736       0.00062370      -0.00004424
Mo      78.05867942       2.76997404      13.68932648      -0.00009796       0.00041311      -0.00000708
S       78.05832602       0.93040643      15.26028983      -0.00014172       0.00043432       0.00004686
S       78.05847880       0.93018702      12.11965388      -0.00016363       0.00042182      -0.00006131
Mo      82.83768083      -0.00993077       7.49437439      -0.00009975      -0.00066237      -0.00004007
S       82.83719688       1.82998633       9.06405089      -0.00006349      -0.00068732      -0.00007818
S       82.83736235       1.82965013       5.92341777      -0.00008647      -0.00067560       0.00000355
Mo      84.43063169       2.74722971       7.49447076      -0.00000060      -0.00053991      -0.00003637
S       84.43006103       4.58719553       9.06414954      -0.00000543      -0.00059909      -0.00009818
S       84.43023483       4.58679555       5.92351105       0.00004588      -0.00055428       0.00003320
Mo      82.83734494       0.01646792      13.68965234      -0.00001915       0.00059753       0.00003813
S       82.83666373       3.69576118      15.26064052      -0.00000107       0.00062074      -0.00002295
S       82.83701619       3.69540300      12.11995549       0.00004224       0.00063120       0.00010410
Mo      81.24446807       2.77351487      13.68951449      -0.00011450       0.00073350      -0.00000393
S       81.24390976       0.93394540      15.26049880      -0.00011845       0.00076816      -0.00003124
S       81.24418163       0.93364771      12.11981898      -0.00008968       0.00074366       0.00003154
Mo      86.02359849      -0.01491227       7.49456945       0.00002459      -0.00010670       0.00002515
S       86.02291554       1.82508445       9.06424178       0.00017488      -0.00009942      -0.00003183
S       86.02310676       1.82462781       5.92361724       0.00025769      -0.00009070       0.00009378
Mo      87.61656780       2.74139815       7.49468727       0.00007482       0.00041781       0.00007520
S       87.61581466       4.58142949       9.06434519       0.00014356       0.00053603       0.00008287
S       87.61604494       4.58091323       5.92375594       0.00013016       0.00046237       0.00003480
Mo      86.02312669       0.02242322      13.69009663       0.00009415      -0.00039881       0.00000920
S       86.02219369       3.70177672      15.26105690       0.00019060      -0.00047585       0.00005069
S       86.02277420       3.70129668      12.12043068       0.00012186      -0.00047759      -0.00003506
Mo      84.43023318       2.77869304      13.68984144       0.00003544       0.00014549       0.00005783
S       84.42940213       0.93917790      15.26082307       0.00022194       0.00010570      -0.00000301
S       84.42986444       0.93875501      12.12015592       0.00021221       0.00014229       0.00010962
Mo      89.20955924      -0.02143103       7.49483843       0.00000818       0.00052342       0.00001874
S       89.20874748       1.81868456       9.06448292       0.00000350       0.00059807       0.00010118
S       89.20900602       1.81807590       5.92391809      -0.00012013       0.00055791      -0.00008599
Mo      90.80257342       2.73425465       7.49499833      -0.00013062       0.00011190      -0.00006718
S       90.80168219       4.57448970       9.06465279      -0.00019406       0.00001558       0.00001208
S       90.80191166       4.57376565       5.92405473      -0.00024083       0.00007751      -0.00008680
Mo      89.20898719       0.02947459      13.69075259      -0.00012857      -0.00010483      -0.00003043
S       89.20784443       3.70881351      15.26171849      -0.00028276      -0.00002427       0.00002452
S       89.20862422       3.70817884      12.12107518      -0.00021026      -0.00007047      -0.00006421
Mo      87.61604870       2.78523988      13.69040534      -0.00000172      -0.00053604      -0.00004742
S       87.61502478       0.94574840      15.26135328      -0.00000611      -0.00055897       0.00005976
S       87.61570565       0.94520385      12.12074998      -0.00003138      -0.00062005      -0.00016399
Mo      92.39556108      -0.02942490       7.49512697      -0.00010468      -0.00033913      -0.00004048
S       92.39459867       1.81091828       9.06481518      -0.00025013      -0.00045062      -0.00015815
S       92.39476733       1.81009109       5.92416109      -0.00018726      -0.00039744       0.00006097
Mo      93.98857417       2.72500036       7.49522873      -0.00015538      -0.00010547       0.00000346
S       93.98743130       4.56543016       9.06491737       0.00018651      -0.00010526      -0.00012477
S       93.98754578       4.56449818       5.92426245       0.00019302      -0.00010682       0.00011901
Mo      92.39484529       0.03837408      13.69162720      -0.00014663       0.00016338       0.00008086
S       92.39326105       3.71774147      15.26262192       0.00015955       0.00011645      -0.00003647
S       92.39435255       3.71688778      12.12193210       0.00016163       0.00018398       0.00015718
Mo      90.80190503       2.79300814      13.69114787      -0.00011522       0.00038989       0.00005648
S       90.80060277       0.95350705      15.26214186      -0.00030199       0.00044836      -0.00004411
S       90.80151802       0.95275524      12.12144553      -0.00022149       0.00053421       0.00017421
Mo      95.58155224      -0.04016396       7.49530534       0.00006831       0.00027404       0.00001052
S       95.58036285       1.80035884       9.06498219       0.00008718       0.00041169      -0.00010063
S       95.58039415       1.79931030       5.92434638       0.00009229       0.00032248       0.00015891
Mo      97.17458896       2.71278780       7.49534541       0.00002013       0.00005836      -0.00001905
S       97.17328374       4.55346318       9.06502347       0.00011943       0.00015146      -0.00025878
S       97.17317768       4.55225777       5.92438242       0.00023598       0.00017189       0.00024791
Mo      95.58073012       0.04992621      13.69286669      -0.00000671      -0.00014698       0.00000696
S       95.57871634       3.72930313      15.26384017       0.00019148      -0.00019209      -0.00013814
S       95.58018423       3.72822400      12.12318519       0.00015440      -0.00019709       0.00013436
Mo      93.98775359       2.80326078      13.69220705       0.00008783      -0.00031030       0.00001340
S       93.98600222       0.96379980      15.26317652       0.00012594      -0.00037213      -0.00000854
S       93.98728013       0.96285781      12.12252511       0.00007748      -0.00046659       0.00004739
Mo      98.76764402      -0.05397823       7.49531288      -0.00009585      -0.00001164      -0.00001065
S       98.76626091       1.78687094       9.06501205      -0.00003656      -0.00028631      -0.00040910
S       98.76594843       1.78549778       5.92432585       0.00002683      -0.00022672       0.00040378
Mo     100.36068126       2.69707814       7.49516316       0.00004264      -0.00025228       0.00005063
S      100.35926190       4.53804353       9.06489575      -0.00019714      -0.00000768      -0.00066069
S      100.35862897       4.53649455       5.92414756      -0.00016898       0.00003124       0.00062915
Mo      98.76669692       0.06456538      13.69449283       0.00007086       0.00025219       0.00000165
S       98.76407003       3.74398194      15.26551619       0.00000686       0.00002387      -0.00058654
S       98.76607495       3.74259415      12.12476345      -0.00011366       0.00007291       0.00061786
Mo      97.17371590       2.81618592      13.69362130      -0.00008939       0.00015371       0.00000264
S       97.17142833       0.97671680      15.26463460       0.00005820       0.00032261      -0.00046740
S       97.17312909       0.97548883      12.12390404      -0.00000325       0.00035163       0.00041530
Mo     101.95374644      -0.07193489       7.49484200      -0.00005114       0.00053721       0.00003067
S      101.95237099       1.76925850       9.06446937      -0.00019891       0.00009307       0.00040053
S      101.95123848       1.76751601       5.92388982      -0.00031283      -0.00000938      -0.00014237
Mo     103.54684241       2.67679997       7.49422672       0.00026888      -0.00035623       0.00006869
S      103.54553550       4.51810794       9.06394311      -0.00008746       0.00037255      -0.00036629
S      103.54362479       4.51613544       5.92321051      -0.00004039       0.00027368       0.00023141
Mo     101.95276172       0.08331812      13.69679355       0.00026200       0.00043494      -0.00004927
S      101.94916788       3.76282431      15.26782938      -0.00020892      -0.00029914      -0.00038962
S      101.95219722       3.76105339      12.12705433      -0.00022505      -0.00028757       0.00049169
Mo     100.35972681       2.83289236      13.69552424      -0.00012744      -0.00057713      -0.00000985
S      100.35671237       0.99343234      15.26646791      -0.00037474      -0.00008683       0.00026440
S      100.35913139       0.99187506      12.12588513      -0.00033210      -0.00018597      -0.00025261
Mo     105.13989783      -0.09477130       7.49318108      -0.00031213      -0.00083016       0.00004301
S      105.13896073       1.74684358       9.06281375       0.00004442      -0.00008490       0.00043006
S      105.13592404       1.74459107       5.92217882       0.00011518      -0.00005396      -0.00016219
Mo     106.73307239       2.65114150       7.49146564      -0.00008787       0.00085512       0.00003791
S      106.73226691       4.49277072       9.06135917       0.00031535       0.00013987       0.00024615
S      106.72780986       4.49030720       5.92030758       0.00016960       0.00030046      -0.00019142
Mo     105.13897005       0.10706417      13.70049093      -0.00015033      -0.00084021      -0.00004804
S      105.13356162       3.78668185      15.27160568       0.00031836      -0.00016884       0.00021193
S      105.13866181       3.78444445      12.13069734       0.00029726      -0.00024036      -0.00020014
Mo     103.54577325       2.85397812      13.69839279      -0.00026428       0.00072619      -0.00001592
S      103.54155128       1.01457620      15.26937007       0.00023536       0.00007984       0.00007872
S      103.54544442       1.01256635      12.12877540       0.00030375       0.00014046      -0.00053667
Mo     108.32559216      -0.12368714       7.48898785      -0.00023764      -0.00003796       0.00007431
S      108.32613055       1.71846309       9.05853596      -0.00022953      -0.00054047       0.00044887
S      108.31997850       1.71578365       5.91808544      -0.00008175      -0.00064111      -0.00012728
Mo     109.92008900       2.61812427       7.48552892       0.00082238       0.00055591       0.00006517
S      109.91960383       4.46143216       9.05489281      -0.00038337      -0.00005139       0.00002074
S      109.91189481       4.45864432       5.91516872      -0.00051082       0.00012833      -0.00024317
Mo     108.32595892       0.13759538      13.70702926       0.00081681      -0.00055838      -0.00009567
S      108.31766240       3.81601447      15.27746202      -0.00059617      -0.00019158       0.00024786
S      108.32625688       3.81330369      12.13771368      -0.00030224       0.00010577      -0.00001950
Mo     106.73153968       2.88071536      13.70325918      -0.00019534       0.00011118      -0.00009104
S      106.72578960       1.04126306      15.27417861      -0.00009977       0.00058277       0.00007328
S      106.73257573       1.03874497      12.13376488      -0.00043667       0.00051505      -0.00021159
Mo     111.51168072      -0.15700733       7.48144374       0.00724613      -0.15481796       0.00007056
S      111.51208114       1.68096378       9.05329836       0.00000526       0.00031863       0.00032936
S      111.50307133       1.67780841       5.90844312      -0.00025862      -0.00004258      -0.00012890
Mo     113.10581082       2.56550703       7.47655642      -0.03016797      -0.03439441      -0.00000060
S      113.10196350       4.40812010       9.04664806       0.00027900       0.00084506      -0.00008705
S      113.09206274       4.40512023       5.90576150       0.00050067       0.00082817       0.00009626
Mo     111.51177026       0.18691246      13.71716080      -0.02970666       0.03331882       0.00001324
S      111.49764966       3.86620784      15.28799308       0.00053654      -0.00072479      -0.00022819
S      111.50920370       3.86326740      12.14721363       0.00034880      -0.00075665       0.00006476
Mo     109.91767469       2.91154807      13.71160745       0.00628039       0.14749364      -0.00004304
S      109.90871704       1.07653657      15.28451895      -0.00037378       0.00005164       0.00019038
S      109.91898699       1.07347544      12.13995028       0.00002505      -0.00024733      -0.00047756
Mo     114.69750018      -0.23268524       7.47133838       0.00005094      -0.00239993       0.00001093
S      114.69538922       1.60936377       9.04190280       0.00033738      -0.00058464       0.00035241
S      114.68495095       1.60653792       5.90006511       0.00053088      -0.00029985      -0.00004027
Mo     116.28993274       2.48597897       7.46595048       0.00212711       0.00210237       0.00002118
S      116.28671289       4.32786465       9.03676969       0.00035054      -0.00014447      -0.00074042
S      116.27664964       4.32543823       5.89486097       0.00023994      -0.00008528       0.00062049
Mo     114.69590239       0.26265307      13.72979785       0.00277261      -0.00249357      -0.00005324
S      114.68153638       3.94215272      15.30097675       0.00030324       0.00005643      -0.00060533
S      114.69439164       3.93939338      12.15912669       0.00027050       0.00007188       0.00079382
Mo     113.10346928       2.98310434      13.72324209       0.00035694       0.00257021      -0.00005189
S      113.09022849       1.14396308      15.29455146       0.00042664       0.00025768       0.00021391
S      113.10276339       1.14102720      12.15282985       0.00026892       0.00041536      -0.00053938
Mo     117.88207808      -0.31521214       7.46104052      -0.00105711       0.00030443      -0.00001364
S      117.87827866       1.52617823       9.03209969      -0.00027355       0.00025199      -0.00053167
S      117.86961064       1.52427847       5.89003402      -0.00019333       0.00004369       0.00036645
Mo     119.47427726       2.40170327       7.45712210       0.00024256      -0.00000820      -0.00001420
S      119.46909733       4.24266792       9.02837088      -0.00002308      -0.00000217      -0.00019785
S      119.46275078       4.24132873       5.88622931      -0.00009335       0.00000744       0.00024227
Mo     117.88032831       0.34436614      13.74244108       0.00018167      -0.00015972       0.00000830
S      117.86668244       4.02371842      15.31342761      -0.00009319      -0.00003260      -0.00031602
S      117.87758069       4.02181228      12.17138496      -0.00000348       0.00000782       0.00028424
Mo     116.28810028       3.06235152      13.73634911      -0.00136769      -0.00019699      -0.00000390
S      116.27400028       1.22300723      15.30748732      -0.00015542       0.00003231      -0.00052086
S      116.28639659       1.22059569      12.16551757      -0.00034462      -0.00011564       0.00058913
Mo     121.06641220      -0.40054248       7.45461757       0.00006273       0.00034898       0.00000519
S      121.05978507       1.43997173       9.02602728      -0.00001385      -0.00006092       0.00002104
S      121.05643066       1.43924982       5.88387178      -0.00008705      -0.00002655      -0.00000646
Mo     122.65859460       2.31634368       7.45382179       0.00016306      -0.00002649      -0.00000390
S      122.65035010       4.15635404       9.02537689      -0.00003116       0.00002366       0.00012070
S      122.65035470       4.15623181       5.88317672      -0.00006606       0.00002740      -0.00010723
Mo     121.06469196       0.42902380      13.75107474       0.00004214       0.00025338       0.00000517
S      121.05368312       4.10808479      15.32180750      -0.00006704       0.00000381       0.00006282
S      121.05913898       4.10737563      12.17966584      -0.00000982      -0.00000412      -0.00007688
Mo     119.47249215       3.14599843      13.74748460      -0.00000872      -0.00017523       0.00001381
S      119.45999704       1.30634033      15.31833137      -0.00008309      -0.00001159      -0.00005858
S      119.46850438       1.30501189      12.17625700      -0.00000278       0.00002247       0.00006142
Mo     124.25076424      -0.48486799       7.45482542       0.00004114      -0.00017955       0.00000332
S      124.24102585       1.35467147       9.02649750       0.00006287       0.00000611       0.00009942
S      124.24442053       1.35509549       5.88426783       0.00003642       0.00000844      -0.00009475
Mo     125.84300384       2.23396175       7.45754735      -0.00017184       0.00052399       0.00001330
S      125.83198258       4.07311969       9.02926869      -0.00004210      -0.00000681       0.00025629
S      125.83847216       4.07401046       5.88709553      -0.00001762      -0.00002156      -0.00022167
Mo     124.24910990       0.51278405      13.75295566      -0.00013956      -0.00035401      -0.00001107
S      124.24182295       4.19161798      15.32346986      -0.00004013       0.00001572       0.00022663
S      124.24040707       4.19205436      12.18131291      -0.00003433       0.00001863      -0.00027330
Mo     122.65687064       3.23069673      13.75293286       0.00002398      -0.00001344      -0.00001486
S      122.64767839       1.39079152      15.32355664       0.00005520      -0.00000960       0.00007182
S      122.64971392       1.39068481      12.18137940       0.00007024      -0.00002775      -0.00007942
Mo     127.43527108      -0.56428047       7.46174484       0.00011254      -0.00013344       0.00001215
S      127.42335564       1.27448926       9.03352725      -0.00001789       0.00002848       0.00018495
S      127.43238764       1.27574796       5.89134638      -0.00000931       0.00003136      -0.00016623
Mo     129.02761630       2.15833381       7.46705496       0.00019580      -0.00005838       0.00000732
S      129.01521944       3.99684147       9.03884234       0.00000636      -0.00002216       0.00017287
S      129.02605320       3.99837220       5.89673601       0.00002484      -0.00002187      -0.00016849
Mo     127.43368465       0.59156983      13.74799512       0.00015468      -0.00008484      -0.00001347
S      127.42992546       4.27034265      15.31835535       0.00001811       0.00002282       0.00021754
S      127.42274618       4.27161415      12.17623475      -0.00001486       0.00001330      -0.00023980
Mo     125.84136179       3.31240391      13.75122829       0.00010079       0.00035332      -0.00000696
S      125.83594821       1.47238475      15.32168184      -0.00000639      -0.00002628       0.00018412
S      125.83137118       1.47328438      12.17948880      -0.00000310      -0.00001661      -0.00019037
Mo     130.62006180      -0.63555434       7.47305083       0.00023303       0.00013198       0.00000096
S      130.60765499       1.20275200       9.04482984      -0.00002797      -0.00000266       0.00007587
S      130.61947602       1.20446691       5.90280463      -0.00002996       0.00000810      -0.00007603
Mo     132.21262472       2.09195257       7.47930089       0.00008165       0.00040282       0.00000260
S      132.20063171       3.93013765       9.05105610      -0.00000959       0.00002020       0.00002938
S      132.21264995       3.93196312       5.90913879      -0.00000610       0.00001096      -0.00002388
Mo     130.61860746       0.66225342      13.73851570       0.00016806      -0.00016851      -0.00000675
S      130.61722026       4.34104596      15.30873066       0.00000503       0.00000089       0.00005620
S      130.60711232       4.34277676      12.16675202      -0.00000065      -0.00000664      -0.00006397
Mo     129.02609535       3.38749638      13.74361604       0.00023935       0.00001933      -0.00001261
S      129.02370203       1.54744238      15.31391287      -0.00003149      -0.00001615       0.00010117
S      129.01465098       1.54898705      12.17183738      -0.00002824      -0.00000777      -0.00012508
Mo     133.80530589      -0.69666104       7.48542263      -0.00014262      -0.00002734       0.00000778
S      133.79406558       1.14143382       9.05717792       0.00000784      -0.00000102      -0.00002767
S      133.80560719       1.14330536       5.91532361       0.00001636      -0.00000906       0.00004326
Mo     135.39805251       2.03626759       7.49111602       0.00007592      -0.00036408       0.00000735
S      135.38786966       3.87433395       9.06286777       0.00001106      -0.00002837      -0.00004677
S      135.39842604       3.87619907       5.92109039      -0.00000029      -0.00002002       0.00005945
Mo     133.80396296       0.72280205      13.72781657       0.00009262       0.00028671      -0.00000971
S      133.80356549       4.40166309      15.29788975       0.00000091       0.00001054      -0.00006174
S      133.79357443       4.40354932      12.15607226      -0.00000084       0.00001652       0.00004335
Mo     132.21124572       3.45327872      13.73312272      -0.00005653       0.00006806      -0.00000558
S      132.21048975       1.61326287      15.30327051       0.00000594       0.00000915      -0.00002153
S      132.20010594       1.61510310      12.16136600      -0.00000572       0.00000682       0.00001286
Mo     136.99094037      -0.74703094       7.49617605      -0.00019905       0.00031222       0.00000042
S      136.98191160       1.09108448       9.06790878       0.00001814       0.00000368       0.00000263
S      136.99115339       1.09290655       5.92624469       0.00000125       0.00000661      -0.00000067
Mo     138.58389164       1.99113932       7.50049136       0.00009939       0.00041729      -0.00000564
S      138.57613145       3.82930749       9.07223298      -0.00000715       0.00003674       0.00000484
S      138.58390411       3.83105883       5.93063091      -0.00001199       0.00003225      -0.00001324
Mo     136.98976554       0.77266154      13.71856405       0.00010791      -0.00013287      -0.00000776
S      136.98937061       4.45155089      15.28846827      -0.00000830      -0.00001950      -0.00002002
S      136.98150054       4.45339390      12.14684268       0.00000061      -0.00002441       0.00000433
Mo     135.39682640       3.50850598      13.72289623      -0.00016423      -0.00017784      -0.00001183
S      135.39648760       1.66852736      15.29287691       0.00001040       0.00000023      -0.00003254
S      135.38739571       1.67041171      12.15117551       0.00001851      -0.00000121       0.00000670
Mo     140.17693445      -0.78704687       7.50403832       0.00012174      -0.00025822      -0.00000604
S      140.17037471       1.05119309       9.07579991      -0.00000241      -0.00000911      -0.00000253
S      140.17668083       1.05285017       5.93423827       0.00000744      -0.00000909      -0.00000753
Mo     141.77004330       1.95585041       7.50686034      -0.00008287      -0.00056941      -0.00000328
S      141.76457469       3.79417776       9.07865215       0.00000663      -0.00003749      -0.00002954
S      141.76953245       3.79572814       5.93710913       0.00000387      -0.00003479       0.00001773
Mo     140.17594684       0.81221109      13.71199859      -0.00003780       0.00045797      -0.00000487
S      140.17514853       4.49113530      15.28176818      -0.00000134       0.00002248      -0.00002251
S      140.16999561       4.49281455      12.14025113       0.00000056       0.00002571       0.00001436
Mo     138.58281735       3.55306691      13.71492477       0.00006877       0.00026053      -0.00000438
S      138.58223325       1.71312990      15.28475414       0.00000455       0.00000659       0.00000096
S      138.57572681       1.71490025      12.14319827       0.00000185       0.00000616      -0.00001009
Mo     143.36319372      -0.81809540       7.50904552      -0.00012031       0.00008434      -0.00000387
S      143.35870277       1.02035355       9.08085240      -0.00000539       0.00000043      -0.00001188
S      143.36249189       1.02178892       5.93934972      -0.00001139      -0.00000218       0.00000298
Mo     144.95639731       1.92868254       7.51069816      -0.00019512       0.00064015      -0.00000579
S      144.95272902       3.76725180       9.08252398       0.00000322       0.00003506       0.00001462
S      144.95555323       3.76856627       5.94104408      -0.00000029       0.00003544      -0.00002222
Mo     143.36239454       0.84285258      13.70805650      -0.00019801      -0.00037581      -0.00000497
S      143.36126387       4.52177494      15.27771143       0.00000284      -0.00002080      -0.00000055
S      143.35839940       4.52323439      12.13627545       0.00000584      -0.00002143      -0.00001066
Mo     141.76913730       3.58798959      13.70973809      -0.00006801       0.00001690      -0.00000511
S      141.76815497       1.74806682      15.27944356      -0.00000697       0.00000572      -0.00001592
S      141.76423841       1.74964085      12.13797820      -0.00000721       0.00000589       0.00000467
Mo     146.54960700      -0.84163316       7.51192373       0.00010581       0.00012994      -0.00000630
S      146.54665484       0.99703196       9.08378187      -0.00000203       0.00001099       0.00002221
S      146.54871391       0.99822283       5.94228883      -0.00000073       0.00001446      -0.00003373
Mo     148.14285209       1.90839143       7.51281973       0.00012321      -0.00072794      -0.00000743
S      148.14045133       3.74714891       9.08470602       0.00000404      -0.00002847       0.00002845
S      148.14192590       3.74821669       5.94319835       0.00000443      -0.00002629      -0.00004514
Mo     146.54898497       0.86591126      13.70599697       0.00004995       0.00066739      -0.00000252
S      146.54777996       4.54488091      15.27559748       0.00000295       0.00001704       0.00003085
S      146.54639200       4.54609529      12.13415673       0.00000473       0.00001547      -0.00003458
Mo     144.95566684       3.61463981      13.70684595       0.00007004       0.00001586      -0.00000403
S      144.95448642       1.77474189      15.27647001      -0.00000322      -0.00001241       0.00001309
S      144.95246381       1.77607996      12.13503326      -0.00000282      -0.00001428      -0.00002104
Mo     149.73611599      -0.85919818       7.51346734       0.00006447      -0.00077400      -0.00000819
S      149.73415593       0.97965884       9.08537337       0.00000818      -0.00002099       0.00002716
S      149.73519356       0.98060944       5.94385944       0.00000283      -0.00002779      -0.00004756
Mo     151.32939980       1.89311501       7.51392977       0.00002275       0.00004064      -0.00000860
S      151.32780001       3.73208284       9.08584237       0.00000003       0.00001048       0.00002872
S      151.32851127       3.73292273       5.94433927       0.00000045       0.00000255      -0.00004594
Mo     149.73568544       0.88323563      13.70500689       0.00001664       0.00005180      -0.00000120
S      149.73458747       4.56222404      15.27456790      -0.00000006       0.00000306       0.00004339
S      149.73396265       4.56320061      12.13313373       0.00000053       0.00000255      -0.00004666
Mo     148.14232267       3.63461018      13.70541122       0.00004159       0.00070859      -0.00000190
S      148.14115184       1.79475331      15.27499296       0.00000117       0.00002447       0.00003876
S      148.14021809       1.79584717      12.13354868       0.00000671       0.00001968      -0.00003947
Mo     152.92270098      -0.87241334       7.51425170       0.00000166       0.00085046      -0.00000743
S      152.92140585       0.96665485       9.08617078       0.00000178       0.00002295       0.00002047
S      152.92187119       0.96739220       5.94467211       0.00000472       0.00002527      -0.00003307
Mo     154.51600846       1.88185326       7.51446505       0.00007708       0.00093236      -0.00000556
S      154.51498149       3.72099913       9.08639415      -0.00000392       0.00001077       0.00001378
S      154.51525804       3.72164401       5.94488801       0.00000080       0.00001910      -0.00002436
Mo     152.92245648       0.89598841      13.70451076       0.00008103      -0.00077746      -0.00000245
S      152.92160426       4.57499712      15.27405366       0.00000023      -0.00001828       0.00001941
S      152.92129140       4.57575948      12.13261276      -0.00000380      -0.00001351      -0.00002471
Mo     151.32906731       3.64956484      13.70472211      -0.00000034      -0.00065715      -0.00000175
S      151.32807753       1.80971505      15.27426988       0.00000468      -0.00001910       0.00003160
S      151.32764971       1.81058039      12.13283750       0.00000456      -0.00001299      -0.00003720
Mo     156.10932892      -0.88188079       7.51459298       0.00008166       0.00032092      -0.00000488
S      156.10851771       0.95732254       9.08653310      -0.00000510      -0.00000615       0.00001944
S      156.10864701       0.95788534       5.94501381      -0.00000138       0.00000145      -0.00002952
Mo     157.70265659       1.87391095       7.51465220       0.00008390      -0.00049156      -0.00000413
S      157.70201940       3.71316009       9.08660223      -0.00000561      -0.00001327       0.00003354
S      157.70203069       3.71365097       5.94506977      -0.00000300      -0.00001220      -0.00004357
Mo     156.10926973       0.90501705      13.70418707       0.00009401       0.00043093      -0.00000333
S      156.10867585       4.58407667      15.27373344      -0.00000273       0.00001103       0.00002906
S      156.10843380       4.58466407      12.13226401      -0.00000554       0.00000588      -0.00003371
Mo     154.51586006       3.66031334      13.70434010       0.00007999      -0.00028105      -0.00000255
S      154.51514003       1.82050343      15.27388368      -0.00000046      -0.00000352       0.00001846
S      154.51488286       1.82117285      12.13242861      -0.00000424      -0.00000318      -0.00002281
Mo     159.29599424      -0.88862091       7.51465497       0.00006496      -0.00107589      -0.00000300
S      159.29549164       0.95067228       9.08661069      -0.00000535      -0.00001406       0.00004943
S      159.29540506       0.95109954       5.94507144      -0.00000207      -0.00001777      -0.00005691
Mo     160.88934055       1.86808267       7.51460958       0.00004369      -0.00126774      -0.00000169
S      160.88894574       3.70742019       9.08656834       0.00000029      -0.00001275       0.00005576
S      160.88877479       3.70779094       5.94502636       0.00000164      -0.00001703      -0.00006032
Mo     159.29611718       0.91156902      13.70387471       0.00005145       0.00113046      -0.00000562
S      159.29572646       4.59066297      15.27342202       0.00000113       0.00001570       0.00005079
S      159.29544417       4.59111386      12.13194108       0.00000079       0.00001334      -0.00006136
Mo     157.70268966       3.66795327      13.70403547       0.00007481       0.00095996      -0.00000445
S      157.70220367       1.82819035      15.27358278      -0.00000260       0.00001700       0.00004361
S      157.70194984       1.82870529      12.13210579      -0.00000507       0.00001162      -0.00005147
Mo     162.48269401      -0.89374625       7.51452154       0.00003641      -0.00113981      -0.00000114
S      162.48239195       0.94563551       9.08648104       0.00000302      -0.00001091       0.00005329
S      162.48214488       0.94595596       5.94493988       0.00000313      -0.00001392      -0.00005638
Mo     164.07605528       1.86353411       7.51439416       0.00001815      -0.00085858      -0.00000141
S      164.07583545       3.70295723       9.08635352       0.00000442      -0.00000889       0.00004584
S      164.07551758       3.70323309       5.94481427       0.00000403      -0.00000995      -0.00004883
Mo     162.48298899       0.91653041      13.70350349       0.00001630       0.00074726      -0.00000587
S      162.48276498       4.59563823      15.27304959       0.00000429       0.00000832       0.00004433
S      162.48240421       4.59598113      12.13156661       0.00000402       0.00001074      -0.00005569
Mo     160.88955036       3.67363929      13.70369838       0.00003950       0.00100885      -0.00000601
S      160.88924677       1.83389834      15.27324492       0.00000277       0.00001206       0.00005036
S      160.88892722       1.83429215      12.13176290       0.00000239       0.00001264      -0.00006191
Mo     165.66942194      -0.89778663       7.51422970       0.00000434      -0.00057000      -0.00000155
S      165.66927907       0.94167270       9.08618918       0.00000288      -0.00000683       0.00003796
S      165.66889458       0.94190951       5.94465108       0.00000288      -0.00000718      -0.00004156
Mo     167.26279363       1.85995917       7.51403043      -0.00001855      -0.00034147      -0.00000155
S      167.26272138       3.69944947       9.08599016       0.00000067      -0.00000514       0.00003357
S      167.26227473       3.69965223       5.94445269       0.00000053      -0.00000534      -0.00003749
Mo     165.66987243       0.92027260      13.70305479      -0.00001463       0.00026787      -0.00000527
S      165.66979439       4.59939124      15.27260200      -0.00000006       0.00000413       0.00003262
S      165.66934921       4.59964882      12.13111466       0.00000089       0.00000534      -0.00004214
Mo     164.07642976       3.67796146      13.70328902       0.00000431       0.00047820      -0.00000577
S      164.07628166       1.83823149      15.27283540       0.00000274       0.00000591       0.00003730
S      164.07587856       1.83852920      12.13135052       0.00000253       0.00000786      -0.00004789
Mo     168.85616878      -0.90093313       7.51379884      -0.00004238      -0.00017895      -0.00000170
S      168.85616109       0.93858319       9.08575913      -0.00000041      -0.00000325       0.00003306
S      168.85565720       0.93875645       5.94422153      -0.00000162      -0.00000333      -0.00003740
Mo     170.44954603       1.85720315       7.51353769      -0.00005616      -0.00007624      -0.00000194
S      170.44959706       3.69674137       9.08549855      -0.00000153      -0.00000159       0.00003657
S      170.44904106       3.69688918       5.94396064      -0.00000291      -0.00000146      -0.00004116
Mo     168.85675648       0.92301085      13.70252894      -0.00004121       0.00004419      -0.00000319
S      168.85680241       4.60214160      15.27207923      -0.00000317       0.00000107       0.00003391
S      168.85627710       4.60233281      12.13058508      -0.00000070       0.00000179      -0.00003965
Mo     167.26331505       3.68117558      13.70280120      -0.00003106       0.00012666      -0.00000425
S      167.26330179       1.84145721      15.27234987      -0.00000215       0.00000244       0.00003140
S      167.26281570       1.84167940      12.13085916       0.00000027       0.00000326      -0.00003895
Mo     172.04292500      -0.90333809       7.51324982      -0.00006185      -0.00002466      -0.00000175
S      172.04302797       0.93621827       9.08521145      -0.00000181      -0.00000074       0.00004251
S      172.04242542       0.93634432       5.94367281      -0.00000248      -0.00000043      -0.00004649
Mo     173.63630482       1.85510849       7.51293836      -0.00005206      -0.00000436      -0.00000094
S      173.63645369       3.69468000       9.08490078      -0.00000183      -0.00000039       0.00004901
S      173.63581050       3.69478758       5.94336136      -0.00000159      -0.00000030      -0.00005147
Mo     172.04363317       0.92495611      13.70193126      -0.00004184      -0.00001504      -0.00000297
S      172.04378072       4.60409810      15.27148508      -0.00000180       0.00000004       0.00004396
S      172.04318160       4.60423939      12.12998376      -0.00000030       0.00000003      -0.00004933
Mo     170.45019624       3.68349113      13.70223877      -0.00004820       0.00000264      -0.00000281
S      170.45029530       1.84378466      15.27179084      -0.00000250       0.00000028       0.00003850
S      170.44973237       1.84394906      12.13029304      -0.00000056       0.00000076      -0.00004362
Mo     175.22968624      -0.90516352       7.51260661      -0.00003637       0.00000819      -0.00000008
S      175.22987443       0.93442117       9.08456945      -0.00000121       0.00000008       0.00005410
S      175.22919657       0.93451304       5.94302989      -0.00000059      -0.00000005      -0.00005485
Mo     176.82306974       1.85351458       7.51225769      -0.00001656       0.00001966       0.00000041
S      176.82329163       3.69311076       9.08422071      -0.00000033       0.00000067       0.00005578
S      176.82258460       3.69318924       5.94268142       0.00000034       0.00000049      -0.00005557
Mo     175.23049992       0.92630522      13.70126653      -0.00001747      -0.00002975      -0.00000255
S      175.23072918       4.60545616      15.27082359      -0.00000021      -0.00000059       0.00005214
S      175.23006352       4.60556004      12.12931620       0.00000101      -0.00000052      -0.00005669
Mo     173.63706777       3.68511586      13.70160690      -0.00003191      -0.00002366      -0.00000296
S      173.63725849       1.84541952      15.27116234      -0.00000102      -0.00000021       0.00004904
S      173.63662489       1.84554078      12.12965792       0.00000049      -0.00000032      -0.00005442
Mo     178.41645605      -0.90655814       7.51189439       0.00000143       0.00002190       0.00000057
S      178.41670657       0.93304798       9.08385743       0.00000020       0.00000069       0.00005404
S      178.41597524       0.93311502       5.94231865       0.00000111       0.00000062      -0.00005354
Mo     180.00984594       1.85229105       7.51151916       0.00000798       0.00001485       0.00000074
S      180.01012002       3.69190562       9.08348217       0.00000066       0.00000021       0.00005032
S      180.00936888       3.69196298       5.94194397       0.00000168       0.00000018      -0.00004958
Mo     178.41735859       0.92721524      13.70054348      -0.00000268      -0.00003256      -0.00000186
S      178.41765030       4.60637313      15.27010372       0.00000100      -0.00000055       0.00004988
S      178.41693059       4.60644892      12.12859070       0.00000081      -0.00000045      -0.00005284
Mo     176.82393007       3.68622850      13.70091150      -0.00000538      -0.00003251      -0.00000207
S      176.82419303       1.84654003      15.27047011       0.00000051      -0.00000076       0.00005237
S      176.82349851       1.84662883      12.12895996       0.00000087      -0.00000053      -0.00005593
Mo     181.60323942      -0.90763648       7.51113431       0.00000298       0.00000958       0.00000105
S      181.60353265       0.93198537       9.08309714       0.00000076      -0.00000005       0.00004681
S      181.60276598       0.93203461       5.94155977       0.00000156      -0.00000023      -0.00004556
Mo     183.19663646       1.85133489       7.51074208      -0.00001406       0.00001268       0.00000135
S      183.19694458       3.69096307       9.08270459       0.00000066       0.00000016       0.00004505
S      183.19616654       3.69100551       5.94116832       0.00000098      -0.00000009      -0.00004317
Mo     181.60420990       0.92780438      13.69977627      -0.00002489      -0.00003615      -0.00000115
S      181.60454538       4.60696793      15.26933986      -0.00000012      -0.00000020       0.00004426
S      181.60378820       4.60702259      12.12782119       0.00000091      -0.00000036      -0.00004567
Mo     180.01078523       3.68696535      13.70016436      -0.00000825      -0.00003289      -0.00000169
S      180.01110120       1.84728312      15.26972626       0.00000065      -0.00000022       0.00004649
S      180.01036044       1.84734763      12.12821040       0.00000075      -0.00000038      -0.00004895
Mo     184.79003619      -0.90848903       7.51034469      -0.00003542       0.00001690       0.00000154
S      184.79035574       0.93114443       9.08230697       0.00000023       0.00000043       0.00004526
S      184.78957038       0.93118116       5.94077156       0.00000013       0.00000024      -0.00004294
Mo     186.38343764       1.85057126       7.50994427      -0.00005620       0.00001251       0.00000168
S      186.38376534       3.69020885       9.08190659      -0.00000053       0.00000031       0.00004707
S      186.38297676       3.69024084       5.94037152      -0.00000073       0.00000025      -0.00004446
Mo     184.79104977       0.92815831      13.69898317      -0.00006703      -0.00004102       0.00000064
S      184.79141179      -0.91151589      15.26855053      -0.00000166      -0.00000063       0.00004599
S      184.79063721      -0.91147736      12.12702554      -0.00000001      -0.00000043      -0.00004401
Mo     183.19763168       3.68742806      13.69938166      -0.00004560      -0.00004015      -0.00000024
S      183.19798247       1.84775121      15.26894706      -0.00000100      -0.00000045       0.00004417
S      183.19721399       1.84779723      12.12742537       0.00000071      -0.00000042      -0.00004385
Mo     187.97683981      -0.90917692       7.50954301      -0.00007323       0.00000172       0.00000193
S      187.97717242       0.93046380       9.08150567      -0.00000127       0.00000001       0.00004971
S      187.97638488       0.93049191       5.93997036      -0.00000141      -0.00000003      -0.00004665
Mo     189.57024185       1.84994626       7.50914319      -0.00008350      -0.00000523       0.00000233
S      189.57057633       3.68958948       9.08110634      -0.00000182      -0.00000005       0.00005238
S      189.56979424       3.68961445       5.93957049      -0.00000192      -0.00000019      -0.00004856
Mo     187.97787127       0.92833836      13.69818462      -0.00009606      -0.00003813       0.00000114
S      187.97824563      -0.91133073      15.26775632      -0.00000240      -0.00000050       0.00005134
S      187.97747272      -0.91130399      12.12622373      -0.00000150      -0.00000039      -0.00004829
Mo     186.38446323       3.68768834      13.69858340      -0.00008498      -0.00003912       0.00000110
S      186.38483290       1.84801677      15.26815288      -0.00000205      -0.00000060       0.00004869
S      186.38405705       1.84804892      12.12662421      -0.00000084      -0.00000039      -0.00004578
Mo     191.16364331      -0.90975048       7.50874715      -0.00008699      -0.00000307       0.00000279
S      191.16397676       0.92989490       9.08071082      -0.00000197       0.00000019       0.00005432
S      191.16320455       0.92991732       5.93917435      -0.00000214      -0.00000002      -0.00004955
Mo     192.75704393       1.84941556       7.50835716      -0.00008350       0.00000251       0.00000318
S      192.75737385       3.68906277       9.08032138      -0.00000182       0.00000040       0.00005503
S      192.75661575       3.68908308       5.93878418      -0.00000206       0.00000022      -0.00004941
Mo     191.16466980       0.92839073      13.69739749      -0.00009765      -0.00004581       0.00000109
S      191.16504617      -0.91127399      15.26697371      -0.00000266      -0.00000072       0.00005424
S      191.16428982      -0.91125590      12.12543303      -0.00000144      -0.00000064      -0.00005131
Mo     189.57127353       3.68779983      13.69778875      -0.00010049      -0.00004094       0.00000105
S      189.57164998       1.84813301      15.26736271      -0.00000262      -0.00000055       0.00005329
S      189.57088366       1.84815512      12.12582609      -0.00000163      -0.00000048      -0.00005041
Mo     194.35044373      -0.91024435       7.50797534      -0.00007538       0.00000240       0.00000345
S      194.35076779       0.92940430       9.07994016      -0.00000152       0.00000036       0.00005451
S      194.35002768       0.92942286       5.93840212      -0.00000174       0.00000024      -0.00004827
Mo     195.94384288       1.84895327       7.50760362      -0.00006485      -0.00000579       0.00000364
S      195.94415886       3.68860299       9.07956903      -0.00000117       0.00000014       0.00005306
S      195.94344027       3.68862010       5.93803010      -0.00000127       0.00000001      -0.00004641
Mo     194.35144527       0.92834583      13.69663541      -0.00007886      -0.00004733       0.00000166
S      194.35181515      -0.91131503      15.26621600      -0.00000195      -0.00000080       0.00005321
S      194.35108861      -0.91130353      12.12466748      -0.00000080      -0.00000064      -0.00004921
Mo     192.75806027       3.68780048      13.69701249      -0.00008989      -0.00004859       0.00000133
S      192.75843443       1.84813774      15.26659093      -0.00000242      -0.00000083       0.00005418
S      192.75769135       1.84815231      12.12504626      -0.00000112      -0.00000071      -0.00005082
Mo     197.53724166      -0.91068083       7.50724370      -0.00005368      -0.00001632       0.00000380
S      197.53754745       0.92896976       9.07920963      -0.00000087      -0.00000004       0.00005109
S      197.53685353       0.92898569       5.93766996      -0.00000079      -0.00000025      -0.00004411
Mo     199.13064037       1.84853656       7.50689715      -0.00004311      -0.00002156       0.00000396
S      199.13093408       3.68818798       9.07886343      -0.00000057      -0.00000007       0.00004889
S      199.13026766       3.68820295       5.93732332      -0.00000037      -0.00000036      -0.00004161
Mo     197.53820103       0.92822677      13.69591160      -0.00005436      -0.00004263       0.00000219
S      197.53855624      -0.91143092      15.26549594      -0.00000087      -0.00000059       0.00004951
S      197.53787222      -0.91142438      12.12394074      -0.00000035      -0.00000040      -0.00004449
Mo     195.94482533       3.68771577      13.69626792      -0.00006650      -0.00004401       0.00000197
S      195.94518885       1.84805662      15.26585050      -0.00000140      -0.00000067       0.00005157
S      195.94448206       1.84806545      12.12429843      -0.00000057      -0.00000050      -0.00004699
Mo     200.72403931      -0.91108283       7.50656532      -0.00003361      -0.00001876       0.00000410
S      200.72431939       0.92856947       9.07853178      -0.00000031       0.00000002       0.00004669
S      200.72368293       0.92858365       5.93699155      -0.00000006      -0.00000029      -0.00003911
Mo     202.31743871       1.84814609       7.50624942      -0.00002582      -0.00001137       0.00000421
S      202.31770390       3.68779926       9.07821591      -0.00000012       0.00000012       0.00004471
S      202.31709955       3.68781279       5.93667580       0.00000012      -0.00000015      -0.00003688
Mo     200.72494166       0.92805175      13.69523833      -0.00003364      -0.00005116       0.00000248
S      200.72527521      -0.91160380      15.26482546      -0.00000018      -0.00000072       0.00004522
S      200.72464500      -0.91160093      12.12326537      -0.00000002      -0.00000049      -0.00003967
Mo     199.13157294       3.68756703      13.69556794      -0.00004313      -0.00004541       0.00000235
S      199.13191810       1.84791052      15.26515380      -0.00000046      -0.00000062       0.00004730
S      199.13125969       1.84791509      12.12359594      -0.00000017      -0.00000040      -0.00004199
Mo     203.91083873      -0.91146323       7.50595044      -0.00001980      -0.00000572       0.00000429
S      203.91108799       0.92819068       9.07791690      -0.00000001       0.00000015       0.00004314
S      203.91051757       0.92820369       5.93637702       0.00000019      -0.00000006      -0.00003513
Mo     205.50423941       1.84777498       7.50566926      -0.00001549      -0.00000663       0.00000434
S      205.50447184       3.68742942       9.07763567       0.00000000       0.00000010       0.00004210
S      205.50393684       3.68744202       5.93609603       0.00000015      -0.00000009      -0.00003400
Mo     203.91167137       0.92782989      13.69462609      -0.00002000      -0.00005814       0.00000271
S      203.91197776      -0.91182411      15.26421522       0.00000004      -0.00000082       0.00004241
S      203.91141077      -0.91182391      12.12265167       0.00000009      -0.00000061      -0.00003642
Mo     202.31830765       3.68736788      13.69492400      -0.00002591      -0.00005647       0.00000260
S      202.31862825       1.84771314      15.26451221      -0.00000002      -0.00000080       0.00004353
S      202.31802859       1.84771456      12.12295024       0.00000007      -0.00000058      -0.00003776
Mo     207.09764074      -0.91182625       7.50540658      -0.00001247      -0.00001486       0.00000436
S      207.09785547       0.92782850       9.07737295      -0.00000002      -0.00000003       0.00004156
S      207.09735715       0.92784078       5.93583350       0.00000007      -0.00000023      -0.00003343
Mo     208.69104265       1.84741784       7.50516299      -0.00001035      -0.00002757       0.00000436
S      208.69123890       3.68707276       9.07712933      -0.00000003      -0.00000018       0.00004137
S      208.69077821       3.68708478       5.93559001      -0.00000002      -0.00000041      -0.00003326
Mo     207.09839330       0.92756723      13.69408338      -0.00001211      -0.00004831       0.00000286
S      207.09866807      -0.91208547      15.26367394       0.00000005      -0.00000067       0.00004181
S      207.09817158      -0.91208706      12.12210792       0.00000002      -0.00000047      -0.00003554
Mo     205.50503315       3.68712471      13.69434561      -0.00001553      -0.00005507       0.00000280
S      205.50532423       1.84747139      15.26393552       0.00000005      -0.00000077       0.00004188
S      205.50479172       1.84747060      12.12237062       0.00000006      -0.00000057      -0.00003571
Mo     210.28444504      -0.91218054       7.50493891      -0.00000896      -0.00004052       0.00000433
S      210.28462215       0.92747449       9.07690523      -0.00000002      -0.00000031       0.00004129
S      210.28419979       0.92748628       5.93536601      -0.00000007      -0.00000058      -0.00003324
Mo     211.87784781       1.84706318       7.50473464      -0.00000816      -0.00005039       0.00000428
S      211.87800528       3.68671832       9.07670094       0.00000002      -0.00000041       0.00004112
S      211.87762167       3.68672989       5.93516179      -0.00000010      -0.00000070      -0.00003317
Mo     210.28510982       0.92727254      13.69361628      -0.00000756      -0.00003277       0.00000284
S      210.28534960      -0.91237919      15.26320779       0.00000007      -0.00000048       0.00004215
S      210.28492839      -0.91238187      12.12164010      -0.00000004      -0.00000023      -0.00003591
Mo     208.69175211       3.68684481      13.69384010      -0.00000951      -0.00004014       0.00000287
S      208.69200972       1.84719265      15.26343119       0.00000006      -0.00000056       0.00004198
S      208.69155043       1.84719044      12.12186425      -0.00000002      -0.00000035      -0.00003569
Mo     213.47125082      -0.91253834       7.50455034      -0.00000804      -0.00005572       0.00000419
S      213.47138839       0.92711695       9.07651664       0.00000005      -0.00000046       0.00004073
S      213.47104367       0.92712829       5.93497749      -0.00000013      -0.00000076      -0.00003294
Mo     215.06465392       1.84670030       7.50438601      -0.00000852      -0.00005664       0.00000408
S      215.06477153       3.68635577       9.07635233       0.00000006      -0.00000048       0.00004009
S      215.06446557       3.68636686       5.93481310      -0.00000016      -0.00000077      -0.00003251
Mo     213.47182279       0.92695461      13.69322819      -0.00000564      -0.00002466       0.00000270
S      213.47202574      -0.91269661      15.26282029       0.00000010      -0.00000039       0.00004174
S      213.47168203      -0.91269988      12.12125153      -0.00000011      -0.00000010      -0.00003580
Mo     211.87846665       3.68653760      13.69341225      -0.00000629      -0.00002751       0.00000279
S      211.87868814       1.84688617      15.26300409       0.00000009      -0.00000042       0.00004210
S      211.87830556       1.84688315      12.12143581      -0.00000007      -0.00000015      -0.00003599
Mo     216.65805692      -0.91290735       7.50424151      -0.00000944      -0.00005428       0.00000393
S      216.65815473       0.92674831       9.07620789       0.00000004      -0.00000047       0.00003925
S      216.65788713       0.92675913       5.93466848      -0.00000022      -0.00000074      -0.00003195
Mo     218.25145963       1.84632487       7.50411657      -0.00001054      -0.00005008       0.00000376
S      218.25153797       3.68598072       9.07608305       0.00000001      -0.00000044       0.00003828
S      218.25130809       3.68599122       5.93454334      -0.00000027      -0.00000069      -0.00003131
Mo     216.65853367       0.92661865      13.69292000      -0.00000578      -0.00002419       0.00000247
S      216.65869953      -0.91303241      15.26251243       0.00000007      -0.00000037       0.00004003
S      216.65843309      -0.91303595      12.12094295      -0.00000025      -0.00000009      -0.00003457
Mo     215.06517842       3.68621025      13.69306415      -0.00000554      -0.00002379       0.00000260
S      215.06536277       1.84655914      15.26265644       0.00000009      -0.00000037       0.00004103
S      215.06505787       1.84655570      12.12108728      -0.00000018      -0.00000009      -0.00003531
Mo     219.84486185      -0.91328900       7.50401079      -0.00001150      -0.00004544       0.00000357
S      219.84492121       0.92636703       9.07597744      -0.00000001      -0.00000040       0.00003726
S      219.84472818       0.92637718       5.93443730      -0.00000033      -0.00000063      -0.00003066
Mo     221.43826340       1.84593744       7.50392368      -0.00001217      -0.00004128       0.00000335
S      221.43830436       3.68559360       9.07589052      -0.00000001      -0.00000036       0.00003622
S      221.43814712       3.68560339       5.93434984      -0.00000036      -0.00000058      -0.00003003
Mo     219.84524349       0.92626668      13.69269019      -0.00000654      -0.00002631       0.00000216
S      219.84537337      -0.91338445      15.26228278       0.00000004      -0.00000039       0.00003741
S      219.84518174      -0.91338801      12.12071281      -0.00000034      -0.00000014      -0.00003259
Mo     218.25188866       3.68586615      13.69279548      -0.00000617      -0.00002520       0.00000232
S      218.25203631       1.84621507      15.26238801       0.00000005      -0.00000038       0.00003880
S      218.25180772       1.84621149      12.12081825      -0.00000031      -0.00000011      -0.00003364
Mo     223.03166414      -0.91368176       7.50385461      -0.00001249      -0.00003794       0.00000312
S      223.03168738       0.92597451       9.07582169       0.00000002      -0.00000032       0.00003517
S      223.03156463       0.92598390       5.93428037      -0.00000038      -0.00000053      -0.00002941
Mo     224.62506394       1.84553971       7.50380287      -0.00001255      -0.00003544       0.00000288
S      224.62507021       3.68519606       9.07577023       0.00000004      -0.00000029       0.00003404
S      224.62498049       3.68520503       5.93422817      -0.00000038      -0.00000049      -0.00002874
Mo     223.03195317       0.92589952      13.69253512      -0.00000688      -0.00002801       0.00000178
S      223.03204923      -0.91375185      15.26212768       0.00000006      -0.00000041       0.00003440
S      223.03192798      -0.91375523      12.12055748      -0.00000035      -0.00000018      -0.00003036
Mo     221.43859829       3.68550650      13.69260361      -0.00000678      -0.00002727       0.00000198
S      221.43871094       1.84585527      15.26219621       0.00000004      -0.00000040       0.00003594
S      221.43855516       1.84585177      12.12062609      -0.00000036      -0.00000016      -0.00003150
Mo     226.21846268      -0.91408422       7.50376765      -0.00001246      -0.00003366       0.00000262
S      226.21845283       0.92557219       9.07573531       0.00000005      -0.00000026       0.00003273
S      226.21839449       0.92558072       5.93419244      -0.00000037      -0.00000046      -0.00002792
Mo     227.81186026       1.84513263       7.50374806      -0.00001232      -0.00003252       0.00000235
S      227.81183518       3.68478908       9.07571607       0.00000004      -0.00000024       0.00003110
S      227.81180644       3.68479716       5.93417228      -0.00000037      -0.00000043      -0.00002680
Mo     226.21866362       0.92551783      13.69244935      -0.00000682      -0.00002893       0.00000137
S      226.21872878      -0.91413392      15.26204172       0.00000010      -0.00000043       0.00003099
S      226.21867196      -0.91413693      12.12047155      -0.00000036      -0.00000022      -0.00002781
Mo     224.62530825       3.68513198      13.69248397      -0.00000688      -0.00002854       0.00000158
S      224.62538845       1.84548044      15.26207645       0.00000008      -0.00000042       0.00003278
S      224.62530024       1.84547723      12.12050624      -0.00000035      -0.00000020      -0.00002916
Mo     229.40525661      -0.91449587       7.50374314      -0.00001222      -0.00003190       0.00000207
S      229.40521724       0.92516059       9.07571155      -0.00000001      -0.00000023       0.00002904
S      229.40521619       0.92516821       5.93416674      -0.00000038      -0.00000042      -0.00002527
Mo     230.99865163       1.84471637       7.50375189      -0.00001218      -0.00003158       0.00000177
S      230.99859896       3.68437282       9.07572075      -0.00000007      -0.00000022       0.00002646
S      230.99862360       3.68437998       5.93417479      -0.00000041      -0.00000042      -0.00002323
Mo     229.40537563       0.92512230      13.69242606      -0.00000673      -0.00002946       0.00000096
S      229.40541342      -0.91452995      15.26201816       0.00000010      -0.00000044       0.00002658
S      229.40541388      -0.91453244      12.12044814      -0.00000044      -0.00000023      -0.00002428
Mo     227.81201939       3.68474329      13.69243036      -0.00000676      -0.00002922       0.00000116
S      227.81207039       1.84509130      15.26202261       0.00000011      -0.00000044       0.00002896
S      227.81204316       1.84508854      12.12045250      -0.00000039      -0.00000023      -0.00002621
Mo     232.59204523      -0.91491685       7.50377324      -0.00001222      -0.00003135       0.00000147
S      232.59198030       0.92473957       9.07574260      -0.00000013      -0.00000022       0.00002334
S      232.59202854       0.92474626       5.93419540      -0.00000044      -0.00000042      -0.00002067
Mo     234.18543735       1.84429055       7.50380612      -0.00001230      -0.00003114       0.00000117
S      234.18536120       3.68394694       9.07577601      -0.00000018      -0.00000022       0.00001974
S      234.18543092       3.68395316       5.93422747      -0.00000047      -0.00000042      -0.00001764
Mo     232.59208982       0.92471355      13.69245740      -0.00000683      -0.00002994       0.00000057
S      232.59210416      -0.91493931      15.26204920       0.00000006      -0.00000044       0.00002065
S      232.59215393      -0.91494117      12.12047934      -0.00000055      -0.00000024      -0.00001919
Mo     230.99873243       3.68434108      13.69243542      -0.00000675      -0.00002969       0.00000076
S      230.99875798       1.84468854      15.26202737       0.00000008      -0.00000044       0.00002381
S      230.99878413       1.84468635      12.12045744      -0.00000050      -0.00000024      -0.00002194
Mo     235.77882792      -0.91534762       7.50384940      -0.00001243      -0.00003097       0.00000086
S      235.77874163       0.92430872       9.07581988      -0.00000021      -0.00000023       0.00001578
S      235.77883066       0.92431447       5.93426992      -0.00000048      -0.00000042      -0.00001425
Mo     237.37221690       1.84385475       7.50390198      -0.00001263      -0.00003092       0.00000056
S      237.37212153       3.68351101       9.07587306      -0.00000022      -0.00000023       0.00001163
S      237.37222771       3.68351631       5.93432164      -0.00000048      -0.00000043      -0.00001066
Mo     235.77880657       0.92429201      13.69253483      -0.00000729      -0.00003048       0.00000024
S      235.77880169      -0.91536149      15.26212634       0.00000002      -0.00000044       0.00001347
S      235.77889226      -0.91536265      12.12055660      -0.00000060      -0.00000024      -0.00001276
Mo     234.18544786       3.68392589      13.69249090      -0.00000700      -0.00003021       0.00000040
S      234.18545205       1.84427272      15.26208256       0.00000003      -0.00000044       0.00001717
S      234.18552330       1.84427120      12.12051276      -0.00000058      -0.00000024      -0.00001609
Mo     238.96560424      -0.91578856       7.50396274      -0.00001290      -0.00003095       0.00000026
S      238.96550087       0.92386762       9.07593444      -0.00000021      -0.00000024       0.00000746
S      238.96562203       0.92387247       5.93438152      -0.00000046      -0.00000044      -0.00000702
Mo     240.55898993       1.84340857       7.50403057      -0.00001324      -0.00003100      -0.00000002
S      240.55887961       3.68306465       9.07600289      -0.00000019      -0.00000025       0.00000341
S      240.55901363       3.68306907       5.93444848      -0.00000043      -0.00000045      -0.00000348
Mo     238.96552610       0.92385800      13.69264949      -0.00000831      -0.00003096      -0.00000004
S      238.96550628      -0.91579617      15.26224071       0.00000001      -0.00000043       0.00000599
S      238.96562904      -0.91579662      12.12067110      -0.00000057      -0.00000023      -0.00000595
Mo     237.37216598       3.68349809      13.69258806      -0.00000773      -0.00003073       0.00000010
S      237.37215309       1.84384425      15.26217943       0.00000001      -0.00000043       0.00000970
S      237.37226084       1.84384345      12.12060975      -0.00000059      -0.00000023      -0.00000933
Mo     242.15237395      -0.91624008       7.50410439      -0.00001362      -0.00003098      -0.00000028
S      242.15225771       0.92341591       9.07607732      -0.00000017      -0.00000025      -0.00000043
S      242.15240250       0.92341990       5.93452143      -0.00000040      -0.00000045      -0.00000012
Mo     243.74575629       1.84295162       7.50418314      -0.00001400      -0.00003091      -0.00000052
S      243.74563513       3.68260750       9.07615669      -0.00000016      -0.00000024      -0.00000405
S      243.74578868       3.68261109       5.93459934      -0.00000037      -0.00000044       0.00000307
Mo     242.15224844       0.92341169      13.69279256      -0.00000979      -0.00003138      -0.00000028
S      242.15221789      -0.91624312      15.26238347       0.00000001      -0.00000043      -0.00000084
S      242.15236438      -0.91624286      12.12081404      -0.00000049      -0.00000023       0.00000028
Mo     240.55888692       3.68305791      13.69271802      -0.00000901      -0.00003117      -0.00000017
S      240.55886122       1.84340341      15.26230908       0.00000001      -0.00000043       0.00000246
S      240.55899689       1.84340333      12.12073956      -0.00000053      -0.00000023      -0.00000273
Mo     245.33913696      -0.91670249       7.50426582      -0.00001432      -0.00003086      -0.00000074
S      245.33901185       0.92295326       9.07623996      -0.00000016      -0.00000023      -0.00000753
S      245.33917222       0.92295646       5.93468118      -0.00000035      -0.00000044       0.00000614
Mo     246.93251596       1.84248369       7.50435144      -0.00001450      -0.00003087      -0.00000095
S      246.93238781       3.68213932       9.07632619      -0.00000019      -0.00000023      -0.00001098
S      246.93255317       3.68214216       5.93476597      -0.00000034      -0.00000043       0.00000922
Mo     245.33897345       0.92295322      13.69295552      -0.00001125      -0.00003172      -0.00000049
S      245.33893619      -0.91670220      15.26254613      -0.00000003      -0.00000045      -0.00000694
S      245.33909837      -0.91670125      12.12097689      -0.00000045      -0.00000025       0.00000586
Mo     243.74561063       3.68260551      13.69287207      -0.00001057      -0.00003157      -0.00000039
S      243.74557624       1.84295039      15.26246282      -0.00000001      -0.00000044      -0.00000395
S      243.74573154       1.84295100      12.12089349      -0.00000046      -0.00000024       0.00000312
Mo     248.52589331      -0.91717598       7.50443909      -0.00001447      -0.00003095      -0.00000115
S      248.52576299       0.92247950       9.07641446      -0.00000025      -0.00000022      -0.00001459
S      248.52593159       0.92248200       5.93485280      -0.00000034      -0.00000042       0.00001249
Mo     250.11926903       1.84200461       7.50452792      -0.00001416      -0.00003105      -0.00000133
S      250.11913734       3.68165994       9.07650392      -0.00000032      -0.00000021      -0.00001855
S      250.11930758       3.68166212       5.93494080      -0.00000034      -0.00000041       0.00001615
Mo     248.52570082       0.92248263      13.69313043      -0.00001195      -0.00003187      -0.00000062
S      248.52566055      -0.91717331      15.26272083      -0.00000009      -0.00000047      -0.00001323
S      248.52583104      -0.91717175      12.12115165      -0.00000047      -0.00000027       0.00001177
Mo     246.93233686       3.68214097      13.69304195      -0.00001174      -0.00003182      -0.00000057
S      246.93229766       1.84248528      15.26263243      -0.00000005      -0.00000046      -0.00000997
S      246.93246487       1.84248654      12.12106326      -0.00000045      -0.00000026       0.00000868
Mo     251.71264315      -0.91766071       7.50461712      -0.00001352      -0.00003106      -0.00000151
S      251.71251085       0.92199447       9.07659378      -0.00000040      -0.00000020      -0.00002306
S      251.71268122       0.92199636       5.93502916      -0.00000034      -0.00000040       0.00002036
Mo     253.30601572       1.84151419       7.50470596      -0.00001260      -0.00003095      -0.00000169
S      253.30588350       3.68116922       9.07668330      -0.00000049      -0.00000020      -0.00002825
S      253.30605263       3.68117084       5.93511714      -0.00000034      -0.00000040       0.00002528
Mo     251.71243017       0.92199999      13.69331015      -0.00001139      -0.00003193      -0.00000066
S      251.71239017      -0.91765640      15.26290052      -0.00000017      -0.00000049      -0.00002127
S      251.71256244      -0.91765431      12.12133106      -0.00000055      -0.00000028       0.00001961
Mo     250.11906527       3.68166435      13.69322010      -0.00001183      -0.00003189      -0.00000066
S      250.11902475       1.84200817      15.26281046      -0.00000013      -0.00000048      -0.00001694
S      250.11919689       1.84201001      12.12124119      -0.00000050      -0.00000028       0.00001535
Mo     254.89938680      -0.91815683       7.50479377      -0.00001146      -0.00003071      -0.00000186
S      254.89925528       0.92149805       9.07677182      -0.00000057      -0.00000020      -0.00003418
S      254.89942194       0.92149943       5.93520409      -0.00000033      -0.00000039       0.00003094
Mo     256.49275646       1.84101239       7.50487995      -0.00001022      -0.00003042      -0.00000203
S      256.49262621       3.68066711       9.07685873      -0.00000064      -0.00000020      -0.00004081
S      256.49278927       3.68066828       5.93528940      -0.00000032      -0.00000040       0.00003733
Mo     254.89916112       0.92150535      13.69348845      -0.00000982      -0.00003204      -0.00000057
S      254.89912420      -0.91815141      15.26307905      -0.00000024      -0.00000049      -0.00003225
S      254.89929268      -0.91814886      12.12150888      -0.00000066      -0.00000028       0.00003061
Mo     253.30579546       3.68117570      13.69339982      -0.00001069      -0.00003198      -0.00000063
S      253.30575668       1.84151912      15.26299028      -0.00000020      -0.00000049      -0.00002636
S      253.30592769       1.84152145      12.12142052      -0.00000061      -0.00000029       0.00002468
Mo     258.08612478      -0.91866429       7.50496397      -0.00000902      -0.00003012      -0.00000220
S      258.08599630       0.92099028       9.07694350      -0.00000070      -0.00000021      -0.00004802
S      258.08615479       0.92099127       5.93537255      -0.00000030      -0.00000041       0.00004431
Mo     259.67949185       1.84049929       7.50504535      -0.00000800      -0.00002987      -0.00000236
S      259.67936556       3.68015372       9.07702563      -0.00000072      -0.00000022      -0.00005560
S      259.67951862       3.68015455       5.93545308      -0.00000027      -0.00000042       0.00005169
Mo     258.08589338       0.92099878      13.69366020      -0.00000814      -0.00003205      -0.00000035
S      258.08586179      -0.91865828      15.26325127      -0.00000028      -0.00000047      -0.00004612
S      258.08602198      -0.91865537      12.12167997      -0.00000073      -0.00000026       0.00004473
Mo     256.49252711       3.68067509      13.69357542      -0.00000893      -0.00003207      -0.00000047
S      256.49249260       1.84101817      15.26316623      -0.00000026      -0.00000048      -0.00003889
S      256.49265744       1.84102091      12.12159554      -0.00000070      -0.00000028       0.00003734
Mo     261.27285775      -0.91918299       7.50512371      -0.00000723      -0.00002968      -0.00000250
S      261.27273401       0.92047130       9.07710471      -0.00000072      -0.00000023      -0.00006330
S      261.27288092       0.92047199       5.93553060      -0.00000024      -0.00000043       0.00005920
Mo     262.86622256       1.83997502       7.50519869      -0.00000674      -0.00002952      -0.00000263
S      262.86610168       3.67962916       9.07718040      -0.00000070      -0.00000025      -0.00007083
S      262.86624183       3.67962974       5.93560480      -0.00000020      -0.00000044       0.00006659
Mo     261.27262665       0.92048034      13.69382136      -0.00000727      -0.00003166      -0.00000003
S      261.27260208      -0.91917692      15.26341306      -0.00000030      -0.00000043      -0.00006145
S      261.27275056      -0.91917375      12.12184036      -0.00000072      -0.00000023       0.00006048
Mo     259.67925991       3.68016257      13.69374231      -0.00000757      -0.00003191      -0.00000020
S      259.67923165       1.84050540      15.26333368      -0.00000030      -0.00000045      -0.00005374
S      259.67938635       1.84050845      12.12176170      -0.00000074      -0.00000025       0.00005254
Mo     264.45958637      -0.91971282       7.50527003      -0.00000652      -0.00002934      -0.00000273
S      264.45946858       0.91994118       9.07725241      -0.00000065      -0.00000025      -0.00007795
S      264.45960149       0.91994167       5.93567540      -0.00000017      -0.00000045       0.00007360
Mo     266.05294925       1.83943965       7.50533752      -0.00000648      -0.00002910      -0.00000281
S      266.05283474       3.67909352       9.07732052      -0.00000059      -0.00000026      -0.00008447
S      266.05296003       3.67909394       5.93574221      -0.00000013      -0.00000046       0.00008004
Mo     264.45936060       0.91995027      13.69396900      -0.00000744      -0.00003079       0.00000032
S      264.45934421      -0.91970712      15.26356138      -0.00000029      -0.00000038      -0.00007607
S      264.45947858      -0.91970377      12.12198724      -0.00000062      -0.00000020       0.00007560
Mo     262.86599356       3.67963828      13.69389701      -0.00000725      -0.00003128       0.00000014
S      262.86597296       1.83998094      15.26348905      -0.00000030      -0.00000040      -0.00006898
S      262.86611463       1.83998421      12.12191562      -0.00000068      -0.00000021       0.00006825
Mo     267.64631126      -0.92025369       7.50540099      -0.00000652      -0.00002876      -0.00000287
S      267.64620017       0.91940004       9.07738455      -0.00000052      -0.00000026      -0.00009026
S      267.64631759       0.91940042       5.93580508      -0.00000009      -0.00000045       0.00008581
Mo     269.23967247       1.83889333       7.50546035      -0.00000655      -0.00002831      -0.00000290
S      269.23956489       3.67854694       9.07744442      -0.00000046      -0.00000025      -0.00009531
S      269.23967427       3.67854729       5.93586390      -0.00000006      -0.00000044       0.00009088
Mo     267.64609488       0.91940893      13.69410121      -0.00000811      -0.00002956       0.00000067
S      267.64608735      -0.92024851      15.26369422      -0.00000026      -0.00000036      -0.00008820
S      267.64620615      -0.92024506      12.12211878      -0.00000046      -0.00000018       0.00008826
Mo     266.05272773       3.67910252      13.69403712      -0.00000777      -0.00003021       0.00000050
S      266.05271570       1.83944510      15.26362982      -0.00000027      -0.00000037      -0.00008251
S      266.05284242       1.83944851      12.12205501      -0.00000054      -0.00000018       0.00008230
Mo     270.83303295      -0.92080539       7.50551553      -0.00000646      -0.00002774      -0.00000291
S      270.83292893       0.91884810       9.07750006      -0.00000041      -0.00000024      -0.00009970
S      270.83303019       0.91884844       5.93591860      -0.00000004      -0.00000043       0.00009531
Mo     272.42639276       1.83833637       7.50556653      -0.00000619      -0.00002707      -0.00000291
S      272.42629232       3.67798974       9.07755147      -0.00000037      -0.00000023      -0.00010357
S      272.42638545       3.67799008       5.93596918      -0.00000002      -0.00000041       0.00009925
Mo     270.83282914       0.91885677      13.69421693      -0.00000841      -0.00002806       0.00000100
S      270.83283077      -0.92080065      15.26381048      -0.00000023      -0.00000035      -0.00009738
S      270.83293332      -0.92079716      12.12223396      -0.00000033      -0.00000017       0.00009794
Mo     269.23946204       3.67855570      13.69416117      -0.00000836      -0.00002883       0.00000084
S      269.23945907       1.83889827      15.26375445      -0.00000024      -0.00000035      -0.00009313
S      269.23956978       1.83890175      12.12217845      -0.00000039      -0.00000017       0.00009344
Mo     274.01975196      -0.92136749       7.50561336      -0.00000570      -0.00002630      -0.00000289
S      274.01965508       0.91828578       9.07759868      -0.00000035      -0.00000022      -0.00010711
S      274.01974016       0.91828614       5.93601563      -0.00000000      -0.00000039       0.00010288
Mo     275.61311062       1.83776927       7.50565608      -0.00000499      -0.00002545      -0.00000288
S      275.61301726       3.67742244       9.07764176      -0.00000035      -0.00000020      -0.00011053
S      275.61309439       3.67742282       5.93605800       0.00000000      -0.00000037       0.00010639
Mo     274.01956310       0.91829431      13.69431585      -0.00000771      -0.00002636       0.00000130
S      274.01957389      -0.92136303      15.26390987      -0.00000021      -0.00000035      -0.00010450
S      274.01966011      -0.92135957      12.12233244      -0.00000026      -0.00000018       0.00010553
Mo     272.42619617       3.67799833      13.69426849      -0.00000820      -0.00002723       0.00000115
S      272.42620240       1.83834095      15.26386227      -0.00000021      -0.00000035      -0.00010111
S      272.42629676       1.83834442      12.12228529      -0.00000028      -0.00000018       0.00010190
Mo     277.20646879      -0.92193942       7.50569477      -0.00000411      -0.00002451      -0.00000286
S      277.20637890       0.91771366       9.07768079      -0.00000036      -0.00000019      -0.00011401
S      277.20644824       0.91771407       5.93609636       0.00000000      -0.00000035       0.00010996
Mo     278.79982654       1.83719268       7.50572953      -0.00000314      -0.00002351      -0.00000285
S      278.79974003       3.67684568       9.07771587      -0.00000038      -0.00000018      -0.00011768
S      278.79980178       3.67684612       5.93613079      -0.00000000      -0.00000033       0.00011371
Mo     277.20629661       0.91772215      13.69439822      -0.00000598      -0.00002449       0.00000159
S      277.20631630      -0.92193509      15.26399271      -0.00000020      -0.00000034      -0.00011111
S      277.20638662      -0.92193168      12.12241437      -0.00000027      -0.00000018       0.00011263
Mo     275.61292991       3.67743094      13.69435907      -0.00000695      -0.00002545       0.00000145
S      275.61294520       1.83777365      15.26395332      -0.00000020      -0.00000035      -0.00010777
S      275.61302340       1.83777709      12.12237545      -0.00000025      -0.00000018       0.00010904
Mo     280.39318392      -0.92252049       7.50576045      -0.00000216      -0.00002242      -0.00000285
S      280.39310072       0.91713244       9.07774712      -0.00000040      -0.00000017      -0.00012162
S      280.39315509       0.91713293       5.93616139      -0.00000001      -0.00000032       0.00011771
Mo     281.98654100       1.83660733       7.50578766      -0.00000126      -0.00002126      -0.00000285
S      281.98646102       3.67626020       9.07777465      -0.00000042      -0.00000017      -0.00012581
S      281.98650821       3.67626073       5.93618829      -0.00000002      -0.00000031       0.00012194
Mo     280.39302962       0.91714094      13.69446465      -0.00000372      -0.00002247       0.00000190
S      280.39305780      -0.92251618      15.26405966      -0.00000020      -0.00000032      -0.00011850
S      280.39311293      -0.92251286      12.12248034      -0.00000032      -0.00000017       0.00012051
Mo     278.79966317       3.67685417      13.69443337      -0.00000487      -0.00002350       0.00000175
S      278.79968717       1.83719698      15.26402812      -0.00000020      -0.00000033      -0.00011467
S      278.79974979       1.83720035      12.12244930      -0.00000029      -0.00000018       0.00011643
Mo     283.57989782      -0.92310990       7.50581126      -0.00000051      -0.00002004      -0.00000287
S      283.57982096       0.91654292       9.07779858      -0.00000043      -0.00000016      -0.00013016
S      283.57986121       0.91654348       5.93621160      -0.00000002      -0.00000030       0.00012632
Mo     285.17325444       1.83601406       7.50583139       0.00000003      -0.00001875      -0.00000290
S      285.17318061       3.67566685       9.07781900      -0.00000041      -0.00000016      -0.00013451
S      285.17321412       3.67566744       5.93623143      -0.00000003      -0.00000029       0.00013068
Mo     283.57976219       0.91655144      13.69451602      -0.00000165      -0.00002027       0.00000221
S      283.57979834      -0.92310557      15.26411160      -0.00000020      -0.00000027      -0.00012690
S      283.57983914      -0.92310233      12.12253120      -0.00000037      -0.00000014       0.00012941
Mo     281.98639596       3.67626871      13.69449216      -0.00000262      -0.00002139       0.00000206
S      281.98642819       1.83661165      15.26408745      -0.00000021      -0.00000030      -0.00012261
S      281.98647604       1.83661493      12.12250760      -0.00000035      -0.00000015       0.00012487
Mo     286.76661088      -0.92370681       7.50584813       0.00000031      -0.00001741      -0.00000293
S      286.76654001       0.91594595       9.07783602      -0.00000038      -0.00000017      -0.00013866
S      286.76656697       0.91594658       5.93624791      -0.00000003      -0.00000029       0.00013483
Mo     288.35996718       1.83541376       7.50586160       0.00000035      -0.00001602      -0.00000296
S      288.35989920       3.67506650       9.07784973      -0.00000032      -0.00000017      -0.00014237
S      288.35991980       3.67506716       5.93626115      -0.00000002      -0.00000028       0.00013853
Mo     286.76649440       0.91595449      13.69455327      -0.00000038      -0.00001789       0.00000249
S      286.76653799      -0.92370243      15.26414941      -0.00000018      -0.00000021      -0.00013535
S      286.76656534      -0.92369926      12.12256795      -0.00000035      -0.00000010       0.00013831
Mo     285.17312833       3.67567538      13.69453635      -0.00000090      -0.00001910       0.00000236
S      285.17316827       1.83601842      15.26413222      -0.00000020      -0.00000024      -0.00013122
S      285.17320224       1.83602162      12.12255128      -0.00000037      -0.00000012       0.00013396
Mo     289.95332338      -0.92431025       7.50587187       0.00000014      -0.00001460      -0.00000298
S      289.95325824       0.91534247       9.07786020      -0.00000024      -0.00000017      -0.00014542
S      289.95327262       0.91534316       5.93627123      -0.00000001      -0.00000027       0.00014157
Mo     291.54667949       1.83480741       7.50587902      -0.00000025      -0.00001315      -0.00000300
S      291.54661715       3.67446013       9.07786749      -0.00000015      -0.00000016      -0.00014760
S      291.54662543       3.67446084       5.93627825       0.00000000      -0.00000026       0.00014374
Mo     289.95322633       0.91535101      13.69457725      -0.00000008      -0.00001530       0.00000271
S      289.95327689      -0.92430582      15.26417384      -0.00000013      -0.00000015      -0.00014210
S      289.95329152      -0.92430272      12.12259152      -0.00000025      -0.00000005       0.00014540
Mo     288.35986039       3.67507504      13.69456687      -0.00000011      -0.00001662       0.00000261
S      288.35990752       1.83541817      15.26416325      -0.00000016      -0.00000018      -0.00013905
S      288.35992843       1.83542130      12.12258133      -0.00000031      -0.00000007       0.00014220
Mo     293.14003554      -0.92491925       7.50588310      -0.00000077      -0.00001170      -0.00000301
S      293.13997598       0.91473347       9.07787165      -0.00000004      -0.00000016      -0.00014877
S      293.13997826       0.91473419       5.93628226       0.00000001      -0.00000025       0.00014491
Mo     294.73339155       1.83419604       7.50588415      -0.00000133      -0.00001025      -0.00000301
S      294.73333476       3.67384877       9.07787271       0.00000007      -0.00000014      -0.00014885
S      294.73333109       3.67384950       5.93628330       0.00000003      -0.00000023       0.00014500
Mo     293.13995807       0.91474199      13.69458863      -0.00000052      -0.00001252       0.00000282
S      293.14001523      -0.92491477      15.26418546      -0.00000006      -0.00000010      -0.00014547
S      293.14001764      -0.92491171      12.12260269      -0.00000008      -0.00000002       0.00014894
Mo     291.54659222       3.67446866      13.69458448      -0.00000024      -0.00001393       0.00000278
S      291.54664612       1.83481187      15.26418122      -0.00000010      -0.00000012      -0.00014429
S      291.54665459       1.83481495      12.12259862      -0.00000017      -0.00000004       0.00014770
Mo     296.32674753      -0.92553273       7.50588218      -0.00000186      -0.00000881      -0.00000299
S      296.32669353       0.91412001       9.07787068       0.00000017      -0.00000013      -0.00014785
S      296.32668392       0.91412074       5.93628139       0.00000004      -0.00000020       0.00014401
Mo     297.92010350       1.83358072       7.50587720      -0.00000228      -0.00000738      -0.00000297
S      297.92005233       3.67323347       9.07786559       0.00000026      -0.00000011      -0.00014584
S      297.92003677       3.67323420       5.93627652       0.00000005      -0.00000017       0.00014203
Mo     296.32668966       0.91412850      13.69458780      -0.00000115      -0.00000958       0.00000280
S      296.32675321      -0.92552821      15.26418461       0.00000001      -0.00000006      -0.00014456
S      296.32674364      -0.92552517      12.12260188       0.00000010      -0.00000000       0.00014801
Mo     294.73332388       3.67385727      13.69458973      -0.00000085      -0.00001106       0.00000282
S      294.73338425       1.83420054      15.26418658      -0.00000002      -0.00000008      -0.00014556
S      294.73338066       1.83420359      12.12260377       0.00000001      -0.00000001       0.00014904
Mo     299.51345948      -0.92614962       7.50586918      -0.00000252      -0.00000597      -0.00000294
S      299.51341119       0.91350315       9.07785740       0.00000034      -0.00000009      -0.00014299
S      299.51338963       0.91350388       5.93626867       0.00000006      -0.00000014       0.00013920
Mo     301.10681549       1.83296252       7.50585810      -0.00000253      -0.00000458      -0.00000290
S      301.10677015       3.67261533       9.07784611       0.00000039      -0.00000007      -0.00013948
S      301.10674251       3.67261604       5.93625780       0.00000006      -0.00000011       0.00013572
Mo     299.51342117       0.91351159      13.69457483      -0.00000136      -0.00000656       0.00000266
S      299.51349104      -0.92614508      15.26417138       0.00000007      -0.00000004      -0.00013972
S      299.51346942      -0.92614202      12.12258914       0.00000023       0.00000000       0.00014295
Mo     297.92005542       3.67324194      13.69458284      -0.00000134      -0.00000808       0.00000274
S      297.92012213       1.83358525      15.26417955       0.00000005      -0.00000005      -0.00014256
S      297.92010656       1.83358830      12.12259701       0.00000017      -0.00000000       0.00014592
Mo     302.70017155      -0.92676886       7.50584391      -0.00000230      -0.00000321      -0.00000286
S      302.70012924       0.91288399       9.07783166       0.00000042      -0.00000005      -0.00013557
S      302.70009542       0.91288468       5.93624384       0.00000005      -0.00000007       0.00013182
Mo     304.29352770       1.83234252       7.50582653      -0.00000180      -0.00000186      -0.00000283
S      304.29348851       3.67199541       9.07781402       0.00000043      -0.00000003      -0.00013146
S      304.29344838       3.67199608       5.93622673       0.00000004      -0.00000004       0.00012772
Mo     302.70015266       0.91289236      13.69454948      -0.00000073      -0.00000357       0.00000243
S      302.70022893      -0.92676430      15.26414562       0.00000011      -0.00000003      -0.00013233
S      302.70019491      -0.92676120      12.12256417       0.00000029      -0.00000000       0.00013521
Mo     301.10678692       3.67262374      13.69456372      -0.00000117      -0.00000506       0.00000255
S      301.10685996       1.83296707      15.26416009       0.00000009      -0.00000003      -0.00013623
S      301.10683220       1.83297015      12.12257822       0.00000027      -0.00000000       0.00013930
Mo     305.88688396      -0.92738937       7.50580590      -0.00000109      -0.00000053      -0.00000281
S      305.88684799       0.91226357       9.07779311       0.00000042      -0.00000001      -0.00012737
S      305.88680141       0.91226422       5.93620637       0.00000003      -0.00000002       0.00012362
Mo     307.48024039       1.83172175       7.50578194      -0.00000021       0.00000080      -0.00000280
S      307.48020773       3.67137475       9.07776886       0.00000040       0.00000000      -0.00012344
S      307.48015456       3.67137538       5.93618269       0.00000002       0.00000001       0.00011966
Mo     305.88688420       0.91227187      13.69451126       0.00000078      -0.00000068       0.00000216
S      305.88696705      -0.92738479      15.26410694       0.00000011      -0.00000001      -0.00012421
S      305.88692010      -0.92738164      12.12252639       0.00000027       0.00000000       0.00012665
Mo     304.29351842       3.67200375      13.69453202      -0.00000007      -0.00000210       0.00000230
S      304.29359795       1.83234709      15.26412793       0.00000011      -0.00000002      -0.00012826
S      304.29355755       1.83235021      12.12254693       0.00000029      -0.00000000       0.00013092
Mo     309.07359702      -0.92801014       7.50575457       0.00000078       0.00000211      -0.00000279
S      309.07356778       0.91164293       9.07774120       0.00000037       0.00000001      -0.00011976
S      309.07350785       0.91164353       5.93615559       0.00000001       0.00000003       0.00011593
Mo     310.66695390       1.83110122       7.50572370       0.00000180       0.00000342      -0.00000280
S      310.66692818       3.67075437       9.07771004       0.00000035       0.00000002      -0.00011631
S      310.66686136       3.67075495       5.93612501       0.00000000       0.00000004       0.00011243
Mo     309.07361588       0.91165115      13.69445954       0.00000281       0.00000205       0.00000188
S      309.07370552      -0.92800553      15.26405477       0.00000011       0.00000003      -0.00011673
S      309.07364503      -0.92800232      12.12247508       0.00000022       0.00000002       0.00011873
Mo     307.48025002       3.67138301      13.69448713       0.00000176       0.00000071       0.00000202
S      307.48033624       1.83172635      15.26408258       0.00000011       0.00000001      -0.00012034
S      307.48028260       1.83172952      12.12250247       0.00000024       0.00000001       0.00012256
Mo     312.26031109      -0.92863019       7.50568926       0.00000277       0.00000473      -0.00000280
S      312.26028897       0.91102304       9.07767530       0.00000034       0.00000002      -0.00011304
S      312.26021513       0.91102361       5.93609087       0.00000001       0.00000005       0.00010909
Mo     313.85366866       1.83048188       7.50565119       0.00000362       0.00000603      -0.00000281
S      313.85365020       3.67013521       9.07763692       0.00000035       0.00000002      -0.00010981
S      313.85356925       3.67013577       5.93605311       0.00000002       0.00000006       0.00010578
Mo     312.26034776       0.91103119      13.69439365       0.00000472       0.00000464       0.00000161
S      312.26044440      -0.92862549      15.26398848       0.00000011       0.00000007      -0.00011021
S      312.26036979      -0.92862225      12.12240955       0.00000018       0.00000005       0.00011178
Mo     310.66698179       3.67076255      13.69442841       0.00000382       0.00000337       0.00000175
S      310.66707491       1.83110587      15.26402343       0.00000011       0.00000005      -0.00011338
S      310.66700742       1.83110910      12.12244413       0.00000019       0.00000003       0.00011516
Mo     315.44702666      -0.92924858       7.50560943       0.00000429       0.00000732      -0.00000282
S      315.44701192       0.91040485       9.07759482       0.00000038       0.00000003      -0.00010642
S      315.44692379       0.91040541       5.93601171       0.00000004       0.00000007       0.00010233
Mo     317.04038516       1.82986467       7.50556397       0.00000476       0.00000861      -0.00000281
S      317.04037416       3.66951822       9.07754899       0.00000042       0.00000003      -0.00010268
S      317.04027884       3.66951878       5.93596664       0.00000007       0.00000008       0.00009854
Mo     315.44707989       0.91041298      13.69431306       0.00000588       0.00000713       0.00000135
S      315.44718360      -0.92924371      15.26390750       0.00000012       0.00000013      -0.00010382
S      315.44709451      -0.92924045      12.12232932       0.00000022       0.00000008       0.00010497
Mo     313.85371379       3.67014335      13.69435522       0.00000542       0.00000590       0.00000148
S      313.85381397       1.83048665      15.26394985       0.00000011       0.00000010      -0.00010709
S      313.85373215       1.83048991      12.12237130       0.00000019       0.00000006       0.00010845
Mo     318.63374422      -0.92986439       7.50551481       0.00000503       0.00000988      -0.00000279
S      318.63373696       0.90978927       9.07749940       0.00000048       0.00000003      -0.00009840
S      318.63363449       0.90978986       5.93591792       0.00000010       0.00000009       0.00009424
Mo     320.22710390       1.82925049       7.50546197       0.00000514       0.00001112      -0.00000274
S      320.22710033       3.66890428       9.07744609       0.00000055       0.00000004      -0.00009344
S      320.22699085       3.66890490       5.93586559       0.00000014       0.00000011       0.00008929
Mo     318.63381221       0.90979746      13.69421752       0.00000603       0.00000949       0.00000107
S      318.63392288      -0.92985920      15.26381152       0.00000015       0.00000018      -0.00009601
S      318.63381932      -0.92985597      12.12223422       0.00000033       0.00000011       0.00009674
Mo     317.04044603       3.66952637      13.69426716       0.00000607       0.00000833       0.00000121
S      317.04055325       1.82986968      15.26386138       0.00000014       0.00000016      -0.00010019
S      317.04045690       1.82987293      12.12228363       0.00000027       0.00000010       0.00010113
Mo     321.82046427      -0.93047671       7.50540554       0.00000514       0.00001232      -0.00000267
S      321.82046432       0.90917720       9.07738913       0.00000061       0.00000005      -0.00008773
S      321.82034800       0.90917787       5.93580972       0.00000018       0.00000012       0.00008364
Mo     323.41382538       1.82864026       7.50534562       0.00000514       0.00001348      -0.00000258
S      323.41382893       3.66829429       9.07732863       0.00000067       0.00000006      -0.00008130
S      323.41370606       3.66829503       5.93575044       0.00000021       0.00000015       0.00007730
Mo     321.82054457       0.90918554      13.69410724       0.00000552       0.00001163       0.00000077
S      321.82066187      -0.93047105      15.26370070       0.00000019       0.00000022      -0.00008549
S      321.82054434      -0.93046791      12.12212451       0.00000050       0.00000013       0.00008578
Mo     320.22717840       3.66891254      13.69416419       0.00000581       0.00001060       0.00000092
S      320.22729244       1.82925590      15.26375793       0.00000017       0.00000020      -0.00009114
S      320.22718180       1.82925910      12.12218115       0.00000041       0.00000012       0.00009164
Mo     325.00718729      -0.93108465       7.50528239       0.00000523       0.00001457      -0.00000246
S      325.00719417       0.90856952       9.07726478       0.00000071       0.00000008      -0.00007425
S      325.00706513       0.90857034       5.93568790       0.00000024       0.00000018       0.00007039
Mo     326.60055006       1.82803482       7.50521606       0.00000548       0.00001559      -0.00000232
S      326.60056005       3.66768912       9.07719779       0.00000072       0.00000010      -0.00006677
S      326.60042531       3.66769005       5.93562230       0.00000026       0.00000021       0.00006309
Mo     325.00727675       0.90857802      13.69398301       0.00000515       0.00001341       0.00000045
S      325.00740002      -0.93107846      15.26357583       0.00000022       0.00000022      -0.00007208
S      325.00726968      -0.93107545      12.12200099       0.00000064       0.00000012       0.00007192
Mo     323.41391070       3.66830272      13.69404679       0.00000525       0.00001257       0.00000061
S      323.41403108       1.82864618      15.26363994       0.00000021       0.00000022      -0.00007910
S      323.41390697       1.82864926      12.12206440       0.00000057       0.00000013       0.00007916
Mo     328.19391375      -0.93168737       7.50514689       0.00000596       0.00001654      -0.00000216
S      328.19392658       0.90796705       9.07712794       0.00000070       0.00000013      -0.00005913
S      328.19378673       0.90796811       5.93555390       0.00000027       0.00000024       0.00005566
Mo     329.78727842       1.82743500       7.50507521       0.00000671       0.00001740      -0.00000199
S      329.78729376       3.66708955       9.07705558       0.00000066       0.00000015      -0.00005159
S      329.78714948       3.66709076       5.93548300       0.00000028       0.00000026       0.00004836
Mo     328.19400847       0.90797554      13.69384636       0.00000571       0.00001493       0.00000015
S      328.19413673      -0.93168076      15.26343850       0.00000023       0.00000021      -0.00005699
S      328.19399548      -0.93167797      12.12186511       0.00000071       0.00000010       0.00005643
Mo     326.60064268       3.66769765      13.69391612       0.00000528       0.00001419       0.00000029
S      326.60076859       1.82804126      15.26350859       0.00000023       0.00000022      -0.00006462
S      326.60063252       1.82804416      12.12193448       0.00000069       0.00000011       0.00006425
Mo     331.38064412      -0.93228410       7.50500139       0.00000770       0.00001820      -0.00000181
S      331.38066159       0.90737057       9.07698108       0.00000060       0.00000016      -0.00004441
S      331.38051370       0.90737195       5.93540998       0.00000029       0.00000029       0.00004145
Mo     332.97401092       1.82684153       7.50492588       0.00000887       0.00001896      -0.00000162
S      332.97403010       3.66649633       9.07690491       0.00000052       0.00000018      -0.00003783
S      332.97387948       3.66649791       5.93533525       0.00000029       0.00000031       0.00003513
Mo     331.38073953       0.90737862      13.69369961       0.00000743       0.00001650      -0.00000009
S      331.38087137      -0.93227744      15.26329116       0.00000021       0.00000020      -0.00004234
S      331.38072195      -0.93227495      12.12171911       0.00000069       0.00000009       0.00004151
Mo     329.78737410       3.66709789      13.69377407       0.00000645       0.00001568       0.00000002
S      329.78750435       1.82744170      15.26336590       0.00000022       0.00000021      -0.00004947
S      329.78735862       1.82744435      12.12179320       0.00000071       0.00000010       0.00004875
Mo     334.56737888      -0.93287416       7.50484916       0.00001011       0.00001966      -0.00000144
S      334.56739927       0.90678077       9.07682756       0.00000043       0.00000018      -0.00003195
S      334.56724694       0.90678256       5.93525930       0.00000029       0.00000032       0.00002954
Mo     336.16074807       1.82625505       7.50477177       0.00001132       0.00002033      -0.00000125
S      336.16076912       3.66591011       9.07674957       0.00000035       0.00000019      -0.00002683
S      336.16061620       3.66591213       5.93518267       0.00000030       0.00000033       0.00002472
Mo     334.56746978       0.90678779      13.69354598       0.00000960       0.00001830      -0.00000021
S      334.56760334      -0.93286798      15.26313712       0.00000017       0.00000022      -0.00003008
S      334.56744936      -0.93286586      12.12156610       0.00000060       0.00000009       0.00002917
Mo     332.97410476       3.66650394      13.69362342       0.00000853       0.00001738      -0.00000016
S      332.97423773       1.82684802      15.26321473       0.00000019       0.00000021      -0.00003583
S      332.97408552       1.82685034      12.12164324       0.00000065       0.00000009       0.00003493
Mo     337.75411852      -0.93345693       7.50469432       0.00001236       0.00002098      -0.00000106
S      337.75413964       0.90619826       9.07667154       0.00000028       0.00000018      -0.00002241
S      337.75398735       0.90620054       5.93510595       0.00000031       0.00000033       0.00002060
Mo     339.34749031       1.82567614       7.50461745       0.00001313       0.00002159      -0.00000087
S      339.34751084       3.66533144       9.07659412       0.00000023       0.00000018      -0.00001852
S      339.34736050       3.66533400       5.93502981       0.00000033       0.00000033       0.00001704
Mo     337.75419909       0.90620364      13.69338964       0.00001108       0.00001997      -0.00000021
S      337.75433204      -0.93345178      15.26298058       0.00000010       0.00000025      -0.00002093
S      337.75417801      -0.93345010      12.12141020       0.00000050       0.00000012       0.00002017
Mo     336.16083456       3.66591638      13.69346785       0.00001050       0.00001919      -0.00000023
S      336.16096813       1.82626078      15.26305887       0.00000014       0.00000023      -0.00002513
S      336.16081351       1.82626269      12.12148821       0.00000055       0.00000010       0.00002427
Mo     340.94086345      -0.93403184       7.50454187       0.00001355       0.00002218      -0.00000068
S      340.94088271       0.90562358       9.07651800       0.00000019       0.00000017      -0.00001499
S      340.94073571       0.90562643       5.93495495       0.00000035       0.00000032       0.00001385
Mo     342.53423798       1.82510534       7.50446831       0.00001362       0.00002274      -0.00000047
S      342.53425522       3.66476089       9.07644391       0.00000018       0.00000017      -0.00001158
S      342.53411307       3.66476405       5.93488211       0.00000037       0.00000032       0.00001082
Mo     340.94092732       0.90562673      13.69323563       0.00001110       0.00002119      -0.00000010
S      340.94105690      -0.93402830      15.26282657       0.00000004       0.00000029      -0.00001417
S      340.94090817      -0.93402713      12.12125650       0.00000044       0.00000015       0.00001375
Mo     339.34756335       3.66533579      13.69331200       0.00001128       0.00002064      -0.00000017
S      339.34769499       1.82568055      15.26290292       0.00000007       0.00000027      -0.00001735
S      339.34754289       1.82568199      12.12133272       0.00000046       0.00000013       0.00001674
Mo     344.12761391      -0.93459838       7.50439757       0.00001336       0.00002325      -0.00000024
S      344.12762835       0.90505727       9.07637264       0.00000019       0.00000017      -0.00000811
S      344.12749260       0.90506076       5.93481210       0.00000039       0.00000032       0.00000775
Mo     345.72099122       1.82454320       7.50433047       0.00001288       0.00002373      -0.00000000
S      345.72100207       3.66419895       9.07630499       0.00000020       0.00000017      -0.00000444
S      345.72087435       3.66420277       5.93474573       0.00000041       0.00000032       0.00000451
Mo     344.12765421       0.90505745      13.69308982       0.00000995       0.00002231       0.00000007
S      344.12777738      -0.93459714      15.26268085      -0.00000001       0.00000033      -0.00000819
S      344.12763995      -0.93459652      12.12111092       0.00000045       0.00000017       0.00000823
Mo     342.53429094       3.66476265      13.69316131       0.00001062       0.00002172      -0.00000002
S      342.53441772       1.82510784      15.26275229       0.00000001       0.00000031      -0.00001119
S      342.53427385       1.82510874      12.12118229       0.00000044       0.00000016       0.00001099
Mo     347.31436991      -0.93515599       7.50426784       0.00001228       0.00002415       0.00000025
S      347.31437635       0.90449984       9.07624183       0.00000022       0.00000017      -0.00000051
S      347.31425832       0.90450401       5.93468385       0.00000042       0.00000033       0.00000103
Mo     348.90774994       1.82399026       7.50421057       0.00001169       0.00002450       0.00000052
S      348.90775113       3.66364617       9.07618401       0.00000023       0.00000018       0.00000366
S      348.90764449       3.66365069       5.93462732       0.00000043       0.00000034      -0.00000266
Mo     347.31437956       0.90449610      13.69295867       0.00000852       0.00002366       0.00000028
S      347.31449301      -0.93515801      15.26254979      -0.00000000       0.00000035      -0.00000159
S      347.31437340      -0.93515797      12.12098002       0.00000053       0.00000019       0.00000215
Mo     345.72101709       3.66419730      13.69302199       0.00000921       0.00002297       0.00000018
S      345.72113582       1.82454294      15.26261307      -0.00000001       0.00000034      -0.00000502
S      345.72100646       1.82454328      12.12104321       0.00000048       0.00000018       0.00000532
Mo     350.50113127      -0.93570413       7.50415952       0.00001121       0.00002480       0.00000079
S      350.50112637       0.90395184       9.07613243       0.00000023       0.00000019       0.00000797
S      350.50103283       0.90395672       5.93457701       0.00000043       0.00000035      -0.00000646
Mo     352.09451386       1.82344706       7.50411558       0.00001091       0.00002505       0.00000108
S      352.09450204       3.66310307       9.07608798       0.00000022       0.00000020       0.00001225
S      352.09442329       3.66310832       5.93453379       0.00000042       0.00000037      -0.00001023
Mo     350.50110328       0.90394301      13.69284904       0.00000746       0.00002486       0.00000051
S      350.50120362      -0.93571064      15.26244020       0.00000002       0.00000036       0.00000602
S      350.50110859      -0.93571117      12.12087070       0.00000060       0.00000019      -0.00000489
Mo     348.90774162       3.66364004      13.69290072       0.00000792       0.00002430       0.00000039
S      348.90784894       1.82398617      15.26249187       0.00000001       0.00000036       0.00000212
S      348.90774077       1.82398592      12.12092222       0.00000057       0.00000019      -0.00000127
Mo     353.68789765      -0.93624226       7.50407962       0.00001081       0.00002530       0.00000136
S      353.68787809       0.90341380       9.07605153       0.00000019       0.00000021       0.00001632
S      353.68781582       0.90341940       5.93449852       0.00000041       0.00000038      -0.00001379
Mo     355.28128259       1.82291415       7.50405250       0.00001088       0.00002556       0.00000164
S      355.28125450       3.66257024       9.07602395       0.00000016       0.00000022       0.00002001
S      355.28121031       3.66257619       5.93447204       0.00000039       0.00000039      -0.00001697
Mo     353.68782548       0.90339833      13.69276792       0.00000690       0.00002590       0.00000075
S      353.68790932      -0.93625487      15.26235907       0.00000002       0.00000035       0.00001389
S      353.68784562      -0.93625594      12.12078995       0.00000059       0.00000019      -0.00001218
Mo     352.09446456       3.66309115      13.69280448       0.00000712       0.00002536       0.00000062
S      352.09455706       1.82343774      15.26239564       0.00000003       0.00000036       0.00001000
S      352.09447686       1.82343693      12.12082632       0.00000061       0.00000019      -0.00000858
Mo     356.87466860      -0.93676978       7.50403503       0.00001104       0.00002586       0.00000190
S      356.87463122       0.90288632       9.07600608       0.00000012       0.00000022       0.00002318
S      356.87460669       0.90289262       5.93445517       0.00000036       0.00000040      -0.00001966
Mo     358.46805563       1.82239219       7.50402801       0.00001120       0.00002617       0.00000214
S      358.46800825       3.66204830       9.07599869       0.00000007       0.00000023       0.00002576
S      358.46800483       3.66205492       5.93444867       0.00000032       0.00000040      -0.00002179
Mo     356.87454639       0.90286211      13.69272217       0.00000661       0.00002723       0.00000101
S      356.87461050      -0.93679070      15.26231330      -0.00000003       0.00000036       0.00002079
S      356.87458457      -0.93679224      12.12074454       0.00000047       0.00000019      -0.00001845
Mo     355.28118608       3.66255070      13.69274021       0.00000673       0.00002654       0.00000088
S      355.28126044       1.82289771      15.26233135       0.00000000       0.00000035       0.00001754
S      355.28121485       1.82289639      12.12076241       0.00000054       0.00000019      -0.00001551
Mo     360.06144359      -0.93728599       7.50403215       0.00001125       0.00002651       0.00000236
S      360.06138554       0.90237011       9.07600253       0.00000003       0.00000022       0.00002777
S      360.06140459       0.90237706       5.93445327       0.00000029       0.00000040      -0.00002340
Mo     361.65483238       1.82188193       7.50404813       0.00001110       0.00002693       0.00000256
S      361.65476308       3.66153802       9.07601824      -0.00000000       0.00000021       0.00002933
S      361.65480582       3.66154527       5.93446965       0.00000026       0.00000040      -0.00002458
Mo     360.06126637       0.90233436      13.69271815       0.00000656       0.00002882       0.00000130
S      360.06130783      -0.93731813      15.26230926      -0.00000007       0.00000039       0.00002591
S      360.06132549      -0.93732004      12.12074080       0.00000032       0.00000022      -0.00002294
Mo     358.46790647       3.66201871      13.69271457       0.00000655       0.00002798       0.00000116
S      358.46795959       1.82236608      15.26230569      -0.00000006       0.00000037       0.00002358
S      358.46795478       1.82236434      12.12073709       0.00000039       0.00000020      -0.00002093
Mo     363.24822191      -0.93779005       7.50407654       0.00001072       0.00002748       0.00000275
S      363.24814084       0.90186601       9.07604643      -0.00000001       0.00000021       0.00003059
S      363.24820834       0.90187354       5.93449840       0.00000024       0.00000039      -0.00002551
Mo     364.84161205       1.82138437       7.50411790       0.00001016       0.00002821       0.00000291
S      364.84151881       3.66104038       9.07608759       0.00000001       0.00000020       0.00003175
S      364.84161197       3.66104817       5.93454005       0.00000023       0.00000039      -0.00002637
Mo     363.24798588       0.90181512      13.69276142       0.00000687       0.00003169       0.00000158
S      363.24800227      -0.93783716      15.26235248      -0.00000004       0.00000044       0.00002952
S      363.24806838      -0.93783929      12.12078435       0.00000025       0.00000026      -0.00002595
Mo     361.65462614       3.66149521      13.69273356       0.00000666       0.00002997       0.00000145
S      361.65465534       1.82184284      15.26232467      -0.00000007       0.00000041       0.00002785
S      361.65469669       1.82184080      12.12075636       0.00000027       0.00000023      -0.00002456
Mo     366.43500270      -0.93828079       7.50417262       0.00000944       0.00002906       0.00000306
S      366.43489695       0.90137516       9.07614215       0.00000006       0.00000019       0.00003300
S      366.43501650       0.90138320       5.93459503       0.00000024       0.00000040      -0.00002734
Mo     368.02839372       1.82090084       7.50424104       0.00000864       0.00003001       0.00000319
S      368.02827524       3.66055672       9.07621041       0.00000012       0.00000018       0.00003445
S      368.02842170       3.66056497       5.93466365       0.00000024       0.00000041      -0.00002857
Mo     366.43470566       0.90130473      13.69285642       0.00000730       0.00003772       0.00000180
S      366.43469510      -0.93834746      15.26244729       0.00000004       0.00000054       0.00003271
S      366.43481328      -0.93834963      12.12087969       0.00000028       0.00000034      -0.00002866
Mo     364.84134569       3.66098030      13.69280223       0.00000712       0.00003422       0.00000170
S      364.84134879       1.82132808      15.26239322      -0.00000000       0.00000049       0.00003109
S      364.84144058       1.82132591      12.12082531       0.00000026       0.00000030      -0.00002726
Mo     369.62178499      -0.93875665       7.50432337       0.00000778       0.00003107       0.00000330
S      369.62165368       0.90089913       9.07629259       0.00000018       0.00000018       0.00003616
S      369.62182734       0.90090757       5.93474615       0.00000023       0.00000042      -0.00003009
Mo     371.21517636       1.82043314       7.50441970       0.00000689       0.00003224       0.00000339
S      371.21503225       3.66008883       9.07638879       0.00000021       0.00000017       0.00003809
S      371.21523318       3.66009742       5.93484260       0.00000020       0.00000045      -0.00003187
Mo     369.62142662       0.90080445      13.69300617       0.00000706       0.00004796       0.00000192
S      369.62138785      -0.93884776      15.26259663       0.00000008       0.00000067       0.00003636
S      369.62156022      -0.93884977      12.12102989       0.00000030       0.00000043      -0.00003202
Mo     368.02806594       3.66047474      13.69292433       0.00000731       0.00004229       0.00000187
S      368.02804138       1.82082255      15.26251502       0.00000007       0.00000060       0.00003445
S      368.02818649       1.82082043      12.12094781       0.00000030       0.00000038      -0.00003023
Mo     372.80856770      -0.93921564       7.50453001       0.00000598       0.00003349       0.00000345
S      372.80841091       0.90043993       9.07649901       0.00000022       0.00000016       0.00004014
S      372.80863896       0.90044864       5.93495299       0.00000015       0.00000048      -0.00003382
Mo     374.40195885       1.81998346       7.50465418       0.00000515       0.00003479       0.00000349
S      374.40178965       3.65963890       9.07662311       0.00000020       0.00000016       0.00004215
S      374.40204442       3.65964771       5.93507717       0.00000008       0.00000051      -0.00003577
Mo     372.80814963       0.90031679      13.69321200       0.00000603       0.00006076       0.00000194
S      372.80808215      -0.93933557      15.26280186       0.00000005       0.00000082       0.00004041
S      372.80830910      -0.93933721      12.12123626       0.00000020       0.00000052      -0.00003598
Mo     371.21478782       3.65998038      13.69310206       0.00000658       0.00005442       0.00000195
S      371.21473470       1.82032811      15.26269224       0.00000007       0.00000075       0.00003838
S      371.21493443       1.82032626      12.12112605       0.00000026       0.00000048      -0.00003398
Mo     375.99534966      -0.93965536       7.50479194       0.00000453       0.00003624       0.00000350
S      375.99516841       0.89999993       9.07676086       0.00000016       0.00000018       0.00004397
S      375.99544930       0.90000879       5.93521487       0.00000001       0.00000054      -0.00003759
Mo     377.58873998       1.81955438       7.50494292       0.00000430       0.00003815       0.00000349
S      377.58854718       3.65920950       9.07691187       0.00000011       0.00000021       0.00004547
S      377.58885334       3.65921840       5.93536572      -0.00000006       0.00000056      -0.00003914
Mo     375.99487541       0.89984477      13.69347336       0.00000575       0.00006678       0.00000187
S      375.99477981      -0.93980800      15.26306245       0.00000005       0.00000090       0.00004393
S      375.99505977      -0.93980901      12.12149823       0.00000010       0.00000053      -0.00003959
Mo     374.40151213       3.65950022      13.69333585       0.00000565       0.00006546       0.00000192
S      374.40143043       1.81984770      15.26292535       0.00000004       0.00000088       0.00004230
S      374.40168420       1.81984634      12.12136041       0.00000014       0.00000054      -0.00003790
Mo     379.18212964      -0.94007303       7.50510663       0.00000465       0.00004093       0.00000344
S      379.18192594       0.89958190       9.07707566       0.00000009       0.00000028       0.00004660
S      379.18225631       0.89959082       5.93552922      -0.00000012       0.00000060      -0.00004038
Mo     380.77551855       1.81914908       7.50528246       0.00000571       0.00004486       0.00000337
S      380.77530472       3.65880379       9.07725159       0.00000009       0.00000038       0.00004740
S      380.77565801       3.65881275       5.93570479      -0.00000016       0.00000064      -0.00004134
Mo     379.18160474       0.89938864      13.69378766       0.00000785       0.00005430       0.00000173
S      379.18148315      -0.94026499      15.26337574       0.00000008       0.00000075       0.00004608
S      379.18181252      -0.94026508      12.12181326       0.00000006       0.00000042      -0.00004197
Mo     377.58823957       3.65903648      13.69362413       0.00000645       0.00006321       0.00000181
S      377.58813060       1.81938335      15.26321276       0.00000007       0.00000086       0.00004519
S      377.58843584       1.81938276      12.12164935       0.00000008       0.00000049      -0.00004095
Mo     382.36890661      -0.94046475       7.50546967       0.00000746       0.00004992       0.00000327
S      382.36868357       0.89918971       9.07743892       0.00000012       0.00000049       0.00004803
S      382.36905828       0.89919875       5.93589172      -0.00000019       0.00000070      -0.00004218
Mo     383.96229378       1.81877253       7.50566743       0.00000991       0.00005561       0.00000316
S      383.96206259       3.65842668       9.07763678       0.00000015       0.00000058       0.00004871
S      383.96245701       3.65843586       5.93608919      -0.00000023       0.00000076      -0.00004310
Mo     382.36833875       0.89894179      13.69415026       0.00001251       0.00002731       0.00000149
S      382.36819503      -0.94071322      15.26373700       0.00000004       0.00000039       0.00004727
S      382.36856817      -0.94071197      12.12217680      -0.00000005       0.00000018      -0.00004362
Mo     380.77497107       3.65858631      13.69396329       0.00000986       0.00004125       0.00000162
S      380.77483784       1.81893204      15.26355074       0.00000007       0.00000059       0.00004669
S      380.77518993       1.81893256      12.12198933       0.00000002       0.00000031      -0.00004278
Mo     385.55568005      -0.94082420       7.50587479       0.00001314       0.00006085       0.00000304
S      385.55544189       0.89882957       9.07784420       0.00000019       0.00000063       0.00004972
S      385.55585409       0.89883897       5.93629628      -0.00000027       0.00000083      -0.00004437
Mo     387.14906544       1.81843240       7.50609069       0.00001742       0.00006407       0.00000290
S      387.14882164       3.65808566       9.07806010       0.00000024       0.00000063       0.00005124
S      387.14924946       3.65809540       5.93651194      -0.00000030       0.00000088      -0.00004620
Mo     385.55507891       0.89849174      13.69455446       0.00002075       0.00001390       0.00000115
S      385.55491815      -0.94116477      15.26413951       0.00000003       0.00000017       0.00004945
S      385.55532734      -0.94116158      12.12258214      -0.00000016      -0.00000004      -0.00004648
Mo     383.96170796       3.65813948      13.69434766       0.00001604       0.00001697       0.00000133
S      383.96155504       1.81848371      15.26393360       0.00000001       0.00000023       0.00004809
S      383.96194730       1.81848585      12.12237475      -0.00000012       0.00000005      -0.00004477
Mo     388.74245003      -0.94114269       7.50631397       0.00002313       0.00006393       0.00000271
S      388.74220201       0.89850992       9.07828331       0.00000033       0.00000058       0.00005337
S      388.74264307       0.89852013       5.93673502      -0.00000027       0.00000089      -0.00004872
Mo     390.33583393       1.81813773       7.50654333       0.00003065       0.00006026       0.00000248
S      390.33558321       3.65778952       9.07851253       0.00000047       0.00000053       0.00005604
S      390.33603493       3.65780035       5.93696426      -0.00000015       0.00000084      -0.00005189
Mo     388.74182707       0.89802889      13.69499139       0.00003526       0.00002607       0.00000070
S      388.74165487      -0.94162911      15.26457435       0.00000039       0.00000039       0.00005412
S      388.74209037      -0.94162322      12.12302050       0.00000005       0.00000002      -0.00005200
Mo     387.14845184       3.65768373      13.69476946       0.00002713       0.00001834       0.00000094
S      387.14828464       1.81802650      15.26435354       0.00000014       0.00000024       0.00005147
S      387.14870832       1.81803094      12.12279780      -0.00000011      -0.00000004      -0.00004890
Mo     391.92921735      -0.94141160       7.50677738       0.00004009       0.00005462       0.00000221
S      391.92896555       0.89823924       9.07874633       0.00000064       0.00000051       0.00005908
S      391.92942514       0.89825087       5.93719828       0.00000011       0.00000078      -0.00005552
Mo     393.52260058       1.81789644       7.50701462       0.00005112       0.00004969       0.00000194
S      393.52234945       3.65754621       9.07898318       0.00000084       0.00000053       0.00006229
S      393.52281393       3.65755887       5.93743563       0.00000049       0.00000072      -0.00005931
Mo     391.92858597       0.89754940      13.69545029       0.00005613       0.00002669       0.00000010
S      391.92840869      -0.94211085      15.26503033       0.00000125       0.00000041       0.00006052
S      391.92885921      -0.94210134      12.12348158       0.00000059       0.00000010      -0.00005954
Mo     390.33520495       3.65721311      13.69521882       0.00004511       0.00003040       0.00000042
S      390.33502934       1.81755413      15.26480045       0.00000076       0.00000048       0.00005722
S      390.33547382       1.81756171      12.12324890       0.00000029       0.00000010      -0.00005562
Mo     395.11598400      -0.94162301       7.50725347       0.00006299       0.00004783       0.00000171
S      395.11573540       0.89802560       9.07922146       0.00000106       0.00000058       0.00006543
S      395.11620167       0.89803958       5.93767474       0.00000096       0.00000072      -0.00006294
Mo     396.70936804       1.81771813       7.50749227       0.00007462       0.00004924       0.00000153
S      396.70912400       3.65736547       9.07945953       0.00000133       0.00000063       0.00006822
S      396.70958882       3.65738109       5.93791397       0.00000141       0.00000076      -0.00006612
Mo     395.11535942       0.89704219      13.69591918       0.00007866       0.00000604      -0.00000060
S      395.11518474      -0.94262135      15.26549541       0.00000231      -0.00000010       0.00006652
S      395.11563827      -0.94260712      12.12395347       0.00000125      -0.00000023      -0.00006689
Mo     393.52197062       3.65672209      13.69568426       0.00006767       0.00001622      -0.00000025
S      393.52179363       1.81706027      15.26526247       0.00000178       0.00000016       0.00006372
S      393.52224717       1.81707199      12.12371698       0.00000091      -0.00000003      -0.00006343
Mo     398.30275311      -0.94176364       7.50772933       0.00008477       0.00005134       0.00000129
S      398.30251583       0.89788220       9.07969572       0.00000168       0.00000068       0.00007023
S      398.30297582       0.89789987       5.93815157       0.00000175       0.00000080      -0.00006863
Mo     399.89613959       1.81762102       7.50796284       0.00009205       0.00005040       0.00000085
S      399.89591137       3.65726502       9.07992832       0.00000206       0.00000071       0.00007100
S      399.89636297       3.65728517       5.93838567       0.00000188       0.00000078      -0.00007032
Mo     398.30215106       0.89648479      13.69638575       0.00009104       0.00000695      -0.00000113
S      398.30198682      -0.94318218      15.26595798       0.00000285       0.00000000       0.00006945
S      398.30243144      -0.94316189      12.12442322       0.00000164      -0.00000019      -0.00007068
Mo     396.70875280       3.65619274      13.69615351       0.00008710       0.00000302      -0.00000090
S      396.70858241       1.81652748      15.26572772       0.00000271      -0.00000016       0.00006855
S      396.70903294       1.81654455      12.12418941       0.00000155      -0.00000032      -0.00006943
Mo     401.48952771      -0.94181060       7.50819089       0.00009463       0.00004516       0.00000013
S      401.48931094       0.89783107       9.08015549       0.00000230       0.00000063       0.00007030
S      401.48975045       0.89785422       5.93861429       0.00000186       0.00000068      -0.00007107
Mo     403.08291753       1.81763122       7.50841151       0.00009106       0.00003890      -0.00000069
S      403.08271461       3.65727001       9.08037528       0.00000212       0.00000044       0.00006846
S      403.08313840       3.65729684       5.93883543       0.00000177       0.00000056      -0.00007087
Mo     401.48896249       0.89585502      13.69683826       0.00007699       0.00000467      -0.00000172
S      401.48881597      -0.94381582      15.26640671       0.00000221       0.00000011       0.00006734
S      401.48924040      -0.94378760      12.12487874       0.00000078       0.00000005      -0.00006966
Mo     399.89555436       3.65560198      13.69661446       0.00008774       0.00000995      -0.00000136
S      399.89539800       1.81593319      15.26618477       0.00000271       0.00000018       0.00006901
S      399.89583390       1.81595715      12.12465346       0.00000143       0.00000002      -0.00007062
Mo     404.67630890      -0.94173545       7.50862280       0.00008078       0.00003646      -0.00000123
S      404.67612220       0.89789982       9.08058578       0.00000152       0.00000028       0.00006645
S      404.67652701       0.89793121       5.93904722       0.00000167       0.00000054      -0.00006991
Mo     406.26970145       1.81778098       7.50882313       0.00006467       0.00003852      -0.00000119
S      406.26953327       3.65741191       9.08078541       0.00000078       0.00000035       0.00006534
S      406.26991648       3.65744896       5.93924804       0.00000142       0.00000056      -0.00006874
Mo     404.67579113       0.89512110      13.69726551       0.00003668      -0.00001413      -0.00000283
S      404.67567112      -0.94455402      15.26683084       0.00000036      -0.00000018       0.00006309
S      404.67606415      -0.94451516      12.12530836      -0.00000087      -0.00000038      -0.00006764
Mo     403.08237502       3.65492545      13.69705576       0.00005920      -0.00000654      -0.00000226
S      403.08224053       1.81525241      15.26662249       0.00000141      -0.00000011       0.00006504
S      403.08265071       1.81528556      12.12509757      -0.00000005      -0.00000018      -0.00006846
Mo     407.86309455      -0.94149870       7.50901132       0.00004525       0.00003984      -0.00000075
S      407.86294716       0.89812683       9.08097304       0.00000030       0.00000053       0.00006568
S      407.86330684       0.89817073       5.93943664       0.00000080       0.00000050      -0.00006832
Mo     409.45648746       1.81811972       7.50918651       0.00002501       0.00003575      -0.00000048
S      409.45636321       3.65773862       9.08114781       0.00000024       0.00000054       0.00006734
S      409.45669773       3.65779058       5.93961206      -0.00000018       0.00000029      -0.00006955
Mo     407.86262960       0.89423449      13.69765602      -0.00000475      -0.00000981      -0.00000340
S      407.86254671       4.57339886      15.26721942      -0.00000139       0.00000016       0.00006405
S      407.86289686       4.57345184      12.12570007      -0.00000171      -0.00000002      -0.00006971
Mo     406.26920967       3.65412167      13.69746606       0.00001404      -0.00001306      -0.00000322
S      406.26910686       1.81444471      15.26703031      -0.00000073       0.00000003       0.00006259
S      406.26947985       1.81449013      12.12550961      -0.00000146      -0.00000025      -0.00006788
Mo     411.04987939      -0.94104106       7.50934778       0.00000747       0.00002918      -0.00000078
S      411.04978101       0.89856992       9.08130877       0.00000020       0.00000031       0.00006978
S      411.05008855       0.89863124       5.93977343      -0.00000112       0.00000019      -0.00007256
Mo     412.64326961       1.81871527       7.50949401      -0.00000338       0.00002701      -0.00000140
S      412.64320059       3.65831704       9.08145463      -0.00000022       0.00000020       0.00007245
S      412.64347886       3.65838931       5.93991971      -0.00000154       0.00000043      -0.00007629
Mo     411.04947011       0.89313728      13.69799900      -0.00000390      -0.00002034      -0.00000420
S      411.04943737       4.57229720      15.26756059      -0.00000079      -0.00000050       0.00007000
S      411.04973395       4.57236924      12.12604430      -0.00000134      -0.00000056      -0.00007744
Mo     409.45604983       3.65313828      13.69783408      -0.00001104      -0.00001313      -0.00000365
S      409.45599026       1.81345755      15.26739663      -0.00000147      -0.00000012       0.00006698
S      409.45631489       1.81351933      12.12587867      -0.00000182      -0.00000013      -0.00007323
Mo     414.23665779      -0.94028485       7.50962376      -0.00000584       0.00003012      -0.00000176
S      414.23662219       0.89930620       9.08158398      -0.00000088       0.00000044       0.00007451
S      414.23686862       0.89939141       5.94004952      -0.00000125       0.00000073      -0.00007887
Mo     415.83004374       1.81966007       7.50973557       0.00000046       0.00003138      -0.00000171
S      415.83004624       3.65923857       9.08169539      -0.00000121       0.00000068       0.00007474
S      415.83025821       3.65933904       5.94016137      -0.00000068       0.00000067      -0.00007894
Mo     414.23631150       0.89174522      13.69828483       0.00004101      -0.00001137      -0.00000505
S      414.23634353       4.57089940      15.26784433       0.00000112      -0.00000002       0.00007098
S      414.23657773       4.57099702      12.12633190       0.00000095      -0.00000031      -0.00008007
Mo     412.64289048       3.65190592      13.69814959       0.00001584      -0.00002116      -0.00000485
S      412.64288834       1.81222006      15.26771019       0.00000015      -0.00000047       0.00007153
S      412.64315457       1.81230401      12.12619567      -0.00000040      -0.00000076      -0.00008025
Mo     417.42342773      -0.93911846       7.50982797       0.00001008       0.00002674      -0.00000176
S      417.42347327       0.90044540       9.08178735      -0.00000070       0.00000041       0.00007226
S      417.42364805       0.90056369       5.94025382      -0.00000009       0.00000020      -0.00007663
Mo     419.01681005       1.82108561       7.50989933       0.00001955       0.00002021      -0.00000233
S      419.01690421       3.66063254       9.08185806       0.00000018      -0.00000021       0.00006745
S      419.01703874       3.66077159       5.94032534       0.00000074      -0.00000004      -0.00007295
Mo     417.42315873       0.88995044      13.69850769       0.00007428       0.00002870      -0.00000422
S      417.42326799       4.56909694      15.26806456       0.00000326       0.00000054       0.00006396
S      417.42343689       4.56922850      12.12655759       0.00000213       0.00000090      -0.00007151
Mo     415.82973415       3.65032741      13.69840418       0.00006073       0.00000426      -0.00000465
S      415.82980317       1.81063501      15.26796246       0.00000229       0.00000030       0.00006827
S      415.83000462       1.81074834      12.12645249       0.00000211       0.00000033      -0.00007658
Mo     420.61019103      -0.93739082       7.50994776       0.00002762       0.00001060      -0.00000292
S      420.61034024       0.90213665       9.08190539       0.00000076      -0.00000085       0.00006248
S      420.61043124       0.90229992       5.94037426       0.00000194      -0.00000000      -0.00006906
Mo     422.20357119       1.82316535       7.50997133       0.00002961      -0.00001957      -0.00000267
S      422.20378188       3.66267001       9.08192761       0.00000085      -0.00000177       0.00005918
S      422.20382651       3.66286160       5.94039858       0.00000288      -0.00000053      -0.00006554
Mo     420.61001507       0.88761721      13.69866901       0.00005637       0.00018864      -0.00000522
S      420.61021264       4.56675496      15.26822346       0.00000242       0.00000338       0.00005506
S      420.61031843       4.56693241      12.12672182       0.00000045       0.00000307      -0.00006414
Mo     419.01658599       3.64828211      13.69859581       0.00007104       0.00008257      -0.00000447
S      419.01673790       1.80858104      15.26815127       0.00000380       0.00000151       0.00005902
S      419.01687488       1.80873385      12.12664732       0.00000174       0.00000167      -0.00006688
Mo     423.79695034      -0.93490263       7.50996863       0.00002733      -0.00009404      -0.00000173
S      423.79722925       0.90457514       9.08192341       0.00000060      -0.00000353       0.00005847
S      423.79722546       0.90479951       5.94039666       0.00000213      -0.00000188      -0.00006341
Mo     425.39032851       1.82612143       7.50993867       0.00001518      -0.00022791      -0.00000109
S      425.39068178       3.66556778       9.08189178      -0.00000002      -0.00000617       0.00006025
S      425.39062793       3.66582958       5.94036738      -0.00000043      -0.00000360      -0.00006411
Mo     423.79687441       0.88460013      13.69877293       0.00000300       0.00060234      -0.00000585
S      423.79717021       4.56373081      15.26832685      -0.00000256       0.00000769       0.00005780
S      423.79721697       4.56396903      12.12682741      -0.00000308       0.00000680      -0.00006868
Mo     422.20344501       3.64562407      13.69872781       0.00003177       0.00036067      -0.00000571
S      422.20369077       1.80591487      15.26828163      -0.00000013       0.00000561       0.00005451
S      422.20376634       1.80612062      12.12678170      -0.00000098       0.00000504      -0.00006470
Mo     426.98370490      -0.93141855       7.50988052      -0.00000241      -0.00042842      -0.00000121
S      426.98413913       0.90799123       9.08183195      -0.00000178      -0.00000902       0.00006389
S      426.98403317       0.90829536       5.94030949      -0.00000311      -0.00000506      -0.00006747
Mo     428.57707843       1.83019340       7.50979298      -0.00002288      -0.00068682      -0.00000144
S      428.57760067       3.66956102       9.08174284      -0.00000341      -0.00001147       0.00006871
S      428.57743990       3.66991298       5.94022164      -0.00000411      -0.00000763      -0.00007197
Mo     426.98372354       0.88077259      13.69882594      -0.00003290       0.00118872      -0.00000675
S      426.98412698       4.55989734      15.26838176      -0.00000248       0.00001449       0.00007092
S      426.98412102       4.56021526      12.12688059      -0.00000359       0.00001003      -0.00008353
Mo     425.39030081       3.64221667      13.69880533      -0.00001399       0.00090061      -0.00000615
S      425.39064956       1.80250149      15.26835992      -0.00000386       0.00001052       0.00006413
S      425.39066913       1.80277691      12.12686005      -0.00000519       0.00000855      -0.00007606
Mo     430.17044787      -0.92669790       7.50967444      -0.00004799      -0.00094555      -0.00000141
S      430.17106596       0.91262168       9.08162318      -0.00000342      -0.00001253       0.00007080
S      430.17084655       0.91302771       5.94010195      -0.00000305      -0.00001180      -0.00007413
Mo     431.76381072       1.83563090       7.50952261      -0.00006531      -0.00107668      -0.00000203
S      431.76453754       3.67489801       9.08146961      -0.00000031      -0.00001080       0.00006654
S      431.76425307       3.67536505       5.93994866      -0.00000094      -0.00001548      -0.00007141
Mo     430.17054989       0.87597136      13.69883715      -0.00005539       0.00112804      -0.00000553
S      430.17108188       4.55507840      15.26839407       0.00000197       0.00001842       0.00007100
S      430.17103650       4.55549838      12.12689524       0.00000486       0.00001323      -0.00008001
Mo     428.57713997       3.63793312      13.69883584      -0.00004042       0.00132101      -0.00000666
S      428.57760363       1.79820900      15.26839287      -0.00000114       0.00001788       0.00007426
S      428.57757502       1.79857500      12.12689101      -0.00000076       0.00001154      -0.00008596
Mo     433.35716625      -0.92044949       7.50933303      -0.00008334      -0.00093356      -0.00000339
S      433.35802147       0.91876247       9.08127616       0.00000419      -0.00000620       0.00005410
S      433.35766020       0.91929862       5.93975836       0.00000160      -0.00001590      -0.00006273
Mo     434.95051269       1.84283978       7.50909788      -0.00008826      -0.00046627      -0.00000462
S      434.95152916       3.68199412       9.08103343       0.00000528      -0.00000109       0.00003810
S      434.95107078       3.68260856       5.93952369       0.00000253      -0.00000936      -0.00004965
Mo     433.35734605       0.86969340      13.69883422      -0.00007202      -0.00030402      -0.00000366
S      433.35806148       4.54875507      15.26838574       0.00000093      -0.00000168       0.00004533
S      433.35802225       4.54930424      12.12690772       0.00000445       0.00000799      -0.00005191
Mo     431.76395274       3.63249503      13.69883424      -0.00007699       0.00053074      -0.00000437
S      431.76456601       1.79273958      15.26838953       0.00000323       0.00001232       0.00005885
S      431.76451493       1.79322026      12.12689804       0.00000655       0.00001307      -0.00006531
Mo     436.54385017      -0.91205198       7.50880467      -0.00008351       0.00018553      -0.00000465
S      436.54507323       0.92704016       9.08072762       0.00000438       0.00000200       0.00002973
S      436.54448572       0.92774320       5.93923214       0.00000144       0.00000188      -0.00004031
Mo     438.13717893       1.85273086       7.50843469      -0.00006022       0.00067834      -0.00000409
S      438.13866495       3.69174955       9.08034191       0.00000080       0.00000470       0.00003244
S      438.13789977       3.69255172       5.93886205      -0.00000079       0.00001386      -0.00004041
Mo     436.54410776       0.86084826      13.69888984      -0.00000708      -0.00089897      -0.00000093
S      436.54506526       4.53987106      15.26844112      -0.00000481      -0.00002423       0.00004400
S      436.54513843       4.54058575      12.12698249      -0.00000174      -0.00001917      -0.00004795
Mo     434.95073307       3.62509203      13.69884775      -0.00007245      -0.00094127      -0.00000289
S      434.95156379       1.78528615      15.26839665      -0.00000012      -0.00001877       0.00003920
S      434.95156221       1.78591311      12.12693190       0.00000468      -0.00000649      -0.00004583
Mo     439.73049679      -0.90032596       7.50796073      -0.00000103       0.00063650      -0.00000454
S      439.73231304       0.93860222       9.07985145      -0.00000214       0.00000750       0.00004355
S      439.73130017       0.93951277       5.93838265      -0.00000301       0.00001688      -0.00004986
Mo     441.32380492       1.86660228       7.50734357       0.00001187       0.00000563      -0.00000462
S      441.32601891       3.70542096       9.07922089      -0.00000195       0.00000321       0.00004790
S      441.32466236       3.70644740       5.93775109       0.00000072       0.00000137      -0.00005644
Mo     439.73082580       0.84844190      13.69915092      -0.00008545       0.00070708       0.00000142
S      439.73197887       4.52746406      15.26872893      -0.00000219       0.00002462       0.00005322
S      439.73237577       4.52838241      12.12725250      -0.00000516       0.00001367      -0.00004608
Mo     438.13747432       3.61454222      13.69898126      -0.00001686      -0.00011789       0.00000108
S      438.13854295       1.77472002      15.26854258      -0.00000148      -0.00000374       0.00005318
S      438.13874200       1.77553210      12.12707882      -0.00000023      -0.00001144      -0.00005106
Mo     442.91709475      -0.88407679       7.50653018       0.00000048      -0.00070946      -0.00000386
S      442.91979215       0.95462398       9.07839428      -0.00000696      -0.00001178       0.00004075
S      442.91796551       0.95577036       5.93691514       0.00000031      -0.00001949      -0.00005132
Mo     444.51036258       1.88541857       7.50545023      -0.00006047      -0.00079630      -0.00000213
S      444.51365049       3.72400945       9.07729263      -0.00000455      -0.00001828       0.00003085
S      444.51119432       3.72527857       5.93581065      -0.00000089      -0.00002290      -0.00003824
Mo     442.91746488       0.83192532      13.69990330      -0.00013786      -0.00008958       0.00000051
S      442.91870452       4.51090156      15.26950586       0.00000037      -0.00001117       0.00004482
S      442.91983473       4.51205443      12.12804861       0.00000403      -0.00000687      -0.00004466
Mo     441.32415355       3.60018355      13.69943917      -0.00012527       0.00072005       0.00000108
S      441.32536914       1.76034671      15.26902977      -0.00000607       0.00002465       0.00005194
S      441.32606443       1.76137888      12.12755765      -0.00000615       0.00002382      -0.00004692
Mo     446.10360211      -0.86242252       7.50401506      -0.00004704      -0.00014709      -0.00000046
S      446.10762055       0.97606964       9.07582695      -0.00000087       0.00000398       0.00002173
S      446.10434266       0.97746241       5.93434822      -0.00000063       0.00000392      -0.00002403
Mo     447.69680222       1.91035027       7.50212088       0.00014224       0.00038366      -0.00000043
S      447.70172205       3.74874799       9.07389836      -0.00000024       0.00002438       0.00001898
S      447.69741289       3.75026035       5.93242012      -0.00000154       0.00002469      -0.00001587
Mo     446.10400587       0.80975798      13.70168046       0.00013304      -0.00019640      -0.00000079
S      446.10518397       4.48870289      15.27133692       0.00000980      -0.00000266       0.00001353
S      446.10772568       4.49009987      12.12987649       0.00000553      -0.00000244      -0.00001542
Mo     444.51073971       3.58109603      13.70061943       0.00015740      -0.00065806       0.00000007
S      444.51199120       1.74120116      15.27023925      -0.00000112      -0.00003171       0.00003363
S      444.51372889       1.74247726      12.12879525      -0.00000318      -0.00002906      -0.00003698
Mo     449.28997426      -0.83368519       7.49965859       0.00011062       0.00006483       0.00000086
S      449.29591750       1.00460563       9.07141584       0.00000790       0.00000265       0.00000442
S      449.29038121       1.00622920       5.92990400       0.00001230       0.00000223      -0.00000150
Mo     450.88308187       1.94331638       7.49653301       0.00008077      -0.00054142       0.00000247
S      450.89016625       3.78150506       9.06828065      -0.00000633      -0.00003054      -0.00000761
S      450.88325766       3.78322637       5.92670945      -0.00000077      -0.00002738       0.00000913
Mo     449.29040016       0.78038615      13.70526126      -0.00006326       0.00026787       0.00000074
S      449.29124527       4.45932246      15.27501733      -0.00000916       0.00001235       0.00001489
S      449.29601057       4.46094730      12.13349949      -0.00000292       0.00001086      -0.00001242
Mo     447.69722732       3.55545551      13.70319161       0.00005825       0.00046652      -0.00000126
S      447.69826933       1.71556549      15.27290092       0.00000036       0.00002771      -0.00000506
S      447.70182355       1.71707971      12.13140065      -0.00000251       0.00002849       0.00000707
Mo     452.47612348      -0.79622122       7.49268038      -0.00010571      -0.00046075       0.00000376
S      452.48439676       1.04190056       9.06441451      -0.00000549      -0.00001273      -0.00000376
S      452.47606107       1.04370381       5.92278919      -0.00000574      -0.00001398       0.00001096
Mo     454.06907777       1.98555913       7.48809089      -0.00010427       0.00018224       0.00000460
S      454.07853877       3.82365209       9.05981721       0.00000100       0.00002870       0.00000212
S      454.06884962       3.82551320       5.91812849       0.00000252       0.00001956       0.00000909
Mo     452.47654377       0.74237159      13.71144522       0.00016515      -0.00038073      -0.00000218
S      452.47695614       4.42127201      15.28132967       0.00000040      -0.00001096       0.00000656
S      452.48451785       4.42307699      12.13971686      -0.00001338      -0.00000757      -0.00001361
Mo     450.88352019       3.52200322      13.70798969      -0.00014239      -0.00034605       0.00000175
S      450.88412387       1.68207719      15.27780486       0.00000739      -0.00002536       0.00001807
S      450.89025607       1.68380182      12.13624977       0.00000718      -0.00002979      -0.00001714
Mo     455.66192331      -0.74883917       7.48283098       0.00013614       0.00018405       0.00000411
S      455.67249774       1.08925887       9.05456138      -0.00000859       0.00000824      -0.00000593
S      455.66169814       1.09114080       5.91279217      -0.00000222       0.00000834       0.00001480
Mo     457.25468983       2.03833692       7.47706181      -0.00014562      -0.00034620       0.00000375
S      457.26610869       3.87646631       9.04881833       0.00000403      -0.00002967      -0.00002273
S      457.25463333       3.87832420       5.90693229       0.00000331      -0.00001948       0.00002740
Mo     455.66233442       0.69419635      13.72049827       0.00013782       0.00006928      -0.00001096
S      455.66257181       4.37307679      15.29055153      -0.00000919       0.00000848      -0.00003712
S      455.67258695       4.37496110      12.14875008      -0.00000887       0.00000300       0.00001717
Mo     454.06950696       3.47900843      13.71563765      -0.00004457       0.00019718      -0.00000731
S      454.06973810       1.63906991      15.28561181       0.00000187       0.00001348      -0.00003091
S      454.07864984       1.64092982      12.14389677      -0.00000679       0.00002253       0.00001820
Mo     458.84730795      -0.69068179       7.47104560       0.00003851      -0.00025720       0.00000520
S      458.85930371       1.14755285       9.04281940      -0.00000724      -0.00000593       0.00000713
S      458.84776311       1.14933264       5.90083880      -0.00002127      -0.00001120      -0.00000323
Mo     460.43984806       2.10171607       7.46513349      -0.00010718       0.00017634       0.00000876
S      460.45198262       3.94014170       9.03690227       0.00001187       0.00001730       0.00009369
S      460.44112147       3.94177228       5.89486852       0.00001109       0.00000984      -0.00007673
Mo     458.84772485       0.63529914      13.73147888      -0.00023276      -0.00015479      -0.00000721
S      458.84863092       4.31412604      15.30168494       0.00002613      -0.00001594       0.00005377
S      458.85939443       4.31590513      12.15970546       0.00002627      -0.00000893      -0.00006732
Mo     457.25508788       3.42554460      13.72586461      -0.00004867      -0.00038906      -0.00001078
S      457.25551164       1.58553644      15.29598224      -0.00000221      -0.00000202       0.00002313
S      457.26620229       1.58739797      12.15411879      -0.00000105      -0.00001288      -0.00004637
Mo     462.03229053      -0.62225645       7.45974016      -0.00022028       0.00009134       0.00000753
S      462.04412100       1.21640899       9.03150990       0.00003580       0.00000528       0.00016127
S      462.03475339       1.21780510       5.88940011       0.00002146       0.00000308      -0.00014644
Mo     463.62463035       2.17481347       7.45529871      -0.00015993      -0.00027699       0.00000518
S      463.63572165       4.01378798       9.02704906      -0.00000766      -0.00002257       0.00020605
S      463.62863028       4.01485541       5.88488018      -0.00000913      -0.00001608      -0.00020327
Mo     462.03264000       0.56596392      13.74199662      -0.00013867       0.00014117      -0.00000897
S      462.03556618       4.24477387      15.31235912      -0.00000639      -0.00001930       0.00014529
S      462.04418294       4.24616688      12.17020252       0.00000599      -0.00001722      -0.00015303
Mo     460.44023328       3.36128490      13.73699362      -0.00016448      -0.00010254      -0.00000688
S      460.44198138       1.52124204      15.30727124      -0.00001194       0.00001743       0.00014552
S      460.45207464       1.52286968      12.16520983       0.00000556       0.00001985      -0.00015341
Mo     465.21690620      -0.54514112       7.45220730      -0.00014563      -0.00017069       0.00000639
S      465.22683195       1.29421725       9.02389927       0.00001992       0.00001316       0.00024645
S      465.22266934       1.29486163       5.88170928       0.00002469       0.00002412      -0.00022189
Mo     466.80912130       2.25515948       7.45076892       0.00018829       0.00034442       0.00001782
S      466.81762964       4.09498598       9.02235692       0.00000936       0.00000681       0.00021037
S      466.81681574       4.09512216       5.88019609       0.00000605      -0.00000973      -0.00019008
Mo     465.21721252       0.48795807      13.74878277      -0.00003190      -0.00015088      -0.00000964
S      465.22342104       4.16679590      15.31929212      -0.00004851       0.00000001       0.00010250
S      465.22689377       4.16743590      12.17707964      -0.00004290      -0.00001428      -0.00012243
Mo     463.62494114       3.28733679      13.74605788       0.00016092      -0.00037158      -0.00001741
S      463.62940550       1.44728415      15.31647953       0.00002724       0.00000971       0.00017138
S      463.63576986       1.44835001      12.17430632       0.00003413       0.00000430      -0.00021271
Mo     468.40134017      -0.46235509       7.45114534       0.00008656      -0.00024335       0.00000244
S      468.40823366       1.37792926       9.02261520      -0.00006818      -0.00002023       0.00012598
S      468.41088230       1.37748406       5.88045860      -0.00001928      -0.00002902      -0.00010061
Mo     469.99351665       2.33939776       7.45331667      -0.00003187      -0.00019928      -0.00001437
S      469.99884033       4.18016226       9.02462386      -0.00000196       0.00008878      -0.00001628
S      470.00473304       4.17910095       5.88251320       0.00003043       0.00007113      -0.00000823
Mo     468.40158091       0.40420460      13.74918908      -0.00012518      -0.00030403       0.00000221
S      468.41147529       4.08320700      15.31988877       0.00011458       0.00003250       0.00002633
S      468.40826087       4.08274294      12.17771043       0.00002806       0.00009365      -0.00006668
Mo     466.80939809       3.20596553      13.74987548      -0.00016564       0.00019832       0.00000524
S      466.81749899       1.36604897      15.32048447       0.00005223      -0.00003342       0.00006676
S      466.81767874       1.36617047      12.17825589       0.00001870      -0.00002983      -0.00005726
Mo     471.58572684      -0.37777591       7.45707252       0.00007241       0.00028468       0.00000011
S      471.58960324       1.46346796       9.02819493      -0.00001621      -0.00010307      -0.00002710
S      471.59820648       1.46180859       5.88616770       0.00011900      -0.00003280       0.00005851
Mo     473.17791258       2.42338599       7.46209189       0.00010818      -0.00004742       0.00000058
S      473.18073305       4.26501024       9.03300145       0.00011567      -0.00006120      -0.00037772
S      473.19125696       4.26278171       5.89099623       0.00004314      -0.00000500       0.00046395
Mo     471.58587777       0.31856043      13.74275865       0.00109611      -0.00019585       0.00000648
S      471.59857327       3.99785604      15.31371607       0.00023478       0.00001160      -0.00032378
S      471.58959027       3.99619631      12.17159878       0.00028977      -0.00019975       0.00047047
Mo     469.99370618       3.12077160      13.74674269      -0.00035471      -0.00025584       0.00000311
S      470.00527929       1.28108369      15.31758635       0.00007171      -0.00003477      -0.00027712
S      469.99890255       1.28000613      12.17540648       0.00003385      -0.00004102       0.00024215
Mo     474.77019038      -0.29532983       7.46780294       0.00022029       0.00086883       0.00002934
S      474.77219130       1.54654984       9.03859776       0.00031231       0.00022614      -0.00058800
S      474.78367724       1.54396858       5.89664406       0.00015999       0.00003885       0.00040484
Mo     476.36238466       2.50348277       7.47379555      -0.00201842       0.00153944       0.00006981
S      476.36428766       4.34561860       9.04430185      -0.00015022      -0.00004191      -0.00057264
S      476.37594081       4.34276666       5.90256817      -0.00017558      -0.00010385       0.00053960
Mo     474.77038937       0.23494019      13.73178639      -0.00032341       0.00227839      -0.00000525
S      474.78358979       3.91450440      15.30298686      -0.00043688       0.00024359       0.00012241
S      474.77207522       3.91183958      12.16109609      -0.00039881       0.00053360      -0.00040138
Mo     473.17798586       3.03575484      13.73759963      -0.00220268      -0.00208875      -0.00000713
S      473.19172197       1.19624019      15.30864804      -0.00027982       0.00006846      -0.00057624
S      473.18098484       1.19400224      12.16669526      -0.00034283       0.00009708       0.00073531
Mo     477.95487403      -0.21804948       7.47957722      -0.00059849      -0.00236305       0.00002574
S      477.95611909       1.62399744       9.04994541      -0.00035917      -0.00048397       0.00028133
S      477.96714096       1.62108638       5.90827198      -0.00048269      -0.00026365       0.00003473
Mo     479.54664388       2.57701402       7.48481355       0.02933898      -0.03261522      -0.00000538
S      479.54982091       4.41951063       9.05463612      -0.00031385       0.00070749       0.00037419
S      479.55961258       4.41654517       5.91395844      -0.00040336       0.00068296      -0.00010334
Mo     477.95615707       0.15771262      13.72016860      -0.00755174       0.15742648      -0.00005232
S      477.96566553       3.84181558      15.29318873       0.00022143      -0.00005142       0.00008156
S      477.95508269       3.83862486      12.14814883       0.00000325      -0.00037869      -0.00010555
Mo     476.36199612       2.95483676      13.72585058       0.03188134       0.03579959       0.00002753
S      476.37666848       1.11520424      15.29664284      -0.00058922      -0.00077014      -0.00014608
S      476.36531082       1.11220955      12.15576309      -0.00033097      -0.00071900       0.00001899
Mo     481.14076987      -0.14869848       7.48931888      -0.00646098      -0.14476136       0.00008228
S      481.14027638       1.68933458       9.06096033      -0.00018538       0.00033298       0.00004935
S      481.14853778       1.68635931       5.91641833       0.00021533       0.00012330       0.00011860
Mo     482.73250309       2.62449601       7.49283733      -0.00071587       0.00057453       0.00008070
S      482.73313883       4.46754439       9.06206054       0.00043394      -0.00017156       0.00003955
S      482.73964193       4.46492619       5.92238965       0.00055935       0.00002581      -0.00026623
Mo     481.14219165       0.12342832      13.71086186       0.00019779       0.00012110      -0.00007420
S      481.14877392       3.80279089      15.28171376       0.00002637       0.00054100       0.00018051
S      481.14086548       3.80009580      12.14125897       0.00037289       0.00050349      -0.00035490
Mo     479.54767975       2.90096893      13.71518382      -0.00076737      -0.00061325      -0.00009518
S      479.55685609       1.06042304      15.28555777       0.00051963       0.00003328       0.00035486
S      479.54748046       1.05751973      12.14581868       0.00033249       0.00014936      -0.00017216
Mo     484.32697796      -0.11933883       7.49551137       0.00022825      -0.00010685       0.00012155
S      484.32682579       1.72251396       9.06497365       0.00029513      -0.00044442       0.00028568
S      484.33159468       1.72015895       5.92465105       0.00000781      -0.00059084      -0.00021434
Mo     485.91958781       2.65366511       7.49732564       0.00004308       0.00090404       0.00000170
S      485.92066621       4.49502105       9.06709498      -0.00034445       0.00009388       0.00035308
S      485.92394566       4.49291377       5.92620849      -0.00028641       0.00013850      -0.00008084
Mo     484.32782827       0.09360708      13.70473194       0.00030509       0.00085603      -0.00004895
S      484.33276973       3.77311573      15.27573815      -0.00009566      -0.00004717       0.00017648
S      484.32788715       3.77078256      12.13502039      -0.00025968       0.00011734      -0.00044628
Mo     482.73466658       2.86698569      13.70739603       0.00010400      -0.00095874       0.00000137
S      482.74097221       1.02780902      15.27856535      -0.00021843      -0.00017803       0.00021085
S      482.73465480       1.02526863      12.13751746      -0.00033139      -0.00020630      -0.00042364
Mo     487.51278248      -0.09384072       7.49854769       0.00032083      -0.00085576       0.00004623
S      487.51382081       1.74744310       9.06818205      -0.00010800      -0.00001961       0.00023641
S      487.51606013       1.74556613       5.92758046      -0.00009756       0.00002296      -0.00003112
Mo     489.10581818       2.67626745       7.49935532      -0.00024498      -0.00026727       0.00000498
S      489.10705342       4.51729191       9.06906488       0.00018167       0.00026587      -0.00040814
S      489.10856250       4.51564111       5.92834578       0.00015488       0.00028941       0.00030015
Mo     487.51387727       0.07013050      13.70131413       0.00016212      -0.00053301      -0.00007389
S      487.51722953       3.74953907      15.27225791       0.00027556      -0.00004110       0.00033329
S      487.51455819       3.74770479      12.13168024       0.00023514      -0.00027056      -0.00030272
Mo     485.92081745       2.84053012      13.70273816      -0.00032305       0.00039863      -0.00004490
S      485.92495740       1.00124074      15.27381312       0.00021409      -0.00027131      -0.00034286
S      485.92130675       0.99913636      12.13300074       0.00032906      -0.00027439       0.00041958
Mo     490.69888613      -0.07372713       7.49988194       0.00010968       0.00038927       0.00001345
S      490.70010354       1.76719223       9.06952047       0.00028990       0.00010096       0.00017197
S      490.70111386       1.76574700       5.92894077       0.00025679       0.00000564      -0.00015435
Mo     492.29193495       2.69418841       7.50022257      -0.00004728      -0.00020956       0.00001312
S      492.29314124       4.53491850       9.06993899       0.00011200      -0.00005838      -0.00054458
S      492.29382187       4.53363712       5.92921555       0.00006463      -0.00004469       0.00056275
Mo     490.69994613       0.05165057      13.69944700       0.00008912       0.00016928      -0.00003051
S      490.70231216       3.73104834      15.27046155       0.00003046       0.00024754      -0.00050353
S      490.70072543       3.72959672      12.12972020       0.00007875       0.00029661       0.00050739
Mo     489.10694316       2.81968227      13.70025814      -0.00012925       0.00015134      -0.00001401
S      489.10974206       0.98027327      15.27129153       0.00002421       0.00005426      -0.00065162
S      489.10772248       0.97863210      12.13054161       0.00001008       0.00011071       0.00044672
Mo     493.88494532      -0.05777187       7.50044757       0.00008310      -0.00007592       0.00000168
S      493.88610123       1.78285113       9.07014487      -0.00004835      -0.00029347      -0.00032816
S      493.88655670       1.78171660       5.92945983      -0.00009632      -0.00025425       0.00036240
Mo     495.47796633       2.70823414       7.50058879      -0.00002580       0.00010352      -0.00002418
S      495.47904450       4.54870698       9.07026215      -0.00011487       0.00019795      -0.00016072
S      495.47933727       4.54771486       5.92963182      -0.00019952       0.00017754       0.00010711
Mo     493.88597428       0.03754475      13.69824033      -0.00009745      -0.00026655       0.00000910
S      493.88772113       3.71693318      15.26921370      -0.00014881      -0.00036689      -0.00014997
S      493.88662763       3.71581600      12.12855406      -0.00007641      -0.00042382       0.00014834
Mo     492.29296131       2.80358633      13.69878777       0.00000798      -0.00022579       0.00002547
S      492.29500029       0.96412869      15.26975544      -0.00015163      -0.00025459      -0.00016019
S      492.29370536       0.96285149      12.12910912      -0.00010085      -0.00023867       0.00020291
Mo     497.07096733      -0.04531222       7.50066514      -0.00006535       0.00026604      -0.00006675
S      497.07197295       1.79504014       9.07032959      -0.00009121       0.00035707      -0.00006157
S      497.07211695       1.79416281       5.92970479      -0.00008117       0.00034863      -0.00000965
Mo     498.66391657       2.71940337       7.50066856       0.00014599      -0.00018649      -0.00002974
S      498.66490689       4.55967364       9.07036049      -0.00016111      -0.00017734      -0.00016108
S      498.66492575       4.55890331       5.92969493      -0.00006927      -0.00015804       0.00006810
Mo     497.07188488       0.02664450      13.69734026       0.00013522       0.00031556       0.00002574
S      497.07319447       3.70598420      15.26832465       0.00021289       0.00040606      -0.00009297
S      497.07235799       3.70510082      12.12764227       0.00023153       0.00047691       0.00013846
Mo     495.47891295       2.79111046      13.69776462       0.00016563       0.00018869       0.00000392
S      495.48048712       0.95163084      15.26875773      -0.00016980       0.00017380      -0.00021804
S      495.47954003       0.95063964      12.12805539      -0.00016042       0.00016459       0.00021455
Mo     500.25689337      -0.03536329       7.50062439       0.00012408      -0.00035521       0.00000999
S      500.25774686       1.80483413       9.07031450       0.00024378      -0.00046580      -0.00009669
S      500.25768974       1.80416251       5.92965145       0.00026802      -0.00044348       0.00009247
Mo     501.84985475       2.72809052       7.50055127       0.00012620       0.00010776       0.00001637
S      501.85065615       4.56818896       9.07021146       0.00021095       0.00005144       0.00008176
S      501.85054282       4.56761273       5.92960471       0.00019464       0.00004237      -0.00003103
Mo     500.25780734       0.01862604      13.69663251      -0.00000458      -0.00056425       0.00002983
S      500.25882574       3.69798601      15.26757426       0.00003406      -0.00062095       0.00011704
S      500.25816954       3.69731997      12.12698445      -0.00000847      -0.00061602      -0.00010674
Mo     498.66483951       2.78178633      13.69696806       0.00011384      -0.00016006       0.00001798
S      498.66598660       0.94228858      15.26792233       0.00021039      -0.00010504       0.00007092
S      498.66524522       0.94152714      12.12729571       0.00021690      -0.00012506      -0.00002284
Mo     503.44284106      -0.02771514       7.50045906      -0.00002533       0.00050915      -0.00000073
S      503.44359337       1.81228647       9.07010024       0.00003434       0.00057662       0.00011936
S      503.44343351       1.81179300       5.92953158       0.00001429       0.00055066      -0.00011587
Mo     505.03580389       2.73508928       7.50034825      -0.00008390       0.00035764      -0.00002450
S      505.03654956       4.57502520       9.07000229      -0.00016994       0.00044595       0.00001542
S      505.03634773       4.57459980       5.92940778      -0.00017381       0.00043968      -0.00006054
Mo     503.44367762       0.01216213      13.69606230      -0.00002894       0.00012111      -0.00004258
S      503.44452859       3.69148207      15.26703551      -0.00018779       0.00011896      -0.00010758
S      503.44397323       3.69098731      12.12637121      -0.00018924       0.00009148       0.00004999
Mo     501.85075726       2.77465176      13.69633827      -0.00009014      -0.00039863      -0.00001551
S      501.85168402       0.93515998      15.26729076      -0.00010413      -0.00046712       0.00001287
S      501.85109353       0.93458753      12.12666807      -0.00017477      -0.00048366      -0.00001827
Mo     506.62874630      -0.02117229       7.50021753      -0.00002553      -0.00019215      -0.00002512
S      506.62946077       1.81873428       9.06989277      -0.00020727      -0.00017393      -0.00008073
S      506.62922908       1.81836979       5.92925909      -0.00018785      -0.00016542       0.00002642
Mo     508.22168373       2.74107551       7.50007540       0.00003097      -0.00063634      -0.00000598
S      508.22231216       4.58095879       9.06975978      -0.00001127      -0.00066934      -0.00006466
S      508.22207330       4.58065165       5.92911017       0.00000914      -0.00066784       0.00004747
Mo     506.62949579       0.00734286      13.69554471       0.00009463       0.00063737       0.00002658
S      506.63011057       3.68662526      15.26652287       0.00007654       0.00065386      -0.00001555
S      506.62963942       3.68624931      12.12585511       0.00011843       0.00067154       0.00006368
Mo     505.03659124       2.76893392      13.69579442       0.00002426       0.00053539      -0.00001066
S      505.03732555       0.92938359      15.26677661      -0.00005763       0.00056808      -0.00009237
S      505.03680312       0.92894956      12.12609973       0.00000435       0.00058121       0.00005924
Mo     509.81461470      -0.01593620       7.49993592       0.00012146      -0.00076650       0.00001419
S      509.81515656       1.82391351       9.06961719       0.00010654      -0.00078469      -0.00001242
S      509.81493148       1.82365737       5.92897509       0.00011230      -0.00079934       0.00003823
Mo     511.40756083       2.74548023       7.49981117       0.00013185      -0.00064629       0.00001745
S      511.40800763       4.58529354       9.06947963       0.00018510      -0.00065874       0.00004651
S      511.40780797       4.58507697       5.92886232       0.00017192      -0.00067315      -0.00001009
Mo     509.81532047       0.00429257      13.69513777       0.00009072       0.00029203       0.00001343
S      509.81572715       3.68357598      15.26609463       0.00014727       0.00031149       0.00006220
S      509.81537177       3.68330896      12.12546786       0.00011837       0.00028940      -0.00003047
Mo     508.22240501       2.76505239      13.69532475       0.00012197       0.00049747       0.00003647
S      508.22290418       0.92549046      15.26629202       0.00015333       0.00050752       0.00004701
S      508.22249489       0.92517046      12.12564750       0.00014403       0.00051111       0.00001627
Mo     513.00051686      -0.01229529       7.49970354       0.00009705      -0.00044206       0.00000874
S      513.00089330       1.82748085       9.06936186       0.00015734      -0.00045054       0.00005806
S      513.00071788       1.82729501       5.92876384       0.00014091      -0.00046039      -0.00003945
Mo     514.59348156       2.74850460       7.49960972       0.00004865      -0.00027031      -0.00000044
S      514.59380482       4.58824796       9.06926248       0.00008241      -0.00027652       0.00003942
S      514.59364856       4.58808710       5.92867485       0.00007616      -0.00028188      -0.00004014
Mo     513.00115537       0.00238791      13.69482565       0.00000056       0.00003888      -0.00000286
S      513.00144422       3.68168112      15.26577866       0.00001061       0.00004860       0.00002876
S      513.00116248       3.68148566      12.12516001       0.00001441       0.00003808      -0.00003402
Mo     511.40823856       2.76265752      13.69497351       0.00004280       0.00013057      -0.00000338
S      511.40857908       0.92310244      15.26592637       0.00007409       0.00015222       0.00004621
S      511.40826346       0.92287665      12.12530734       0.00006192       0.00012698      -0.00004681
Mo     516.18644835      -0.00973919       7.49952630       0.00001010      -0.00016103      -0.00000415
S      516.18672976       1.82997620       9.06917766       0.00002961      -0.00016204       0.00001653
S      516.18659098       1.82983708       5.92859275       0.00003098      -0.00016410      -0.00002482
Mo     517.77941258       2.75070641       7.49945303       0.00000398      -0.00009936      -0.00000475
S      517.77965928       4.59039878       9.06910450       0.00000526      -0.00009143       0.00000023
S      517.77954000       4.59027873       5.92851957       0.00000864      -0.00009120      -0.00000932
Mo     516.18697253       0.00113494      13.69457919      -0.00000018      -0.00002436       0.00000634
S      516.18717787       3.68043369      15.26553479      -0.00000201      -0.00003992       0.00000866
S      516.18696617       3.68028384      12.12491204       0.00000087      -0.00003849       0.00000276
Mo     514.59406695       2.76112027      13.69469374      -0.00001553      -0.00000535       0.00000253
S      514.59431160       0.92157434      15.26564825      -0.00001299      -0.00001070       0.00001698
S      514.59406431       0.92140333      12.12502715      -0.00000692      -0.00001229      -0.00001188
Mo     519.37237470      -0.00781281       7.49939141       0.00001824      -0.00006690      -0.00000518
S      519.37258837       1.83186160       9.06904254       0.00001787      -0.00005409      -0.00000580
S      519.37249185       1.83175809       5.92845852       0.00002009      -0.00005244      -0.00000386
Mo     520.96533649       2.75241130       7.49934283       0.00004405      -0.00005309      -0.00000544
S      520.96551916       4.59207202       9.06899307       0.00004718      -0.00004008      -0.00000927
S      520.96544781       4.59198285       5.92841110       0.00004844      -0.00003901      -0.00000154
Mo     519.37277909       0.00029774      13.69440285       0.00007219      -0.00003162       0.00000800
S      519.37291520       3.67959302      15.26535625       0.00007808      -0.00004346       0.00000190
S      519.37277147       3.67947839      12.12473787       0.00007865      -0.00004358       0.00001370
Mo     517.77987520       2.76009490      13.69448251       0.00003292      -0.00003025       0.00000740
S      517.78004412       0.92054966      15.26543776       0.00003541      -0.00004661       0.00000402
S      517.77986723       0.92041864      12.12481573       0.00003653      -0.00004583       0.00001002
Mo     522.55830144      -0.00629262       7.49930806       0.00007208      -0.00004946      -0.00000522
S      522.55845483       1.83335783       9.06895654       0.00007780      -0.00003965      -0.00001231
S      522.55840985       1.83328103       5.92837826       0.00007883      -0.00003912       0.00000179
Mo     524.15127306       2.75377178       7.49928735       0.00009291      -0.00004616      -0.00000414
S      524.15139893       4.59341436       9.06893296       0.00010057      -0.00004083      -0.00001253
S      524.15138073       4.59334836       5.92836055       0.00010133      -0.00004089       0.00000426
Mo     522.55860964      -0.00024452      13.69429173       0.00012075      -0.00003899       0.00000928
S      522.55868872       3.67904347      15.26523716       0.00012766      -0.00004087       0.00000555
S      522.55860825       3.67895527      12.12463449       0.00012666      -0.00004024       0.00001242
Mo     520.96568925       2.75941711      13.69433936       0.00010431      -0.00003463       0.00000898
S      520.96579558       0.91986585      15.26528928       0.00011112      -0.00004100       0.00000315
S      520.96568375       0.91976530      12.12467780       0.00011138      -0.00004050       0.00001401
Mo     525.74425378      -0.00507261       7.49928073       0.00010279      -0.00004144      -0.00000269
S      525.74435436       1.83456359       9.06892277       0.00010781      -0.00003899      -0.00001051
S      525.74436284       1.83450702       5.92835761       0.00010861      -0.00003951       0.00000542
Mo     527.33724454       2.75486884       7.49928815       0.00010173      -0.00003927      -0.00000131
S      527.33732186       4.59449986       9.06892655       0.00010184      -0.00003916      -0.00000741
S      527.33735676       4.59445150       5.92836879       0.00010287      -0.00003991       0.00000513
Mo     525.74448657      -0.00057886      13.69424356       0.00011358      -0.00003708       0.00000726
S      525.74451826       3.67870149      15.26518007       0.00011439      -0.00003337       0.00000594
S      525.74449914       3.67863375      12.12459467       0.00011233      -0.00003369       0.00000871
Mo     524.15154195       2.75898838      13.69425986       0.00012294      -0.00004010       0.00000858
S      524.15159650       0.91942942      15.26520066       0.00012585      -0.00003894       0.00000642
S      524.15154701       0.91935210      12.12460699       0.00012383      -0.00003870       0.00001056
Mo     528.93024516      -0.00408320       7.49930947       0.00009199      -0.00004129      -0.00000017
S      528.93030034       1.83554357       9.06894467       0.00009010      -0.00004339      -0.00000493
S      528.93036133       1.83550227       5.92839346       0.00009149      -0.00004415       0.00000472
Mo     530.52325425       2.75576220       7.49934450       0.00007935      -0.00004445       0.00000068
S      530.52328840       4.59538518       9.06897708       0.00007725      -0.00004736      -0.00000407
S      530.52337507       4.59534994       5.92843122       0.00007873      -0.00004786       0.00000544
Mo     528.93040804      -0.00076576      13.69425623       0.00008345      -0.00003237       0.00000489
S      528.93039869       3.67850874      15.26518572       0.00008427      -0.00002843       0.00000237
S      528.93043780       3.67845673      12.12461377       0.00008305      -0.00002907       0.00000741
Mo     527.33744241       2.75873355      13.69424250       0.00009882      -0.00003333       0.00000588
S      527.33745285       0.91916757      15.26517526       0.00009910      -0.00002862       0.00000433
S      527.33746331       0.91910824      12.12459703       0.00009750      -0.00002944       0.00000776
Mo     532.11627048      -0.00327733       7.49939299       0.00006708      -0.00004420       0.00000123
S      532.11628443       1.83634207       9.06902334       0.00006721      -0.00004661      -0.00000419
S      532.11639625       1.83631208       5.92848199       0.00006831      -0.00004694       0.00000662
Mo     533.70929247       2.75648863       7.49945455       0.00005760      -0.00004084       0.00000137
S      533.70928762       4.59610464       9.06908300       0.00005931      -0.00004167      -0.00000548
S      533.70942370       4.59607915       5.92854544       0.00005984      -0.00004197       0.00000828
Mo     532.11636315      -0.00084856      13.69432614       0.00005980      -0.00003498       0.00000308
S      532.11631895       3.67842199      15.26525035       0.00006178      -0.00003368      -0.00000264
S      532.11641200       3.67838211      12.12468842       0.00006036      -0.00003421       0.00000873
Mo     530.52338204       2.75860404      13.69428431       0.00006994      -0.00003397       0.00000395
S      530.52335440       0.91903337      15.26521095       0.00007204      -0.00003145       0.00000012
S      530.52342113       0.91898782      12.12464441       0.00007066      -0.00003200       0.00000773
Mo     535.30231929      -0.00262142       7.49952860       0.00005112      -0.00003787       0.00000114
S      535.30229720       1.83699170       9.06915539       0.00005280      -0.00003762      -0.00000741
S      535.30245627       1.83697003       5.92862104       0.00005290      -0.00003794       0.00000985
Mo     536.89535034       2.75708274       7.49961431       0.00004636      -0.00003829       0.00000076
S      536.89531239       4.59669361       9.06923972       0.00004748      -0.00003800      -0.00000955
S      536.89549289       4.59667518       5.92870805       0.00004752      -0.00003834       0.00001127
Mo     535.30234379      -0.00086540      13.69444832       0.00004713      -0.00002846       0.00000234
S      535.30227034       3.67840142      15.26536853       0.00004802      -0.00002744      -0.00000760
S      535.30241198       3.67837079      12.12481412       0.00004730      -0.00002771       0.00001212
Mo     533.70935059       2.75855805      13.69438104       0.00005243      -0.00003308       0.00000251
S      533.70929121       0.91898367      15.26530313       0.00005385      -0.00003215      -0.00000530
S      533.70940921       0.91894873      12.12474519       0.00005275      -0.00003257       0.00001019
Mo     538.48838511      -0.00208239       7.49971081       0.00004273      -0.00004210       0.00000046
S      538.48833253       1.83752680       9.06933505       0.00004290      -0.00004226      -0.00001162
S      538.48853277       1.83751112       5.92880560       0.00004307      -0.00004262       0.00001277
Mo     540.08142324       2.75757064       7.49981717       0.00003965      -0.00004668       0.00000032
S      540.08135695       4.59717849       9.06944037       0.00003958      -0.00004728      -0.00001324
S      540.08157526       4.59716514       5.92891287       0.00003976      -0.00004767       0.00001413
Mo     538.48834605      -0.00083718      13.69461749       0.00004062      -0.00001931       0.00000250
S      538.48824723       3.67842615      15.26553417       0.00004134      -0.00001823      -0.00001100
S      538.48843204       3.67840276      12.12498631       0.00004071      -0.00001845       0.00001578
Mo     536.89534237       2.75856534      13.69452735       0.00004335      -0.00002318       0.00000244
S      536.89525576       0.91898728      15.26544579       0.00004394      -0.00002205      -0.00000946
S      536.89541972       0.91896046      12.12489469       0.00004338      -0.00002220       0.00001412
Mo     541.67446435      -0.00164356       7.49993252       0.00003729      -0.00004931       0.00000026
S      541.67438534       1.83796311       9.06955475       0.00003745      -0.00004989      -0.00001449
S      541.67462000       1.83795169       5.92902905       0.00003738      -0.00005031       0.00001526
Mo     543.26750814       2.75796217       7.50005595       0.00003583      -0.00004865       0.00000012
S      543.26741758       4.59756775       9.06967721       0.00003637      -0.00004892      -0.00001536
S      543.26766674       4.59755787       5.92915329       0.00003590      -0.00004933       0.00001587
Mo     541.67436799      -0.00077544      13.69482770       0.00003800      -0.00001789       0.00000207
S      541.67424849       3.67848500      15.26574084       0.00003842      -0.00001734      -0.00001346
S      541.67446937       3.67846745      12.12519947       0.00003780      -0.00001780       0.00001735
Mo     540.08135462       2.75861182      13.69471793       0.00003891      -0.00001767       0.00000237
S      540.08124478       0.91903058      15.26563286       0.00003959      -0.00001685      -0.00001238
S      540.08144866       0.91901027      12.12508822       0.00003891      -0.00001721       0.00001690
Mo     544.86055444      -0.00129663       7.50018646       0.00003514      -0.00004503      -0.00000016
S      544.86045372       1.83830795       9.06980670       0.00003598      -0.00004499      -0.00001583
S      544.86071533       1.83829927       5.92928463       0.00003519      -0.00004532       0.00001585
Mo     546.45360317       2.75826842       7.50032292       0.00003489      -0.00003969      -0.00000051
S      546.45349388       4.59787215       9.06994211       0.00003567      -0.00003948      -0.00001589
S      546.45376571       4.59786438       5.92942193       0.00003479      -0.00003971       0.00001527
Mo     544.86040907      -0.00069385      13.69507061       0.00003717      -0.00002011       0.00000137
S      544.86027475       3.67856400      15.26598012       0.00003671      -0.00001985      -0.00001430
S      544.86052281       3.67855096      12.12544541       0.00003640      -0.00002022       0.00001666
Mo     543.26738613       2.75868532      13.69494566       0.00003754      -0.00001899       0.00000171
S      543.26725848       0.91910138      15.26585699       0.00003755      -0.00001865      -0.00001411
S      543.26749410       0.91908624      12.12531893       0.00003709      -0.00001910       0.00001722
Mo     548.04665431      -0.00102633       7.50046413       0.00003457      -0.00003396      -0.00000084
S      548.04653806       1.83857672       9.07008225       0.00003508      -0.00003373      -0.00001557
S      548.04681784       1.83856966       5.92956399       0.00003431      -0.00003391       0.00001432
Mo     549.63970784       2.75850769       7.50060890       0.00003385      -0.00002880      -0.00000112
S      549.63958619       4.59811025       9.07022599       0.00003405      -0.00002863      -0.00001508
S      549.63987168       4.59810374       5.92970961       0.00003343      -0.00002879       0.00001325
Mo     548.04646941      -0.00060557      13.69533677       0.00003556      -0.00002072       0.00000087
S      548.04632587       3.67864968      15.26624265       0.00003459      -0.00002039      -0.00001376
S      548.04659209       3.67864004      12.12571459       0.00003440      -0.00002060       0.00001508
Mo     546.45343684       2.75877164      13.69520137       0.00003653      -0.00002074       0.00000109
S      546.45329725       0.91918512      15.26610905       0.00003575      -0.00002045      -0.00001411
S      546.45355549       0.91917390      12.12557769       0.00003553      -0.00002073       0.00001587
Mo     551.23276369      -0.00081353       7.50075610       0.00003271      -0.00002464      -0.00000139
S      551.23263809       1.83878869       9.07037221       0.00003267      -0.00002455      -0.00001464
S      551.23292716       1.83878260       5.92985760       0.00003214      -0.00002468       0.00001222
Mo     552.82582177       2.75869787       7.50090465       0.00003135      -0.00002150      -0.00000168
S      552.82569350       4.59829988       9.07051985       0.00003117      -0.00002145      -0.00001435
S      552.82598414       4.59829412       5.93000688       0.00003073      -0.00002153       0.00001134
Mo     551.23254869      -0.00051903      13.69561706       0.00003319      -0.00001940       0.00000059
S      551.23240073       3.67873371      15.26651951       0.00003217      -0.00001908      -0.00001298
S      551.23267672       3.67872667      12.12599777       0.00003202      -0.00001921       0.00001381
Mo     549.63950673       2.75885978      13.69547568       0.00003437      -0.00002021       0.00000070
S      549.63936043       0.91927069      15.26637983       0.00003334      -0.00001985      -0.00001336
S      549.63963254       0.91926243      12.12585497       0.00003316      -0.00002001       0.00001438
Mo     554.41888196      -0.00064288       7.50105353       0.00003004      -0.00001915      -0.00000194
S      554.41875218       1.83895902       9.07066789       0.00002979      -0.00001910      -0.00001418
S      554.41904252       1.83895351       5.93015643       0.00002947      -0.00001912       0.00001064
Mo     556.01194413       2.75885143       7.50120180       0.00002894      -0.00001734      -0.00000211
S      556.01181388       4.59845329       9.07081539       0.00002869      -0.00001726      -0.00001404
S      556.01210221       4.59844799       5.93030533       0.00002850      -0.00001726       0.00001014
Mo     554.41864608      -0.00043833      13.69590323       0.00003142      -0.00001750       0.00000052
S      554.41849779       3.67881205      15.26680243       0.00003048      -0.00001731      -0.00001216
S      554.41877595       3.67880704      12.12628667       0.00003047      -0.00001737       0.00001289
Mo     552.82559517       2.75894374      13.69575989       0.00003220      -0.00001847       0.00000053
S      552.82544658       0.91935221      15.26666070       0.00003120      -0.00001822      -0.00001259
S      552.82572454       0.91934624      12.12614198       0.00003112      -0.00001831       0.00001333
Mo     557.60500822      -0.00050446       7.50134863       0.00002807      -0.00001590      -0.00000219
S      557.60487840       1.83909740       9.07096149       0.00002787      -0.00001581      -0.00001386
S      557.60516320       1.83909230       5.93045278       0.00002776      -0.00001582       0.00000978
Mo     559.19807419       2.75897629       7.50149330       0.00002730      -0.00001471      -0.00000223
S      559.19794559       4.59857822       9.07110544       0.00002720      -0.00001466      -0.00001366
S      559.19822552       4.59857327       5.93059804       0.00002710      -0.00001469       0.00000949
Mo     557.60476086      -0.00036536      13.69618799       0.00002999      -0.00001553       0.00000053
S      557.60461564       3.67888277      15.26708410       0.00002927      -0.00001528      -0.00001130
S      557.60488942       3.67887937      12.12657408       0.00002934      -0.00001530       0.00001207
Mo     556.01170133       2.75902072      13.69604620       0.00003074      -0.00001651       0.00000053
S      556.01155419       0.91942689      15.26694384       0.00002989      -0.00001633      -0.00001172
S      556.01183092       0.91942273      12.12643098       0.00002993      -0.00001636       0.00001247
Mo     560.79114199      -0.00039186       7.50163514       0.00002645      -0.00001368      -0.00000226
S      560.79101535       1.83921017       9.07124660       0.00002647      -0.00001372      -0.00001349
S      560.79128915       1.83920535       5.93074047       0.00002634      -0.00001376       0.00000925
Mo     562.38421159       2.75907774       7.50177354       0.00002540      -0.00001272      -0.00000232
S      562.38408759       4.59867992       9.07138434       0.00002552      -0.00001286      -0.00001339
S      562.38435410       4.59867519       5.93087944       0.00002536      -0.00001290       0.00000903
Mo     560.79089233      -0.00030085      13.69646512       0.00002782      -0.00001362       0.00000055
S      560.79075303       3.67894519      15.26735833       0.00002735      -0.00001323      -0.00001070
S      560.79101682       3.67894307      12.12685371       0.00002743      -0.00001326       0.00001151
Mo     559.19782456       2.75908951      13.69632786       0.00002904      -0.00001455       0.00000054
S      559.19768198       0.91949349      15.26722249       0.00002844      -0.00001423      -0.00001095
S      559.19795141       0.91949077      12.12671522       0.00002853      -0.00001426       0.00001173
Mo     563.97728292      -0.00030057       7.50190793       0.00002411      -0.00001180      -0.00000239
S      563.97716219       1.83930175       9.07151811       0.00002428      -0.00001201      -0.00001338
S      563.97742032       1.83929709       5.93101436       0.00002415      -0.00001205       0.00000889
Mo     565.57035588       2.75915977       7.50203777       0.00002266      -0.00001090      -0.00000244
S      565.57023902       4.59876224       9.07164737       0.00002283      -0.00001115      -0.00001342
S      565.57048777       4.59875764       5.93114470       0.00002275      -0.00001118       0.00000883
Mo     563.97703940      -0.00024485      13.69672936       0.00002490      -0.00001181       0.00000059
S      563.97690837       3.67899930      15.26761995       0.00002458      -0.00001140      -0.00001056
S      563.97715749       3.67899821      12.12712023       0.00002465      -0.00001145       0.00001145
Mo     562.38396400       2.75914974      13.69659914       0.00002640      -0.00001271       0.00000057
S      562.38382858       0.91955173      15.26749100       0.00002602      -0.00001229      -0.00001057
S      562.38408556       0.91955015      12.12698890       0.00002610      -0.00001233       0.00001142
Mo     567.16343036      -0.00022697       7.50216258       0.00002115      -0.00001005      -0.00000247
S      567.16331788       1.83937564       9.07177165       0.00002129      -0.00001030      -0.00001351
S      567.16355636       1.83937108       5.93126997       0.00002127      -0.00001033       0.00000887
Mo     568.75650624       2.75922572       7.50228192       0.00001967      -0.00000927      -0.00000247
S      568.75639861       4.59882845       9.07189052       0.00001979      -0.00000949      -0.00001362
S      568.75662602       4.59882393       5.93138973       0.00001983      -0.00000952       0.00000898
Mo     567.16320060      -0.00019703      13.69697637       0.00002210      -0.00001003       0.00000064
S      567.16307974       3.67904546      15.26786464       0.00002185      -0.00000971      -0.00001073
S      567.16331031       3.67904517      12.12736927       0.00002192      -0.00000975       0.00001173
Mo     565.57011832       2.75920158      13.69685526       0.00002344      -0.00001091       0.00000061
S      565.56999218       0.91960180      15.26774466       0.00002316      -0.00001055      -0.00001063
S      565.57023246       0.91960114      12.12724717       0.00002322      -0.00001060       0.00001156
Mo     570.34958339      -0.00016798       7.50239542       0.00001830      -0.00000855      -0.00000245
S      570.34948102       1.83943487       9.07200359       0.00001840      -0.00000874      -0.00001373
S      570.34969667       1.83943039       5.93150362       0.00001848      -0.00000876       0.00000913
Mo     571.94266171       2.75927838       7.50250275       0.00001704      -0.00000785      -0.00000240
S      571.94256496       4.59888134       9.07211053       0.00001712      -0.00000804      -0.00001380
S      571.94276824       4.59887690       5.93161130       0.00001724      -0.00000806       0.00000929
Mo     570.34937449      -0.00015668      13.69720260       0.00001982      -0.00000836       0.00000075
S      570.34926528       3.67908433      15.26808880       0.00001962      -0.00000810      -0.00001089
S      570.34947418       3.67908467      12.12759733       0.00001971      -0.00000813       0.00001209
Mo     568.75628604       2.75924556      13.69709228       0.00002091      -0.00000917       0.00000069
S      568.75617084       0.91964422      15.26797948       0.00002069      -0.00000889      -0.00001082
S      568.75639093       0.91964426      12.12748611       0.00002077      -0.00000893       0.00001192
Mo     573.53574111      -0.00012106       7.50260363       0.00001584      -0.00000717      -0.00000234
S      573.53565030       1.83948200       9.07221104       0.00001592      -0.00000735      -0.00001383
S      573.53584066       1.83947758       5.93171250       0.00001606      -0.00000738       0.00000945
Mo     575.12882148       2.75932009       7.50269778       0.00001465      -0.00000647      -0.00000227
S      575.12873691       4.59892325       9.07230487       0.00001473      -0.00000666      -0.00001383
S      575.12891387       4.59891885       5.93180695       0.00001489      -0.00000669       0.00000960
Mo     573.53555984      -0.00012288      13.69740526       0.00001764      -0.00000691       0.00000085
S      573.53546340       3.67911681      15.26828959       0.00001749      -0.00000663      -0.00001094
S      573.53564818       3.67911763      12.12780165       0.00001757      -0.00000666       0.00001234
Mo     571.94246580       2.75928252      13.69730703       0.00001876      -0.00000760       0.00000081
S      571.94236285       0.91967978      15.26819226       0.00001858      -0.00000734      -0.00001092
S      571.94255997       0.91968037      12.12770261       0.00001867      -0.00000737       0.00001223
Mo     576.72190275      -0.00008405       7.50278499       0.00001341      -0.00000575      -0.00000218
S      576.72182469       1.83951920       9.07239178       0.00001349      -0.00000596      -0.00001379
S      576.72198779       1.83951480       5.93189443       0.00001367      -0.00000600       0.00000974
Mo     578.31498480       2.75935290       7.50286504       0.00001210      -0.00000503      -0.00000208
S      578.31491351       4.59895623       9.07247157       0.00001218      -0.00000526      -0.00001373
S      578.31506236       4.59895184       5.93197471       0.00001237      -0.00000530       0.00000988
Mo     576.72175545      -0.00009471      13.69758214       0.00001505      -0.00000567       0.00000091
S      576.72167268       3.67914383      15.26846483       0.00001494      -0.00000533      -0.00001096
S      576.72183136       3.67914503      12.12798000       0.00001498      -0.00000537       0.00001248
Mo     575.12865644       2.75931339      13.69749704       0.00001642      -0.00000627       0.00000089
S      575.12856673       0.91970941      15.26838052       0.00001629      -0.00000596      -0.00001095
S      575.12873869       0.91971043      12.12789419       0.00001634      -0.00000599       0.00001242
Mo     579.90806754      -0.00005494       7.50293774       0.00001071      -0.00000433      -0.00000197
S      579.90800325       1.83954845       9.07254404       0.00001078      -0.00000456      -0.00001367
S      579.90813746       1.83954405       5.93204760       0.00001097      -0.00000461       0.00001002
Mo     581.50115083       2.75937878       7.50300289       0.00000924      -0.00000366      -0.00000188
S      581.50109379       4.59898222       9.07260902       0.00000932      -0.00000391      -0.00001363
S      581.50121298       4.59897781       5.93211291       0.00000949      -0.00000395       0.00001015
Mo     579.90795997      -0.00007125      13.69773144       0.00001198      -0.00000456       0.00000094
S      579.90789164       3.67916629      15.26861272       0.00001190      -0.00000419      -0.00001102
S      579.90802251       3.67916780      12.12813054       0.00001191      -0.00000423       0.00001260
Mo     578.31485668       2.75933909      13.69766034       0.00001356      -0.00000511       0.00000093
S      578.31478104       0.91973403      15.26854229       0.00001347      -0.00000474      -0.00001098
S      578.31492603       0.91973540      12.12805885       0.00001349      -0.00000478       0.00001254
Mo     583.09423456      -0.00003186       7.50306032       0.00000774      -0.00000304      -0.00000181
S      583.09418500       1.83957162       9.07266630       0.00000782      -0.00000330      -0.00001360
S      583.09428877       1.83956717       5.93217043       0.00000795      -0.00000334       0.00001028
Mo     584.68731858       2.75939947       7.50310981       0.00000621      -0.00000247      -0.00000175
S      584.68727674       4.59900297       9.07271570       0.00000630      -0.00000274      -0.00001359
S      584.68736469       4.59899848       5.93221998       0.00000640      -0.00000278       0.00001038
Mo     583.09417188      -0.00005161      13.69785149       0.00000866      -0.00000356       0.00000095
S      583.09411873       3.67918511      15.26873164       0.00000860      -0.00000318      -0.00001113
S      583.09422015       3.67918689      12.12825157       0.00000860      -0.00000322       0.00001273
Mo     581.50106510       2.75936053      13.69779522       0.00001033      -0.00000405       0.00000095
S      581.50100427       0.91975457      15.26867590       0.00001026      -0.00000367      -0.00001107
S      581.50112062       0.91975621      12.12819484       0.00001027      -0.00000371       0.00001266
Mo     586.28040275      -0.00001320       7.50315115       0.00000467      -0.00000196      -0.00000172
S      586.28036890       1.83959031       9.07275698       0.00000477      -0.00000222      -0.00001361
S      586.28044057       1.83958575       5.93226133       0.00000484      -0.00000226       0.00001047
Mo     587.87348695       2.75941642       7.50318410       0.00000315      -0.00000149      -0.00000170
S      587.87346135       4.59901993       9.07278992       0.00000326      -0.00000176      -0.00001363
S      587.87351625       4.59901529       5.93229424       0.00000328      -0.00000180       0.00001053
Mo     586.28038957      -0.00003490      13.69794063       0.00000536      -0.00000265       0.00000095
S      586.28035238       3.67920117      15.26881991       0.00000531      -0.00000230      -0.00001125
S      586.28042261       3.67920319      12.12834143       0.00000529      -0.00000233       0.00001286
Mo     584.68728010       2.75937859      13.69790003       0.00000700      -0.00000309       0.00000095
S      584.68723483       0.91977190      15.26877972       0.00000695      -0.00000273      -0.00001119
S      584.68732088       0.91977380      12.12830051       0.00000693      -0.00000276       0.00001280
Mo     589.46657102       0.00000234       7.50320840       0.00000164      -0.00000106      -0.00000171
S      589.46655399       1.83960583       9.07281424       0.00000176      -0.00000133      -0.00001367
S      589.46659156       1.83960108       5.93231844       0.00000173      -0.00000137       0.00001055
Mo     591.05965485       2.75943080       7.50322374       0.00000014      -0.00000066      -0.00000174
S      591.05964669       4.59903426       9.07282966       0.00000027      -0.00000093      -0.00001372
S      591.05966634       4.59902939       5.93233366       0.00000019      -0.00000097       0.00001054
Mo     589.46661144      -0.00002027      13.69799699       0.00000218      -0.00000183       0.00000091
S      589.46659114       3.67921531      15.26887566       0.00000214      -0.00000150      -0.00001137
S      589.46662817       3.67921758      12.12839826       0.00000207      -0.00000152       0.00001289
Mo     587.87350008       2.75939416      13.69797303       0.00000376      -0.00000223       0.00000094
S      587.87347121       0.91978689      15.26885198       0.00000371      -0.00000189      -0.00001132
S      587.87352511       0.91978904      12.12837411       0.00000367      -0.00000192       0.00001289
