2232
Lattice="592.6528293239999 0.0 0.0 1.3322676295501878e-15 5.5188430733258835 0.0 0.0 0.0 20.0" Properties=species:S:1:pos:R:3:forces:R:3 energy=-1905596.7629648026 stress="6.094360620429807e-05 -1.0215503586989469e-08 -8.757325013738466e-08 -1.0215503586989469e-08 4.765772153168014e-05 -4.241863645421769e-05 -8.757325013738466e-08 -4.241863645421769e-05 1.648982192391166e-08" free_energy=-1905596.7629648026 pbc="T T T"
Mo      -0.00004471       0.00000979       7.50322719      -0.00000121       0.00000042      -0.00000016
S       -0.00005356       1.83961997       9.07282052      -0.00000118       0.00000019      -0.00001744
S       -0.00003491       1.83961766       5.93235125      -0.00000131       0.00000014       0.00001755
Mo       1.59308032       2.75943178       7.50323501      -0.00000250       0.00000044      -0.00000025
S        1.59307676       4.59904193       9.07282849      -0.00000246       0.00000022      -0.00001755
S        1.59308496       4.59903944       5.93235881      -0.00000270       0.00000017       0.00001747
Mo       0.00002229       0.00000392      13.69795791      -0.00000089      -0.00000012       0.00000210
S        0.00001241       3.67923198      15.26882387      -0.00000084       0.00000017      -0.00001562
S        0.00003133       3.67923361      12.12837199      -0.00000095       0.00000015       0.00001937
Mo     591.05970014       2.75942510      13.69794507       0.00000051      -0.00000017       0.00000213
S      591.05968559       0.91981023      15.26881120       0.00000052       0.00000013      -0.00001558
S      591.05971384       0.91981173      12.12835907       0.00000048       0.00000011       0.00001940
Mo       3.18620465       0.00001079       7.50323739      -0.00000375       0.00000046      -0.00000040
S        3.18620689       1.83962090       9.07283106      -0.00000371       0.00000025      -0.00001773
S        3.18620361       1.83961817       5.93236087      -0.00000405       0.00000020       0.00001735
Mo       4.77932813       2.75943295       7.50323374      -0.00000495       0.00000047      -0.00000061
S        4.77933680       4.59904303       9.07282764      -0.00000490       0.00000027      -0.00001797
S        4.77932076       4.59904000       5.93235684      -0.00000534       0.00000022       0.00001718
Mo       3.18632607       0.00000480      13.69796866      -0.00000353       0.00000001       0.00000191
S        3.18632681       3.67923257      15.26883439      -0.00000341       0.00000027      -0.00001584
S        3.18632449       3.67923461      12.12838275      -0.00000367       0.00000025       0.00001921
Mo       1.59317409       2.75942586      13.69796592      -0.00000224      -0.00000007       0.00000202
S        1.59316926       0.91981071      15.26883176      -0.00000216       0.00000021      -0.00001571
S        1.59317807       0.91981252      12.12838004      -0.00000235       0.00000020       0.00001930
Mo       6.37245061       0.00001212       7.50322334      -0.00000607       0.00000047      -0.00000086
S        6.37246644       1.83962216       9.07281748      -0.00000602       0.00000029      -0.00001826
S        6.37243616       1.83961879       5.93234599      -0.00000653       0.00000025       0.00001697
Mo       7.96557196       2.75943443       7.50320534      -0.00000712       0.00000048      -0.00000115
S        7.96559580       4.59904443       9.07279977      -0.00000706       0.00000031      -0.00001858
S        7.96554957       4.59904068       5.93232750      -0.00000764       0.00000027       0.00001672
Mo       6.37263012       0.00000599      13.69795577      -0.00000587       0.00000021       0.00000158
S        6.37264400       3.67923349      15.26882138      -0.00000567       0.00000043      -0.00001624
S        6.37261541       3.67923610      12.12836968      -0.00000608       0.00000042       0.00001894
Mo       4.77947812       2.75942688      13.69796551      -0.00000474       0.00000010       0.00000177
S        4.77948506       0.91981144      15.26883116      -0.00000459       0.00000034      -0.00001602
S        4.77947034       0.91981375      12.12837953      -0.00000492       0.00000032       0.00001910
Mo       9.55869209       0.00001371       7.50317882      -0.00000810       0.00000049      -0.00000146
S        9.55872483       1.83962367       9.07277356      -0.00000804       0.00000033      -0.00001892
S        9.55866081       1.83961951       5.93230045      -0.00000867       0.00000030       0.00001644
Mo      11.15181089       2.75943611       7.50314278      -0.00000904       0.00000051      -0.00000180
S       11.15185353       4.59904603       9.07273785      -0.00000898       0.00000036      -0.00001927
S       11.15176972       4.59904143       5.93226385      -0.00000965       0.00000033       0.00001612
Mo       9.55893353       0.00000768      13.69791312      -0.00000793       0.00000048       0.00000108
S        9.55896390       3.67923492      15.26877872      -0.00000767       0.00000067      -0.00001678
S        9.55890234       3.67923823      12.12832665      -0.00000822       0.00000066       0.00001847
Mo       7.96578197       2.75942830      13.69793861      -0.00000692       0.00000034       0.00000135
S        7.96580363       0.91981259      15.26880420      -0.00000669       0.00000054      -0.00001649
S        7.96575948       0.91981553      12.12835236      -0.00000718       0.00000053       0.00001873
Mo      12.74492830       0.00001546       7.50309615      -0.00000998       0.00000056      -0.00000215
S       12.74498186       1.83962533       9.07269156      -0.00000993       0.00000040      -0.00001962
S       12.74487619       1.83962027       5.93221663      -0.00001063       0.00000037       0.00001576
Mo      14.33804425       2.75943789       7.50303784      -0.00001096       0.00000064      -0.00000252
S       14.33810977       4.59904771       9.07263361      -0.00001092       0.00000046      -0.00001996
S       14.33798012       4.59904218       5.93215771      -0.00001165       0.00000042       0.00001536
Mo      12.74523531       0.00001013      13.69783304      -0.00000995       0.00000074       0.00000045
S       12.74528613       3.67923716      15.26869879      -0.00000966       0.00000095      -0.00001738
S       12.74518374       3.67924125      12.12824602      -0.00001030       0.00000093       0.00001781
Mo      11.15208469       2.75943033      13.69787828      -0.00000893       0.00000061       0.00000077
S       11.15212476       0.91981438      15.26874394      -0.00000864       0.00000082      -0.00001707
S       11.15204382       0.91981808      12.12829156      -0.00000924       0.00000080       0.00001816
Mo      15.93115869       0.00001725       7.50296672      -0.00001201       0.00000075      -0.00000290
S       15.93123723       1.83962702       9.07256287      -0.00001198       0.00000055      -0.00002029
S       15.93108147       1.83962101       5.93208597      -0.00001272       0.00000051       0.00001493
Mo      17.52427158       2.75943968       7.50288170      -0.00001312       0.00000088      -0.00000329
S       17.52436415       4.59904937       9.07247824      -0.00001313       0.00000067      -0.00002063
S       17.52418022       4.59904290       5.93200031      -0.00001385       0.00000064       0.00001450
Mo      15.93153435       0.00001361      13.69770694      -0.00001217       0.00000094      -0.00000025
S       15.93160983       3.67924055      15.26857305      -0.00001191       0.00000119      -0.00001799
S       15.93145821       3.67924540      12.12811916      -0.00001259       0.00000116       0.00001703
Mo      14.33838526       2.75943326      13.69777629      -0.00001103       0.00000084       0.00000010
S       14.33844788       0.91981715      15.26864219      -0.00001075       0.00000108      -0.00001768
S       14.33832192       0.91982163      12.12818892      -0.00001141       0.00000105       0.00001743
Mo      19.11738286       0.00001903       7.50278170      -0.00001426       0.00000104      -0.00000366
S       19.11749044       1.83962864       9.07237865      -0.00001432       0.00000082      -0.00002097
S       19.11727637       1.83962172       5.93189968      -0.00001499       0.00000080       0.00001410
Mo      20.71049252       2.75944145       7.50266573      -0.00001537       0.00000120      -0.00000400
S       20.71061598       4.59905095       9.07226312      -0.00001548       0.00000099      -0.00002129
S       20.71036998       4.59904362       5.93178308      -0.00001609       0.00000097       0.00001375
Mo      19.11782919       0.00001838      13.69752608      -0.00001449       0.00000117      -0.00000098
S       19.11793346       3.67924543      15.26839282      -0.00001430       0.00000140      -0.00001866
S       19.11772443       3.67925096      12.12793730      -0.00001501       0.00000137       0.00001625
Mo      17.52468240       2.75943735      13.69762389      -0.00001334       0.00000104      -0.00000061
S       17.52477178       0.91982124      15.26849028      -0.00001311       0.00000129      -0.00001831
S       17.52459243       0.91982645      12.12803564      -0.00001381       0.00000126       0.00001664
Mo      22.30360052       0.00002080       7.50253292      -0.00001639       0.00000135      -0.00000430
S       22.30374065       1.83963016       9.07213075      -0.00001654       0.00000118      -0.00002160
S       22.30346115       1.83962246       5.93164964      -0.00001709       0.00000116       0.00001346
Mo      23.89670689       2.75944320       7.50238248      -0.00001727       0.00000151      -0.00000458
S       23.89686431       4.59905241       9.07198078      -0.00001745       0.00000138      -0.00002188
S       23.89655001       4.59904439       5.93149860      -0.00001797       0.00000136       0.00001317
Mo      22.30411816       0.00002478      13.69728226      -0.00001648       0.00000154      -0.00000171
S       22.30425481       3.67925219      15.26814998      -0.00001643       0.00000170      -0.00001938
S       22.30398115       3.67925823      12.12769222      -0.00001705       0.00000165       0.00001552
Mo      20.71097452       2.75944288      13.69741251      -0.00001555       0.00000133      -0.00000136
S       20.71109458       0.91982700      15.26827970      -0.00001542       0.00000154      -0.00001904
S       20.71085404       0.91983282      12.12782313      -0.00001611       0.00000150       0.00001587
Mo      25.48981166       0.00002250       7.50221381      -0.00001806       0.00000169      -0.00000485
S       25.48998688       1.83963156       9.07181256      -0.00001829       0.00000157      -0.00002210
S       25.48963674       1.83962325       5.93132936      -0.00001874       0.00000157       0.00001287
Mo      27.08291487       2.75944483       7.50202644      -0.00001882       0.00000188      -0.00000505
S       27.08310823       4.59905372       9.07162564      -0.00001914       0.00000175      -0.00002220
S       27.08272156       4.59904520       5.93114146      -0.00001944       0.00000177       0.00001257
Mo      25.49039947       0.00003342      13.69696876      -0.00001803       0.00000201      -0.00000223
S       25.49057111       3.67926148      15.26783782      -0.00001820       0.00000213      -0.00001976
S       25.49022757       3.67926772      12.12737727      -0.00001858       0.00000209       0.00001487
Mo      23.89725988       2.75945031      13.69713455      -0.00001728       0.00000176      -0.00000200
S       23.89741378       0.91983493      15.26800290      -0.00001735       0.00000190      -0.00001963
S       23.89710567       0.91984112      12.12754381      -0.00001783       0.00000185       0.00001519
Mo      28.67601661       0.00002404       7.50182008      -0.00001963       0.00000208      -0.00000515
S       28.67622823       1.83963275       9.07141972      -0.00002009       0.00000193      -0.00002214
S       28.67580476       1.83962409       5.93093462      -0.00002021       0.00000194       0.00001230
Mo      30.26911693       2.75944624       7.50159469      -0.00002056       0.00000225      -0.00000516
S       30.26934673       4.59905475       9.07119479      -0.00002114       0.00000209      -0.00002194
S       30.26888662       4.59904602       5.93070880      -0.00002113       0.00000206       0.00001206
Mo      28.67667140       0.00004512      13.69658143      -0.00001976       0.00000274      -0.00000263
S       28.67687920       3.67927413      15.26745219      -0.00002013       0.00000289      -0.00001977
S       28.67646329       3.67928023      12.12698826      -0.00002049       0.00000286       0.00001406
Mo      27.08353673       2.75946036      13.69678447      -0.00001883       0.00000232      -0.00000242
S       27.08372639       0.91984578      15.26765433      -0.00001909       0.00000243      -0.00001979
S       27.08334679       0.91985200      12.12719217      -0.00001945       0.00000242       0.00001449
Mo      31.86221590       0.00002524       7.50135047      -0.00002161       0.00000235      -0.00000513
S       31.86246357       1.83963354       9.07095102      -0.00002229       0.00000219      -0.00002166
S       31.86196742       1.83962482       5.93046419      -0.00002222       0.00000213       0.00001182
Mo      33.45531355       2.75944712       7.50108782      -0.00002269       0.00000231      -0.00000511
S       33.45557856       4.59905520       9.07068885      -0.00002349       0.00000219      -0.00002137
S       33.45504739       4.59904653       5.93020120      -0.00002337       0.00000211       0.00001157
Mo      31.86293198       0.00006119      13.69611908      -0.00002196       0.00000431      -0.00000298
S       31.86317555       3.67929148      15.26699199      -0.00002274       0.00000450      -0.00001960
S       31.86268777       3.67929706      12.12652397      -0.00002288       0.00000438       0.00001325
Mo      30.26980325       2.75947403      13.69635959      -0.00002083       0.00000337      -0.00000284
S       30.27002909       0.91986056      15.26723136      -0.00002137       0.00000356      -0.00001972
S       30.26957698       0.91986646      12.12676549      -0.00002167       0.00000348       0.00001361
Mo      35.04840995       0.00002560       7.50080738      -0.00002372       0.00000209      -0.00000505
S       35.04869153       1.83963347       9.07040888      -0.00002465       0.00000201      -0.00002102
S       35.04812680       1.83962491       5.92992044      -0.00002444       0.00000194       0.00001133
Mo      36.64150513       2.75944662       7.50050999      -0.00002463       0.00000161      -0.00000493
S       36.64180228       4.59905431       9.07011198      -0.00002574       0.00000159      -0.00002054
S       36.64120591       4.59904590       5.92962277      -0.00002541       0.00000150       0.00001109
Mo      35.04917898       0.00008413      13.69558382      -0.00002390       0.00000755      -0.00000292
S       35.04945597       3.67931603      15.26645939      -0.00002523       0.00000761      -0.00001901
S       35.04890036       3.67932057      12.12598649      -0.00002506       0.00000751       0.00001278
Mo      33.45605732       2.75949311      13.69586028      -0.00002301       0.00000567      -0.00000299
S       33.45631802       0.91988109      15.26673446      -0.00002407       0.00000580      -0.00001937
S       33.45579559       0.91988622      12.12626409      -0.00002402       0.00000568       0.00001300
Mo      38.23459916       0.00002373       7.50019674      -0.00002552       0.00000085      -0.00000471
S       38.23491063       1.83963127       9.06979922      -0.00002677       0.00000084      -0.00001986
S       38.23428500       1.83962305       5.92930930      -0.00002635       0.00000068       0.00001082
Mo      39.82769211       2.75944263       7.49986898      -0.00002657      -0.00000012      -0.00000443
S       39.82801639       4.59905008       9.06947196      -0.00002790      -0.00000025      -0.00001897
S       39.82736434       4.59904208       5.92898137      -0.00002746      -0.00000048       0.00001045
Mo      38.23541030       0.00011859      13.69498170      -0.00002551       0.00001290      -0.00000275
S       38.23571626       3.67935233      15.26586036      -0.00002734       0.00001326      -0.00001782
S       38.23510052       3.67935530      12.12538190      -0.00002696       0.00001307       0.00001198
Mo      36.64229672       2.75952105      13.69529060      -0.00002466       0.00001000      -0.00000283
S       36.64258887       0.91991077      15.26616766      -0.00002624       0.00001011      -0.00001851
S       36.64200203       0.91991459      12.12569206      -0.00002598       0.00000998       0.00001246
Mo      41.42078403       0.00001661       7.49952830      -0.00002805      -0.00000110      -0.00000412
S       41.42111937       1.83962405       9.06913177      -0.00002938      -0.00000149      -0.00001793
S       41.42044419       1.83961623       5.92864054      -0.00002894      -0.00000178       0.00001001
Mo      43.01387492       2.75943117       7.49917647      -0.00003024      -0.00000167      -0.00000379
S       43.01421939       4.59903864       9.06878047      -0.00003138      -0.00000239      -0.00001687
S       43.01352470       4.59903095       5.92828856      -0.00003094      -0.00000274       0.00000957
Mo      41.42162405       0.00017217      13.69432226      -0.00002876       0.00001843      -0.00000243
S       41.42195260       3.67940809      15.26520443      -0.00003072       0.00001973      -0.00001592
S       41.42128774       3.67940883      12.12471977      -0.00002999       0.00001942       0.00001075
Mo      39.82851950       2.75956395      13.69465842      -0.00002677       0.00001592      -0.00000263
S       39.82883766       0.91995564      15.26553877      -0.00002876       0.00001671      -0.00001694
S       39.82819578       0.91995759      12.12505730      -0.00002820       0.00001644       0.00001136
Mo      44.60696470      -0.00000048       7.49881546      -0.00003327      -0.00000129      -0.00000349
S       44.60731623       1.83960703       9.06842004      -0.00003402      -0.00000232      -0.00001595
S       44.60660598       1.83959938       5.92792739      -0.00003361      -0.00000268       0.00000923
Mo      46.20005318       2.75940731       7.49844740      -0.00003725       0.00000045      -0.00000327
S       46.20040960       4.59901484       9.06805264      -0.00003750      -0.00000076      -0.00001532
S       46.19968803       4.59900712       5.92755910      -0.00003710      -0.00000105       0.00000904
Mo      44.60781782       0.00025362      13.69361849      -0.00003541       0.00001915      -0.00000177
S       44.60816094       3.67949254      15.26450472      -0.00003663       0.00002105      -0.00001398
S       44.60746139       3.67949023      12.12401298      -0.00003559       0.00002066       0.00001019
Mo      43.01472363       2.75963048      13.69397497      -0.00003164       0.00001969      -0.00000216
S       43.01506054       0.92002470      15.26485909      -0.00003331       0.00002141      -0.00001490
S       43.01437633       0.92002403      12.12437102      -0.00003244       0.00002106       0.00001030
Mo      47.79314005      -0.00003180       7.49807454      -0.00004226       0.00000347      -0.00000308
S       47.79349915       1.83957571       9.06768055      -0.00004218       0.00000227      -0.00001492
S       47.79277077       1.83956783       5.92718590      -0.00004167       0.00000206       0.00000902
Mo      49.38622488       2.75936840       7.49769927      -0.00004845       0.00000691      -0.00000282
S       49.38658433       4.59897586       9.06730623      -0.00004847       0.00000582      -0.00001458
S       49.38585397       4.59896775       5.92681015      -0.00004783       0.00000559       0.00000916
Mo      47.79398800       0.00036805      13.69288691      -0.00004548       0.00001404      -0.00000050
S       47.79433662       3.67961100      15.26377794      -0.00004633       0.00001550      -0.00001227
S       47.79362017       3.67960471      12.12327787      -0.00004494       0.00001521       0.00001106
Mo      46.20090613       2.75972816      13.69325501      -0.00004001       0.00001692      -0.00000121
S       46.20125319       0.92012593      15.26414352      -0.00004086       0.00001866      -0.00001313
S       46.20054277       0.92012174      12.12364781      -0.00003960       0.00001830       0.00001049
Mo      50.97930709      -0.00007821       7.49732419      -0.00005597       0.00000949      -0.00000253
S       50.97966437       1.83952929       9.06693235      -0.00005648       0.00000839      -0.00001431
S       50.97893722       1.83952083       5.92643438      -0.00005602       0.00000795       0.00000935
Mo      52.57238597       2.75931421       7.49695211      -0.00006480       0.00001031      -0.00000245
S       52.57273825       4.59892185       9.06656177      -0.00006567       0.00000891      -0.00001448
S       52.57201973       4.59891284       5.92606128      -0.00006580       0.00000829       0.00000962
Mo      50.98012983       0.00051656      13.69214729      -0.00005986       0.00001263       0.00000090
S       50.98047379       3.67976394      15.26304418      -0.00006216       0.00001464      -0.00001093
S       50.97976061       3.67975284      12.12253377      -0.00006056       0.00001420       0.00001259
Mo      49.38706280       2.75985942      13.69251680      -0.00005205       0.00001220       0.00000022
S       49.38741046       0.92026150      15.26341059      -0.00005342       0.00001367      -0.00001150
S       49.38669307       0.92025290      12.12290567      -0.00005202       0.00001338       0.00001173
Mo      54.16546059      -0.00014153       7.49658585      -0.00007395       0.00000977      -0.00000276
S       54.16580491       1.83946636       9.06619736      -0.00007519       0.00000792      -0.00001548
S       54.16510043       1.83945650       5.92569361      -0.00007596       0.00000736       0.00001008
Mo      55.75852996       2.75923914       7.49622816      -0.00008182       0.00000946      -0.00000331
S       55.75886329       4.59884730       9.06584188      -0.00008292       0.00000766      -0.00001747
S       55.75817808       4.59883624       5.92533412      -0.00008377       0.00000741       0.00001125
Mo      54.16623698       0.00070608      13.69142074      -0.00007633       0.00001685       0.00000319
S       54.16656438       3.67995853      15.26232494      -0.00007996       0.00001968      -0.00001057
S       54.16587558       3.67994162      12.12180143      -0.00007705       0.00001915       0.00001672
Mo      52.57318820       2.76002685      13.69178103      -0.00006840       0.00001487       0.00000180
S       52.57352551       0.92043352      15.26268139      -0.00007179       0.00001765      -0.00001058
S       52.57282179       0.92041968      12.12216478      -0.00006956       0.00001705       0.00001409
Mo      57.35159316      -0.00023164       7.49588169      -0.00008549       0.00001065      -0.00000374
S       57.35191254       1.83937672       9.06549788      -0.00008673       0.00001006      -0.00002016
S       57.35125175       1.83936416       5.92498557      -0.00008713       0.00001010       0.00001336
Mo      58.94464967       2.75913079       7.49554909      -0.00008238       0.00001284      -0.00000395
S       58.94495224       4.59873951       9.06516783      -0.00008429       0.00001430      -0.00002295
S       58.94432102       4.59872511       5.92465083      -0.00008410       0.00001459       0.00001591
Mo      57.35230254       0.00095131      13.69072981      -0.00007935       0.00001500       0.00000673
S       57.35260020       3.68021026      15.26164226      -0.00008255       0.00001410      -0.00001184
S       57.35195851       3.68018623      12.12110390      -0.00008004       0.00001417       0.00002453
Mo      55.75927527       2.76024242      13.69106932      -0.00008085       0.00001670       0.00000497
S       55.75958944       0.92065494      15.26197761      -0.00008434       0.00001823      -0.00001096
S       55.75892128       0.92063462      12.12144674      -0.00008130       0.00001798       0.00002041
Mo      60.53769978      -0.00036113       7.49523300      -0.00007153       0.00001394      -0.00000399
S       60.53798248       1.83924845       9.06485415      -0.00007370       0.00001761      -0.00002560
S       60.53738594       1.83923181       5.92433277      -0.00007264       0.00001834       0.00001878
Mo      62.13074454       2.75897672       7.49493599      -0.00005380       0.00001286      -0.00000340
S       62.13100437       4.59858806       9.06455914      -0.00005665       0.00001775      -0.00002701
S       62.13044759       4.59856878       5.92403427      -0.00005405       0.00001891       0.00002146
Mo      60.53832571       0.00126484      13.69009841      -0.00005430       0.00001684       0.00000933
S       60.53858069       3.68052967      15.26101834      -0.00005720       0.00001182      -0.00001417
S       60.53800844       3.68049734      12.12046645      -0.00005604       0.00001256       0.00003194
Mo      58.94531900       2.76052019      13.69040522      -0.00007022       0.00001449       0.00000819
S       58.94559691       0.92093928      15.26132165      -0.00007326       0.00001098      -0.00001318
S       58.94498728       0.92091126      12.12077608      -0.00007143       0.00001131       0.00002867
Mo      63.72378599      -0.00054480       7.49466067      -0.00003466       0.00001057      -0.00000151
S       63.72401955       1.83906937       9.06428517      -0.00003616       0.00001558      -0.00002602
S       63.72350763       1.83904707       5.92375817      -0.00003144       0.00001681       0.00002427
Mo      65.31682629       2.75875670       7.49440979      -0.00002079       0.00000793       0.00000191
S       65.31703035       4.59837480       9.06403494      -0.00002002       0.00001267      -0.00002230
S       65.31656847       4.59834906       5.92350724      -0.00001466       0.00001268       0.00002679
Mo      63.72431827       0.00166692      13.68954872      -0.00002305       0.00002525       0.00000860
S       63.72451754       3.68093486      15.26047333      -0.00001954       0.00002057      -0.00001535
S       63.72403445       3.68089306      12.11991319      -0.00002188       0.00002183       0.00003153
Mo      62.13132473       2.76087449      13.68981208      -0.00003658       0.00002091       0.00000978
S       62.13155330       0.92129821      15.26073479      -0.00003637       0.00001540      -0.00001490
S       62.13102340       0.92126124      12.12017797      -0.00003664       0.00001678       0.00003336
Mo      66.90986715      -0.00080928       7.49418620      -0.00001936       0.00000297       0.00000518
S       66.91003894       1.83881425       9.06381147      -0.00001860       0.00000553      -0.00001632
S       66.90963172       1.83878419       5.92328406      -0.00001598       0.00000335       0.00002636
Mo      68.50290889       2.75843788       7.49399221      -0.00003510      -0.00001052       0.00000550
S       68.50304599       4.59806849       9.06361780      -0.00003511      -0.00001082      -0.00001244
S       68.50269633       4.59803253       5.92309001      -0.00003778      -0.00001480       0.00002295
Mo      66.91029562       0.00219108      13.68909833      -0.00003511       0.00005229       0.00000311
S       66.91042821       3.68145884      15.26002596      -0.00003685       0.00005544      -0.00001436
S       66.91005024       3.68140590      12.11946066      -0.00003768       0.00005279       0.00002045
Mo      65.31730836       2.76133261      13.68931028      -0.00002121       0.00003290       0.00000578
S       65.31747573       0.92175773      15.26023625      -0.00001748       0.00003130      -0.00001517
S       65.31704330       0.92171076      12.11967383      -0.00002092       0.00003127       0.00002601
Mo      70.09594979      -0.00119673       7.49382873      -0.00006227      -0.00003894       0.00000235
S       70.09604966       1.83844268       9.06345576      -0.00006877      -0.00004127      -0.00001290
S       70.09575839       1.83839890       5.92292509      -0.00007371      -0.00004598       0.00001791
Mo      71.68898601       2.75795907       7.49369554      -0.00008508      -0.00009047      -0.00000064
S       71.68904580       4.59760940       9.06332570      -0.00010904      -0.00009355      -0.00001554
S       71.68881357       4.59755600       5.92278894      -0.00010771      -0.00009711       0.00001642
Mo      70.09625509       0.00290339      13.68876232      -0.00008711       0.00015579       0.00000844
S       70.09630240       3.68216925      15.25969715      -0.00011375       0.00016629      -0.00000676
S       70.09604935       3.68209932      12.11911869      -0.00010705       0.00016136       0.00002294
Mo      68.50327886       2.76193809      13.68891471      -0.00006111       0.00009112       0.00000359
S       68.50337210       0.92236194      15.25984511      -0.00007500       0.00009969      -0.00001082
S       68.50305346       0.92230154      12.11927481      -0.00007020       0.00009431       0.00001856
Mo      73.28201519      -0.00180275       7.49359333      -0.00009079      -0.00017429       0.00000188
S       73.28202566       1.83786089       9.06322882      -0.00012103      -0.00017124      -0.00002097
S       73.28185645       1.83779639       5.92268208      -0.00011108      -0.00017643       0.00002804
Mo      74.87503547       2.75717086       7.49352548      -0.00005851      -0.00028328       0.00000797
S       74.87498671       4.59685234       9.06316687      -0.00010196      -0.00027848      -0.00002509
S       74.87488737       4.59677380       5.92260968      -0.00009600      -0.00029048       0.00003978
Mo      73.28217627       0.00396772      13.68856419      -0.00007143       0.00037074       0.00000904
S       73.28210646       3.68322844      15.25951163      -0.00010294       0.00037882      -0.00002734
S       73.28199406       3.68313562      12.11890771      -0.00011778       0.00037664       0.00004301
Mo      71.68922156       2.76279722      13.68864485      -0.00009712       0.00025161       0.00001256
S       71.68921365       0.92321832      15.25958589      -0.00012466       0.00025856      -0.00001141
S       71.68903117       0.92313738      12.11899542      -0.00012581       0.00025571       0.00003411
Mo      76.46805124      -0.00284936       7.49349610      -0.00001417      -0.00037553       0.00000417
S       76.46793186       1.83685567       9.06314088      -0.00003194      -0.00038358      -0.00003173
S       76.46790530       1.83675610       5.92257733      -0.00004737      -0.00039548       0.00003573
Mo      78.06107022       2.75578058       7.49350338       0.00001338      -0.00036441      -0.00000936
S       78.06087333       4.59550965       9.06314750       0.00004394      -0.00039604      -0.00003647
S       78.06091041       4.59538126       5.92258332       0.00002500      -0.00039411       0.00001658
Mo      76.46806810       0.00568184      13.68850028       0.00001539       0.00045570      -0.00000282
S       76.46785403       3.68494169      15.25945263       0.00002604       0.00049469      -0.00004367
S       76.46786320       3.68481583      12.11883678       0.00003736       0.00048091       0.00004500
Mo      74.87512281       2.76414427      13.68851760      -0.00002618       0.00046957      -0.00000024
S       74.87498415       0.92455845      15.25946959      -0.00004040       0.00048930      -0.00004754
S       74.87493496       0.92445168      12.11885542      -0.00005384       0.00048234       0.00004635
Mo      79.65409191      -0.00464329       7.49353845       0.00001455      -0.00017159      -0.00000853
S       79.65383460       1.83510468       9.06317577       0.00004152      -0.00022730       0.00000097
S       79.65392192       1.83494553       5.92262361       0.00005746      -0.00020800      -0.00001403
Mo      81.24712468       2.75359703       7.49359724      -0.00005517       0.00014904       0.00002104
S       81.24680348       4.59335064       9.06322854       0.00004143       0.00015044       0.00005097
S       81.24694203       4.59316562       5.92268793       0.00008678       0.00015517       0.00000169
Mo      79.65397486       0.00821388      13.68856341      -0.00003875      -0.00011056       0.00002337
S       79.65360886       3.68751249      15.25950291       0.00007308      -0.00011739       0.00004635
S       79.65377056       3.68732756      12.11891846       0.00007646      -0.00010546      -0.00000772
Mo      78.06101611       2.76628038      13.68851217       0.00002323       0.00024505       0.00001285
S       78.06072934       0.92671084      15.25945844       0.00005487       0.00028880       0.00000621
S       78.06080536       0.92655711      12.11885660       0.00008501       0.00028824       0.00002325
Mo      82.84014912      -0.00711794       7.49368759      -0.00006558       0.00039611       0.00005025
S       82.83979140       1.83264605       9.06331648      -0.00006849       0.00047112       0.00008934
S       82.83999575       1.83243597       5.92278464      -0.00005687       0.00043579      -0.00000135
Mo      84.43317255       2.75094551       7.49382132      -0.00008460       0.00031526       0.00002237
S       84.43276994       4.59074957       9.06345389      -0.00013058       0.00037035       0.00005185
S       84.43304452       4.59049747       5.92291423      -0.00018181       0.00035710      -0.00001580
Mo      82.83988186       0.01115997      13.68881058      -0.00011148      -0.00031156      -0.00002923
S       82.83941792       3.69047488      15.25974968      -0.00014952      -0.00035329       0.00000601
S       82.83975797       3.69023263      12.11916384      -0.00018338      -0.00037623      -0.00006775
Mo      81.24692850       2.76908855      13.68866451      -0.00006967      -0.00038817       0.00000061
S       81.24651395       0.92956158      15.25959793      -0.00004363      -0.00043687       0.00005868
S       81.24677057       0.92934914      12.11902541      -0.00008773      -0.00043892      -0.00006441
Mo      86.02619222      -0.00994924       7.49398966      -0.00006022      -0.00002664      -0.00002331
S       86.02572258       1.82991236       9.06363794      -0.00011025      -0.00004309      -0.00006519
S       86.02604400       1.82960613       5.92306144      -0.00013020      -0.00000517       0.00003962
Mo      87.61919856       2.74774789       7.49417287       0.00002307      -0.00019019      -0.00001548
S       87.61866674       4.58766541       9.06382854      -0.00006117      -0.00026449      -0.00006496
S       87.61901908       4.58731151       5.92324114      -0.00002754      -0.00023317       0.00003462
Mo      86.02575868       0.01455062      13.68920748       0.00002166       0.00026960       0.00002928
S       86.02513335       3.69385180      15.26017226      -0.00006491       0.00030370      -0.00004329
S       86.02563548       3.69351479      12.11953497      -0.00001039       0.00035359       0.00010381
Mo      84.43282533       2.77216193      13.68899134      -0.00007111       0.00006217      -0.00002201
S       84.43229306       0.93262425      15.25994904      -0.00017710       0.00006370      -0.00007260
S       84.43270691       0.93234139      12.11932233      -0.00014664       0.00004984       0.00004827
Mo      89.21222523      -0.01373189       7.49437081       0.00000814      -0.00003118       0.00002230
S       89.21157721       1.82621622       9.06402558       0.00015249       0.00001852      -0.00001958
S       89.21196777       1.82581834       5.92344222       0.00017667      -0.00000327       0.00004965
Mo      90.80523895       2.74330048       7.49459207       0.00008802       0.00023845       0.00003402
S       90.80454837       4.58329953       9.06422512      -0.00005460       0.00027823       0.00018866
S       90.80498552       4.58284769       5.92368737      -0.00008917       0.00023424      -0.00014107
Mo      89.21166408       0.01911748      13.68981392       0.00008540      -0.00025694      -0.00000481
S       89.21081844       3.69843358      15.26074411      -0.00000418      -0.00025015       0.00015117
S       89.21154302       3.69801285      12.12017341      -0.00004442      -0.00030105      -0.00015685
Mo      87.61871368       2.77610495      13.68947908       0.00002769       0.00007382       0.00003732
S       87.61793796       0.93657864      15.26043769       0.00021156       0.00002871      -0.00000958
S       87.61855225       0.93619670      12.11981694       0.00019996       0.00005570       0.00006260
Mo      92.39828578      -0.01879610       7.49484266      -0.00006395       0.00010320       0.00000049
S       92.39749476       1.82127451       9.06448034      -0.00016288       0.00006246       0.00017914
S       92.39797644       1.82074549       5.92393080      -0.00019063       0.00009218      -0.00017510
Mo      93.99131593       2.73755999       7.49511409      -0.00004614      -0.00007860       0.00000131
S       93.99040767       4.57769907       9.06476815      -0.00012229      -0.00010449       0.00017045
S       93.99093556       4.57709493       5.92418879      -0.00010911      -0.00007281      -0.00016074
Mo      92.39761833       0.02479305      13.69062018      -0.00004935       0.00016450       0.00000206
S       92.39654383       3.70411619      15.26157674      -0.00021277       0.00017306       0.00008508
S       92.39743787       3.70356135      12.12094742      -0.00016503       0.00020375      -0.00006637
Mo      90.80465153       2.78120742      13.69019598      -0.00008929      -0.00009415      -0.00001471
S       90.80369168       0.94168071      15.26113441      -0.00017485      -0.00006465       0.00012193
S       90.80450780       0.94119762      12.12054454      -0.00018339      -0.00008275      -0.00013445
Mo      95.58433477      -0.02542969       7.49541377      -0.00002503      -0.00003594       0.00002454
S       95.58331288       1.81477992       9.06505496      -0.00014470       0.00003687       0.00043396
S       95.58390790       1.81410160       5.92450838      -0.00017000       0.00001050      -0.00039008
Mo      97.17737662       2.72988074       7.49575781       0.00003988       0.00019097       0.00004136
S       97.17617009       4.57018115       9.06540224       0.00018545       0.00009469       0.00025088
S       97.17682435       4.56940540       5.92483908       0.00026606       0.00008496      -0.00013778
Mo      95.58356685       0.03224448      13.69158233       0.00004826      -0.00020211      -0.00002141
S       95.58220621       3.71157723      15.26250891       0.00019907      -0.00015909       0.00028203
S       95.58323305       3.71087697      12.12193424       0.00017290      -0.00019103      -0.00030748
Mo      93.99057870       2.78769263      13.69108268      -0.00001253       0.00008077       0.00001659
S       93.98938568       0.94818138      15.26202114      -0.00015055       0.00001857       0.00032490
S       93.99035254       0.94755271      12.12142920      -0.00011457       0.00004986      -0.00029674
Mo      98.77043185      -0.03425302       7.49614163      -0.00033735       0.00011580       0.00003617
S       98.76910609       1.80616418       9.06576197      -0.00000570       0.00006216       0.00045102
S       98.76979978       1.80527483       5.92524805       0.00003808       0.00008830      -0.00039824
Mo     100.36349487       2.71982766       7.49654793       0.00018482      -0.00038167       0.00002221
S      100.36201307       4.56033335       9.06622354       0.00009899      -0.00006825      -0.00018501
S      100.36265799       4.55930514       5.92558627       0.00018396      -0.00003151       0.00017445
Mo      98.76958885       0.04176497      13.69262656       0.00007646       0.00037861      -0.00001838
S       98.76790504       3.72112299      15.26360246       0.00032464       0.00015219      -0.00022660
S       98.76905621       3.72020943      12.12294217       0.00016860       0.00018110       0.00013006
Mo      97.17656489       2.79614209      13.69209778      -0.00020284      -0.00007401      -0.00002518
S       97.17511053       0.95662406      15.26301185      -0.00004775      -0.00004788       0.00039537
S       97.17618102       0.95582671      12.12246491      -0.00004842      -0.00004376      -0.00047445
Mo     101.95653248      -0.04581149       7.49692029       0.00006653       0.00017003       0.00002156
S      101.95505658       1.79485697       9.06656214       0.00015779       0.00016854      -0.00026992
S      101.95551031       1.79368008       5.92596596       0.00011462       0.00011894       0.00041290
Mo     103.54970339       2.70655825       7.49717529      -0.00088212      -0.00003778       0.00003016
S      103.54815151       4.54737984       9.06679049      -0.00029373       0.00004987       0.00005489
S      103.54816077       4.54600507       5.92622566      -0.00034071      -0.00001402      -0.00010532
Mo     101.95571932       0.05417825      13.69383358      -0.00071832       0.00006045      -0.00002315
S      101.95348862       3.73356871      15.26479030      -0.00042468      -0.00002564       0.00006956
S      101.95508314       3.73236151      12.12418661      -0.00042007      -0.00001357       0.00005724
Mo     100.36259862       2.80704023      13.69318921      -0.00007444      -0.00018737      -0.00001715
S      100.36076588       0.96753621      15.26412732       0.00016959      -0.00013160      -0.00013916
S      100.36205410       0.96649974      12.12354632       0.00014405      -0.00018831       0.00013653
Mo     105.14272306      -0.06095156       7.49715995       0.00075164       0.00036507       0.00004607
S      105.14157185       1.78015404       9.06672683      -0.00009465      -0.00031359       0.00005482
S      105.14073212       1.77852939       5.92618410      -0.00009576      -0.00038871       0.00008404
Mo     106.73593624       2.68949494       7.49661893       0.00067403       0.00029745       0.00002223
S      106.73485067       4.53051746       9.06644410      -0.00018590       0.00012784       0.00009669
S      106.73277431       4.52866902       5.92544655      -0.00025675       0.00027707      -0.00008755
Mo     105.14194546       0.07002691      13.69581235       0.00065759      -0.00026745      -0.00003891
S      105.13838804       3.74962830      15.26692688      -0.00016318      -0.00018941       0.00017462
S      105.14146704       3.74799758      12.12608389      -0.00010801      -0.00015749      -0.00024157
Mo     103.54870922       2.82111119      13.69466041       0.00067341      -0.00033749      -0.00004098
S      103.54617777       0.98159631      15.26560433      -0.00009659       0.00035910      -0.00015921
S      103.54833077       0.98019392      12.12507215      -0.00001146       0.00036133      -0.00005208
Mo     108.32840462      -0.08061768       7.49539626       0.00013605       0.00050450       0.00005272
S      108.32882471       1.76104718       9.06476801       0.00003701      -0.00021390      -0.00022073
S      108.32510400       1.75894680       5.92454399       0.00014379      -0.00032956       0.00043116
Mo     109.92331085       2.66629627       7.49318388      -0.00050701      -0.00077186       0.00001780
S      109.92244622       4.50927310       9.06226186       0.00002970       0.00017398       0.00014067
S      109.91701342       4.50699391       5.92292548       0.00002868       0.00028041      -0.00026203
Mo     108.32930950       0.09139087      13.70013745      -0.00049522       0.00072975       0.00000173
S      108.32282009       3.76960057      15.27045922      -0.00001197      -0.00032751       0.00025772
S      108.32924517       3.76746933      12.13107710       0.00000812      -0.00010949      -0.00010611
Mo     106.73448327       2.83930941      13.69750880       0.00019986      -0.00045069      -0.00001949
S      106.73084071       0.99973877      15.26835937       0.00014104       0.00034320      -0.00043848
S      106.73543789       0.99784333      12.12817896      -0.00008637       0.00015199       0.00031418
Mo     111.51462068      -0.10302971       7.49025550       0.01009391      -0.18008468      -0.00001407
S      111.51521318       1.73391791       9.06219743      -0.00004620       0.00037098       0.00011910
S      111.50808969       1.73104759       5.91693785      -0.00016654       0.00014177      -0.00007594
Mo     113.10919907       2.62223495       7.48625150      -0.03491451      -0.04009618      -0.00002656
S      113.10502069       4.46483368       9.05601210       0.00016033       0.00036605       0.00002515
S      113.09633424       4.46190679       5.91547374       0.00012141       0.00032597       0.00005061
Mo     111.51528092       0.13254341      13.70811213      -0.03514683       0.03904108      -0.00002562
S      111.50225831       3.81172149      15.27887203       0.00013681      -0.00022963      -0.00007231
S      111.51211650       3.80911183      12.13846160       0.00020947      -0.00034678      -0.00000995
Mo     109.92077542       2.85974568      13.70358423       0.00812623       0.17355820      -0.00001488
S      109.91388863       1.02545685      15.27679695      -0.00023539      -0.00017167       0.00007229
S      109.92213231       1.02284779      12.13178104       0.00004365      -0.00027831      -0.00018091
Mo     114.70081654      -0.17328055       7.48146400      -0.00004721      -0.00230247       0.00006021
S      114.69921147       1.66878024       9.05180456       0.00037981      -0.00016523      -0.00039943
S      114.68889610       1.66576901       5.91001558       0.00047489       0.00000323       0.00045723
Mo     116.29329516       2.54769122       7.47586776       0.00289604       0.00228510       0.00005053
S      116.29109100       4.38989199       9.04628806       0.00025299      -0.00029665       0.00043247
S      116.27987881       4.38701961       5.90471014       0.00020845      -0.00026532      -0.00035762
Mo     114.69930382       0.20306848      13.71966691       0.00344765      -0.00267343       0.00000279
S      114.68537677       3.88266587      15.29089855       0.00025694       0.00022227       0.00036625
S      114.69832887       3.87971798      12.14934985       0.00024583       0.00024366      -0.00039634
Mo     113.10686109       2.92603531      13.71341199       0.00028146       0.00222926      -0.00007384
S      113.09467406       1.08701528      15.28488588       0.00040303       0.00000686      -0.00057111
S      113.10627530       1.08416963      12.14316049       0.00018497       0.00003586       0.00045259
Mo     117.88552628      -0.25152567       7.47006515      -0.00079291      -0.00028214      -0.00002493
S      117.88326796       1.59030646       9.04076160      -0.00027105       0.00030424       0.00020293
S      117.87217154       1.58773471       5.89893907      -0.00015084       0.00022170      -0.00031948
Mo     119.47779654       2.46666970       7.46458582       0.00020122       0.00046866      -0.00002070
S      119.47459094       4.30826751       9.03547889      -0.00008953      -0.00002797       0.00046224
S      119.46464650       4.30611436       5.89358181      -0.00010998      -0.00006112      -0.00045400
Mo     117.88386531       0.28056704      13.73361273       0.00001142      -0.00031768      -0.00001471
S      117.86920126       3.96009504      15.30469645      -0.00012344       0.00008636       0.00055373
S      117.88271782       3.95753294      12.16293415      -0.00008716       0.00008606      -0.00062739
Mo     116.29155779       3.00041048      13.72652357      -0.00102754       0.00018111       0.00002381
S      116.27721893       1.16126758      15.29776544      -0.00010175      -0.00018433       0.00019709
S      116.29094412       1.15839750      12.15604968      -0.00018964      -0.00024864      -0.00010121
Mo     121.06995072      -0.33489885       7.45995100       0.00029850       0.00025486       0.00000191
S      121.06562639       1.50629630       9.03110064      -0.00004995      -0.00003801       0.00000063
S      121.05776151       1.50467090       5.88902547      -0.00009383      -0.00000398      -0.00001900
Mo     122.66210630       2.38184534       7.45662265       0.00019042      -0.00037976      -0.00000276
S      122.65628275       4.22257582       9.02796884       0.00001671      -0.00002522      -0.00006507
S      122.65123979       4.22153836       5.88579887      -0.00004474      -0.00000964       0.00004960
Mo     121.06821653       0.36330060      13.74612637       0.00034988       0.00026795       0.00000162
S      121.05492051       4.04257364      15.31703621      -0.00004816       0.00003198       0.00002149
S      121.06505981       4.04096192      12.17497730      -0.00000091       0.00001624       0.00000384
Mo     119.47604906       3.08085910      13.74031265       0.00016999      -0.00008357      -0.00002051
S      119.46184110       1.24143983      15.31133634      -0.00011121      -0.00006166       0.00010967
S      119.47412683       1.23929266      12.16937668      -0.00009899       0.00000356      -0.00008024
Mo     124.25426400      -0.42037901       7.45491947      -0.00008275       0.00082539      -0.00000266
S      124.24684041       1.41992137       9.02640458       0.00004002       0.00003440      -0.00009375
S      124.24508554       1.41949221       5.88422780       0.00002021       0.00001006       0.00009097
Mo     125.84643642       2.29684851       7.45501514      -0.00018365      -0.00035548      -0.00000365
S      125.83741440       4.13662088       9.02665420      -0.00002059      -0.00001048      -0.00002096
S      125.83911277       4.13675984       5.88438848      -0.00001230      -0.00001166       0.00004162
Mo     124.25258755       0.44815650      13.75342901      -0.00024703       0.00052756       0.00000407
S      124.24237123       4.12717844      15.32413411      -0.00002933       0.00000316      -0.00006009
S      124.24627838       4.12675643      12.18191881      -0.00000817       0.00002054       0.00002930
Mo     122.66040488       3.16518414      13.75060801      -0.00004541      -0.00063256       0.00000841
S      122.64847794       1.32542711      15.32138533       0.00004929       0.00000442      -0.00007982
S      122.65573931       1.32440820      12.17928879       0.00006530      -0.00003094       0.00007710
Mo     127.43858467      -0.50385465       7.45690136       0.00031250      -0.00005639      -0.00000191
S      127.42817483       1.33549119       9.02862616       0.00001732      -0.00001353      -0.00003204
S      127.43317449       1.33613522       5.88636905       0.00001211       0.00000103       0.00003179
Mo     129.03083566       2.21571753       7.46040616       0.00012086       0.00044937      -0.00000349
S      129.01930583       4.05470633       9.03216311      -0.00001887       0.00000580      -0.00002446
S      129.02715605       4.05577026       5.88997324       0.00000111       0.00000623       0.00001342
Mo     127.43699266       0.53118325      13.75358949       0.00008328      -0.00016831      -0.00000313
S      127.43060137       4.21000166      15.32408600       0.00000200      -0.00000489      -0.00005060
S      127.42762801       4.21066006      12.18188561      -0.00001655      -0.00000856       0.00004336
Mo     125.84474417       3.24959534      13.75442232       0.00027876      -0.00017423      -0.00000805
S      125.83645608       1.40964303      15.32501264       0.00001267      -0.00000224      -0.00005503
S      125.83684511       1.40979425      12.18279846       0.00001735       0.00000594       0.00005129
Mo     130.62315650      -0.58162384       7.46521402      -0.00018844       0.00014358      -0.00000033
S      130.61091114       1.25702716       9.03700814      -0.00000297       0.00000759      -0.00004196
S      130.62095111       1.25841695       5.89484173       0.00000483       0.00000307       0.00003638
Mo     132.21552649       2.14208079       7.47092643       0.00003097      -0.00015632       0.00000236
S      132.20304216       3.98047684       9.04272916       0.00000150      -0.00000974      -0.00002442
S      132.21448629       3.98209852       5.90061999       0.00000068      -0.00001197       0.00002473
Mo     130.62163451       0.60840305      13.74727898       0.00004252       0.00002356      -0.00000399
S      130.61854873       4.28718636      15.31762726       0.00000453       0.00000806      -0.00004433
S      130.61038259       4.28859069      12.17549161      -0.00001015       0.00000893       0.00004084
Mo     129.02927940       3.33013376      13.75110592      -0.00003525       0.00008994      -0.00000112
S      129.02467044       1.49008857      15.32153281       0.00000154       0.00000152      -0.00006530
S      129.01877118       1.49116761      12.17933748      -0.00000399       0.00000161       0.00006174
Mo     133.80799957      -0.65063796       7.47711231       0.00005394      -0.00006215      -0.00000150
S      133.79571936       1.18759494       9.04889083       0.00000341      -0.00001054       0.00001974
S      133.80775686       1.18936402       5.90689108      -0.00001121      -0.00000362      -0.00001981
Mo     135.40060496       2.07808668       7.48335752      -0.00009716       0.00061202      -0.00000306
S      135.38890633       3.91623261       9.05510912       0.00000692       0.00002020       0.00003789
S      135.40079200       3.91808219       5.91322463       0.00000009       0.00001749      -0.00004388
Mo     133.80664301       0.67696552      13.73721857      -0.00004463      -0.00031240      -0.00000617
S      133.80557810       4.35576918      15.30740353      -0.00000081      -0.00000871       0.00002086
S      133.79524460       4.35755885      12.16545859       0.00000998      -0.00001467      -0.00003097
Mo     132.21407893       3.40331855      13.74250643       0.00004254       0.00012179      -0.00000658
S      132.21219292       1.56327349      15.31277801      -0.00000839       0.00000004      -0.00001808
S      132.20254010       1.56491114      12.17072333      -0.00000141       0.00000340       0.00000535
Mo     136.99328811      -0.70925813       7.48931369       0.00026853      -0.00000412       0.00000054
S      136.98254129       1.12882220       9.06105865      -0.00001103       0.00000944       0.00005192
S      136.99367068       1.13069347       5.91925320       0.00000019       0.00000304      -0.00004925
Mo     138.58611005       2.02493671       7.49472473      -0.00009963      -0.00045625       0.00000308
S      138.57645039       3.86301072       9.06647018       0.00000609      -0.00001931       0.00001965
S      138.58640476       3.86485783       5.92473723       0.00001067      -0.00001675      -0.00001175
Mo     136.99209729       0.73510971      13.72666443      -0.00008696       0.00030474      -0.00000810
S      136.99173506       4.41397858      15.29669363       0.00001206       0.00000607       0.00003205
S      136.98210537       4.41586964      12.15493366       0.00000664       0.00000955      -0.00005177
Mo     135.39929962       3.46679734      13.73182292       0.00018510       0.00015666      -0.00000492
S      135.39875542       1.62679741      15.30193102      -0.00000557      -0.00000215       0.00005660
S      135.38847730       1.62866570      12.16007901      -0.00000546      -0.00000426      -0.00006837
Mo     140.17900134      -0.75712988       7.49943413      -0.00006575       0.00011363      -0.00000105
S      140.17057908       1.08099602       9.07118033       0.00000341      -0.00000666      -0.00001581
S      140.17911857       1.08278709       5.92952521       0.00000043      -0.00000591       0.00001323
Mo     141.77199206       1.98217226       7.50337600      -0.00007515       0.00063191      -0.00000856
S      141.76480666       3.82038531       9.07512475      -0.00000003       0.00001943      -0.00005187
S      141.77185437       3.82209359       5.93354453      -0.00000263       0.00002104       0.00003224
Mo     140.17798049       0.78260988      13.71797063      -0.00004730      -0.00029050      -0.00000788
S      140.17749669       4.46149546      15.28783544       0.00000059      -0.00001127      -0.00003191
S      140.17023241       4.46331051      12.14625182      -0.00000292      -0.00001244       0.00001911
Mo     138.58497812       3.51959808      13.72199574       0.00005560       0.00000695      -0.00001068
S      138.58463401       1.67963730      15.29194327       0.00000642       0.00000499       0.00000366
S      138.57607094       1.68150827      12.15027356      -0.00000158       0.00000420      -0.00002698
Mo     143.36505023      -0.79492641       7.50655734      -0.00002060       0.00003535      -0.00001011
S      143.35903762       1.04335621       9.07833660       0.00000315       0.00000552      -0.00004622
S      143.36465073       1.04496434       5.93677503       0.00000114       0.00000549       0.00002487
Mo     144.95814325       1.94899991       7.50904410       0.00020166      -0.00077834      -0.00000766
S      144.95320194       3.78736688       9.08085337      -0.00000617      -0.00002048      -0.00002354
S      144.95753083       3.78886208       5.93930684      -0.00000561      -0.00002016       0.00000899
Mo     143.36420302       0.81999683      13.71202423       0.00016903       0.00063636      -0.00000321
S      143.36334507       4.49892955      15.28176887      -0.00000650       0.00001038      -0.00003186
S      143.35874258       4.50056310      12.14026464      -0.00000444       0.00001211       0.00002576
Mo     141.77106321       3.56190275      13.71465202      -0.00000908       0.00007165      -0.00000467
S      141.77038768       1.72197056      15.28445473      -0.00000013      -0.00000355      -0.00003625
S      141.76448721       1.72370471      12.14291282       0.00000182      -0.00000682       0.00003016
Mo     146.55131566      -0.82402779       7.51093463      -0.00016351      -0.00028891      -0.00000564
S      146.54725204       1.01446316       9.08276070       0.00000275      -0.00001090      -0.00001259
S      146.55049559       1.01583961       5.94124777       0.00000032      -0.00001139       0.00000243
Mo     148.14450470       1.92353683       7.51233675      -0.00009731       0.00065629      -0.00000458
S      148.14122564       3.76215557       9.08418123      -0.00000155       0.00001757      -0.00001764
S      148.14358867       3.76341122       5.94268873      -0.00000286       0.00001538       0.00000783
Mo     146.55068862       0.84886069      13.70854058      -0.00005000      -0.00036662      -0.00000686
S      146.54955340       4.52778824      15.27818013      -0.00000316      -0.00000707      -0.00002277
S      146.54704184       4.52919445      12.13674462      -0.00000471      -0.00000696       0.00000786
Mo     144.95743381       3.59482703      13.71002009      -0.00017298       0.00027940      -0.00000471
S      144.95638305       1.75491408      15.27970656       0.00000170       0.00001022      -0.00002488
S      144.95292501       1.75643741      12.13824475       0.00000469       0.00001279       0.00001307
Mo     149.73772930      -0.84608794       7.51335362      -0.00006097       0.00059618      -0.00000504
S      149.73508908       0.99263884       9.08522164      -0.00000154       0.00001211      -0.00001377
S      149.73676362       0.99377111       5.94372780      -0.00000128       0.00001671       0.00000469
Mo     151.33096358       1.90459702       7.51407470       0.00003317      -0.00041568      -0.00000561
S      151.32884401       3.74340289       9.08597546       0.00000419      -0.00000977       0.00001032
S      151.32999615       3.74441453       5.94445350       0.00000104      -0.00000567      -0.00002071
Mo     149.73731398       0.87050815      13.70671961       0.00000586       0.00043147      -0.00000686
S      149.73616344       4.54948200      15.27631206       0.00000058       0.00000015       0.00000694
S      149.73492096       4.55064277      12.13486522       0.00000421      -0.00000274      -0.00001960
Mo     148.14399475       3.61991868      13.70747559      -0.00008787      -0.00033338      -0.00000719
S      148.14281671       1.78001483      15.27708202      -0.00000099      -0.00001387      -0.00001542
S      148.14103898       1.78129816      12.13565481      -0.00000253      -0.00001260       0.00000068
Mo     152.92421041      -0.86237758       7.51457454       0.00009111      -0.00104547      -0.00000671
S      152.92249830       0.97651413       9.08649686      -0.00000054      -0.00001184       0.00002681
S      152.92326104       0.97741045       5.94496078      -0.00000082      -0.00001543      -0.00004135
Mo     154.51748101       1.89045644       7.51490892       0.00000089      -0.00050945      -0.00000717
S      154.51608532       3.72945060       9.08683969       0.00000405       0.00000319       0.00002812
S      154.51655763       3.73023951       5.94530834       0.00000322      -0.00000490      -0.00004443
Mo     152.92401597       0.88668828      13.70578186      -0.00003747       0.00052807      -0.00000536
S      152.92300938       4.56569572      15.27534651       0.00000224       0.00000748       0.00002943
S      152.92237071       4.56662238      12.13389155       0.00000525       0.00000529      -0.00004001
Mo     151.33065271       3.63858642      13.70617945       0.00004865       0.00094650      -0.00000569
S      151.32956291       1.79874283      15.27575873      -0.00000199       0.00001116       0.00002404
S      151.32868790       1.79978356      12.13430224       0.00000021       0.00000664      -0.00003445
Mo     156.11076048      -0.87466936       7.51511669       0.00006099       0.00057087      -0.00000643
S      156.10964769       0.96442832       9.08704975       0.00000179       0.00001143       0.00001897
S      156.10989707       0.96511877       5.94552904       0.00000131       0.00000737      -0.00003369
Mo     157.70405862       1.87991355       7.51522371       0.00007705       0.00119221      -0.00000588
S      157.70318998       3.71909768       9.08715891       0.00000176       0.00000193       0.00001844
S      157.70326240       3.71969917       5.94564398       0.00000110       0.00000761      -0.00002887
Mo     156.11077699       0.89872115      13.70521154       0.00005106      -0.00096754      -0.00000513
S      156.11003374       4.57773342      15.27475368       0.00000133      -0.00000756       0.00001957
S      156.10960941       4.57845245      12.13330748       0.00000253      -0.00000127      -0.00003060
Mo     154.51738671       3.65261173      13.70547190       0.00004458      -0.00038304      -0.00000548
S      154.51650686       1.81277570      15.27502299      -0.00000035      -0.00000379       0.00002178
S      154.51600915       1.81359466      12.13357418       0.00000026      -0.00000117      -0.00003226
Mo     159.29736600      -0.88352962       7.51524744       0.00010694       0.00093352      -0.00000526
S      159.29671347       0.95571329       9.08719010       0.00000033      -0.00000690       0.00002682
S      159.29664091       0.95623708       5.94566762       0.00000087       0.00000129      -0.00003579
Mo     160.89068426       1.87256618       7.51520144       0.00009147       0.00008844      -0.00000483
S      160.89020752       3.71184981       9.08715316      -0.00000581      -0.00000706       0.00003460
S      160.89001415       3.71230635       5.94561803      -0.00000119      -0.00000325      -0.00004419
Mo     159.29758057       0.90719925      13.70474570       0.00009946      -0.00007623      -0.00000527
S      159.29711690       4.58625825      15.27429022      -0.00000134       0.00000239       0.00003611
S      159.29671668       4.58680911      12.13282101      -0.00000344      -0.00000026      -0.00004658
Mo     157.70417350       3.66276985      13.70497535       0.00010344      -0.00079773      -0.00000518
S      157.70357779       1.82295896      15.27451677       0.00000132      -0.00000317       0.00002730
S      157.70318108       1.82358850      12.13306097       0.00000209      -0.00000075      -0.00003781
Mo     162.48401143      -0.88964392       7.51509654       0.00004509      -0.00078867      -0.00000447
S      162.48367124       0.94967279       9.08705695      -0.00000590      -0.00000232       0.00003694
S      162.48337611       0.95007098       5.94550865      -0.00000125      -0.00000353      -0.00004725
Mo     164.07734400       1.86737724       7.51494136       0.00003311      -0.00131890      -0.00000411
S      164.07711190       3.70672797       9.08690738      -0.00000510       0.00000188       0.00003373
S      164.07672904       3.70707487       5.94535099      -0.00000178      -0.00000144      -0.00004403
Mo     162.48441334       0.91320544      13.70426112       0.00004613       0.00117413      -0.00000501
S      162.48415915       4.59230913      15.27381375      -0.00000277       0.00000183       0.00003511
S      162.48369738       4.59273252      12.13232052      -0.00000545      -0.00000147      -0.00004378
Mo     160.89099498       3.66985621      13.70451046       0.00006211       0.00069783      -0.00000532
S      160.89064411       1.83009810      15.27405970      -0.00000162       0.00000383       0.00003930
S      160.89021948       1.83058084      12.13257626      -0.00000377      -0.00000099      -0.00004921
Mo     165.67068402      -0.89416316       7.51474219       0.00002655      -0.00141835      -0.00000359
S      165.67053814       0.94522480       9.08670987      -0.00000085       0.00000275       0.00003206
S      165.67007765       0.94552619       5.94515237      -0.00000001       0.00000038      -0.00004037
Mo     167.26403070       1.86336156       7.51450345       0.00003571      -0.00122074      -0.00000256
S      167.26396000       3.70278701       9.08647048       0.00000269       0.00000252       0.00003421
S      167.26342905       3.70304817       5.94491602       0.00000208       0.00000110      -0.00004004
Mo     165.67126234       0.91774999      13.70370231       0.00002403       0.00107825      -0.00000522
S      165.67116541       4.59686992      15.27325592       0.00000146      -0.00000100       0.00002882
S      165.67061234       4.59719499      12.13175728       0.00000159       0.00000022      -0.00003826
Mo     164.07783677       3.67504361      13.70399260       0.00002298       0.00126155      -0.00000482
S      164.07766445       1.83531480      15.27354638      -0.00000055      -0.00000025       0.00003004
S      164.07715845       1.83568605      12.13204887      -0.00000183      -0.00000043      -0.00003876
Mo     168.85738505      -0.89776231       7.51422857       0.00003510      -0.00091209      -0.00000162
S      168.85738205       0.94169830       9.08619383       0.00000359       0.00000118       0.00003986
S      168.85678644       0.94192380       5.94464429       0.00000279       0.00000054      -0.00004344
Mo     170.45074679       1.86013831       7.51392048       0.00001462      -0.00060799      -0.00000114
S      170.45080572       3.69962989       9.08588415       0.00000344      -0.00000000       0.00004604
S      170.45015083       3.69982396       5.94433895       0.00000265      -0.00000006      -0.00004864
Mo     168.85812120       0.92126428      13.70305409       0.00000893       0.00050476      -0.00000515
S      168.85815842       4.60039105      15.27260650       0.00000196      -0.00000019       0.00003857
S      168.85751280       4.60063747      12.13110882       0.00000433       0.00000152      -0.00004845
Mo     167.26469079       3.67904575      13.70338931       0.00002109       0.00078660      -0.00000543
S      167.26466333       1.83932596      15.27294207       0.00000200      -0.00000064       0.00003236
S      167.26406305       1.83960959      12.13144424       0.00000352       0.00000113      -0.00004263
Mo     172.04411405      -0.90063207       7.51358198      -0.00000950      -0.00036232      -0.00000103
S      172.04423062       0.93888592       9.08554472       0.00000124      -0.00000032       0.00005007
S      172.04352189       0.93905255       5.94400245       0.00000125      -0.00000016      -0.00005268
Mo     173.63748589       1.85760257       7.51321608      -0.00003749      -0.00019282      -0.00000094
S      173.63765448       3.69714263       9.08517866      -0.00000054      -0.00000030       0.00005121
S      173.63689790       3.69728548       5.94363767      -0.00000009      -0.00000010      -0.00005381
Mo     172.04498249       0.92390739      13.70232256      -0.00002969       0.00014456      -0.00000436
S      172.04513441       4.60304308      15.27187669      -0.00000074       0.00000036       0.00004643
S      172.04440756       4.60322695      12.13037525       0.00000067       0.00000090      -0.00005438
Mo     170.45155201       3.68210778      13.70269795      -0.00000559       0.00028834      -0.00000469
S      170.45164949       1.84239564      15.27225080       0.00000054       0.00000010       0.00004379
S      170.45096159       1.84260885      12.13075198       0.00000221       0.00000134      -0.00005264
Mo     175.23086041      -0.90285661       7.51282606      -0.00005784      -0.00009706      -0.00000074
S      175.23107546       0.93670134       9.08478938      -0.00000168      -0.00000035       0.00004972
S      175.23027753       0.93682375       5.94324783      -0.00000126      -0.00000029      -0.00005211
Mo     176.82423656       1.85566042       7.51241548      -0.00007000      -0.00004717      -0.00000057
S      176.82449200       3.69523328       9.08437982      -0.00000206      -0.00000054       0.00004672
S      176.82365948       3.69533818       5.94283706      -0.00000189      -0.00000044      -0.00004867
Mo     175.23183518       0.92582595      13.70152068      -0.00006352       0.00001821      -0.00000275
S      175.23208008       4.60497229      15.27107952      -0.00000290       0.00000034       0.00004591
S      175.23128603       4.60510776      12.12956906      -0.00000064       0.00000038      -0.00005059
Mo     173.63841059       3.68436851      13.70192957      -0.00004962       0.00006226      -0.00000381
S      173.63861179       1.84466647      15.27148585      -0.00000216       0.00000047       0.00004677
S      173.63784945       1.84482456      12.12998020      -0.00000034       0.00000041      -0.00005341
Mo     178.41761409      -0.90454916       7.51198793      -0.00007726      -0.00001450      -0.00000033
S      178.41790345       0.93503638       9.08395327      -0.00000174      -0.00000033       0.00004359
S      178.41704313       0.93512640       5.94240929      -0.00000154      -0.00000023      -0.00004485
Mo     180.01099231       1.85418588       7.51154701      -0.00006920       0.00000322       0.00000017
S      180.01131022       3.69378207       9.08351327      -0.00000145       0.00000007       0.00004116
S      180.01042882       3.69385952       5.94196820      -0.00000074       0.00000006      -0.00004130
Mo     178.41867088       0.92718202      13.70066313      -0.00006583      -0.00001938      -0.00000115
S      178.41898687       4.60633809      15.27022757      -0.00000150      -0.00000001       0.00004244
S      178.41814178       4.60643695      12.12870675      -0.00000058       0.00000015      -0.00004421
Mo     176.82525560       3.68598623      13.70109785      -0.00007183      -0.00000591      -0.00000167
S      176.82553839       1.84629459      15.27065951      -0.00000239       0.00000010       0.00004447
S      176.82471675       1.84641039      12.12914383      -0.00000054       0.00000036      -0.00004722
Mo     181.60437176      -0.90583432       7.51109625      -0.00005339       0.00000282       0.00000090
S      181.60471242       0.93377080       9.08306325      -0.00000085       0.00000009       0.00003975
S      181.60381654       0.93383760       5.94151742       0.00000026      -0.00000002      -0.00003839
Mo     183.19775279       1.85306315       7.51063911      -0.00003178      -0.00000511       0.00000163
S      183.19811103       3.69267587       9.08260655      -0.00000022      -0.00000007       0.00003878
S      183.19720693       3.69273366       5.94106051       0.00000097      -0.00000023      -0.00003600
Mo     181.60548759       0.92811759      13.69976575      -0.00003689      -0.00002894      -0.00000070
S      181.60585535       4.60728156      15.26933520      -0.00000014       0.00000013       0.00003865
S      181.60497572       4.60735310      12.12780534       0.00000080      -0.00000002      -0.00003950
Mo     180.01208155       3.68711624      13.70021845      -0.00005484      -0.00002575      -0.00000102
S      180.01242560       1.84743339      15.26978549      -0.00000060       0.00000008       0.00004033
S      180.01156107       1.84751764      12.12825992       0.00000003      -0.00000003      -0.00004182
Mo     184.79113639      -0.90682010       7.51017877      -0.00001294      -0.00000562       0.00000216
S      184.79150727       0.93279957       9.08214608       0.00000023      -0.00000004       0.00003783
S      184.79060066       0.93284974       5.94060090       0.00000135      -0.00000017      -0.00003400
Mo     186.38452349       1.85219255       7.50971809      -0.00000441      -0.00000026       0.00000258
S      186.38490239       3.69181846       9.08168492       0.00000050       0.00000022       0.00003699
S      186.38399848       3.69186220       5.94014125       0.00000157       0.00000009      -0.00003235
Mo     184.79228920       0.92874371      13.69884574      -0.00001333      -0.00004057       0.00000068
S      184.79268981      -0.91092942      15.26841898       0.00000065      -0.00000009       0.00003720
S      184.79179546      -0.91087873      12.12688281       0.00000123       0.00000018      -0.00003543
Mo     183.19888991       3.68788521      13.69930729      -0.00002099      -0.00003380       0.00000001
S      183.19927653       1.84820931      15.26887877       0.00000021       0.00000004       0.00003768
S      183.19838680       1.84826970      12.12734549       0.00000123       0.00000015      -0.00003721
Mo     187.97791416      -0.90759251       7.50925969      -0.00000578      -0.00000305       0.00000300
S      187.97829712       0.93203859       9.08122603       0.00000047       0.00000030       0.00003651
S      187.97740070       0.93207695       5.93968385       0.00000149       0.00000014      -0.00003109
Mo     189.57130827       1.85150366       7.50880605      -0.00001918      -0.00001473       0.00000337
S      189.57169118       3.69113895       9.08077209       0.00000036       0.00000016       0.00003618
S      189.57080691       3.69117281       5.93923101       0.00000121      -0.00000004      -0.00003000
Mo     187.97907941       0.92914023      13.69792456      -0.00002710      -0.00004715       0.00000116
S      187.97949444      -0.91052805      15.26750109       0.00000053       0.00000001       0.00003685
S      187.97860747      -0.91049303      12.12595961       0.00000091      -0.00000006      -0.00003392
Mo     186.38568564       3.68838819      13.69838391      -0.00001406      -0.00004539       0.00000099
S      186.38609577       1.84871755      15.26795877       0.00000079      -0.00000011       0.00003693
S      186.38520237       1.84875984      12.12641999       0.00000094       0.00000003      -0.00003444
Mo     191.16470490      -0.90821218       7.50835958      -0.00003804      -0.00002395       0.00000364
S      191.16508425       0.93142652       9.08032557       0.00000012       0.00000008       0.00003521
S      191.16421659       0.93145664       5.93878505       0.00000073      -0.00000015      -0.00002848
Mo     192.75810316       1.85094007       7.50792260      -0.00005727      -0.00002182       0.00000378
S      192.75847583       3.69058175       9.07988872      -0.00000025       0.00000018       0.00003306
S      192.75762912       3.69060878       5.93834836       0.00000023       0.00000000      -0.00002600
Mo     191.16585611       0.92936556      13.69702420      -0.00006624      -0.00005357       0.00000241
S      191.16626921      -0.91029812      15.26660469      -0.00000064      -0.00000003       0.00003584
S      191.16541152      -0.91027509      12.12505661       0.00000065       0.00000015      -0.00003054
Mo     189.57246978       3.68869280      13.69747041      -0.00004558      -0.00004905       0.00000162
S      189.57288575       1.84902686      15.26704881      -0.00000010       0.00000004       0.00003665
S      189.57201069       1.84905549      12.12550424       0.00000091      -0.00000001      -0.00003282
Mo     194.35150209      -0.90872971       7.50749733      -0.00007299      -0.00001645       0.00000392
S      194.35186538       0.93091435       9.07946387      -0.00000059       0.00000029       0.00002996
S      194.35104384       0.93093886       5.93792307      -0.00000015       0.00000018      -0.00002256
Mo     195.94490082       1.85046152       7.50708595      -0.00008321      -0.00001874       0.00000414
S      195.94525221       3.69010728       9.07905321      -0.00000082       0.00000025       0.00002661
S      195.94446004       3.69012975       5.93751136      -0.00000041       0.00000014      -0.00001872
Mo     194.35261350       0.92946156      13.69616635      -0.00009676      -0.00006389       0.00000359
S      194.35301162      -0.91019776      15.26575166      -0.00000086      -0.00000018       0.00003071
S      194.35220347      -0.91018369      12.12419508      -0.00000041       0.00000011      -0.00002315
Mo     192.75923758       3.68884931      13.69658869      -0.00008439      -0.00006020       0.00000318
S      192.75964455       1.84918782      15.26617149      -0.00000084      -0.00000019       0.00003383
S      192.75880937       1.84920600      12.12461938       0.00000016       0.00000016      -0.00002708
Mo     197.53829877      -0.90917571       7.50669064      -0.00008924      -0.00002939       0.00000442
S      197.53863565       0.93047116       9.07865883      -0.00000080       0.00000014       0.00002359
S      197.53787692       0.93049196       5.93711549      -0.00000055      -0.00000006      -0.00001510
Mo     199.13169546       1.85004101       7.50631345      -0.00009031      -0.00003848       0.00000467
S      199.13201548       3.68968869       9.07828258      -0.00000061       0.00000011       0.00002116
S      199.13129397       3.68970811       5.93673768      -0.00000060      -0.00000019      -0.00001213
Mo     197.53934749       0.92945707      13.69536913      -0.00010452      -0.00006362       0.00000365
S      197.53972134      -0.91019815      15.26495952      -0.00000090       0.00000011       0.00002360
S      197.53897777      -0.91019048      12.12339367      -0.00000049       0.00000016      -0.00001594
Mo     195.94598353       3.68889184      13.69575928      -0.00010371      -0.00006458       0.00000366
S      195.94637046       1.84923460      15.26534715      -0.00000084      -0.00000006       0.00002699
S      195.94559305       1.84924522      12.12378591      -0.00000062       0.00000008      -0.00001928
Mo     200.72509073      -0.90957768       7.50595624      -0.00008628      -0.00003719       0.00000484
S      200.72539191       0.93007086       9.07792616      -0.00000035       0.00000019       0.00001932
S      200.72471091       0.93008908       5.93637994      -0.00000056      -0.00000013      -0.00000990
Mo     202.31848459       1.84965262       7.50562055      -0.00007700      -0.00002945       0.00000492
S      202.31876545       3.68930201       9.07759111      -0.00000008       0.00000025       0.00001810
S      202.31812769       3.68931919       5.93604384      -0.00000041       0.00000001      -0.00000847
Mo     200.72605812       0.92937521      13.69464522      -0.00009030      -0.00007196       0.00000408
S      200.72640098      -0.91027672      15.26423996      -0.00000080       0.00000004       0.00001958
S      200.72573315      -0.91027386      12.12266617       0.00000012       0.00000025      -0.00001123
Mo     199.13270556       3.68884627      13.69499733      -0.00009989      -0.00006687       0.00000379
S      199.13306465       1.84919279      15.26459002      -0.00000093       0.00000011       0.00002103
S      199.13235766       1.84919789      12.12301997      -0.00000018       0.00000023      -0.00001316
Mo     203.91187722      -0.90995509       7.50530765      -0.00006406      -0.00002381       0.00000497
S      203.91213664       0.92969504       9.07727869       0.00000012       0.00000025       0.00001743
S      203.91154425       0.92971130       5.93573060      -0.00000021       0.00000008      -0.00000766
Mo     205.50526895       1.84928453       7.50501848      -0.00005076      -0.00002739       0.00000502
S      205.50550587       3.68893515       9.07698993       0.00000026       0.00000019       0.00001722
S      205.50496052       3.68895061       5.93544114       0.00000001       0.00000003      -0.00000736
Mo     203.91274922       0.92923013      13.69400499      -0.00006236      -0.00007710       0.00000453
S      203.91305570      -0.91041928      15.26360293      -0.00000019      -0.00000008       0.00001908
S      203.91247299      -0.91042001      12.12202334       0.00000031       0.00000017      -0.00000990
Mo     202.31940577       3.68873151      13.69431405      -0.00007710      -0.00007701       0.00000437
S      202.31973105       1.84908090      15.26391053      -0.00000053      -0.00000007       0.00001900
S      202.31910475       1.84908181      12.12233359       0.00000027       0.00000019      -0.00001012
Mo     207.09866007      -0.91031620       7.50475378      -0.00003967      -0.00003596       0.00000504
S      207.09887354       0.92933478       9.07672555       0.00000034       0.00000019       0.00001717
S      207.09837639       0.92934951       5.93517619       0.00000017      -0.00000004      -0.00000728
Mo     208.69205078       1.84892705       7.50451406      -0.00003149      -0.00004238       0.00000502
S      208.69224004       3.68857838       9.07648605       0.00000039       0.00000022       0.00001711
S      208.69179184       3.68859245       5.93493627       0.00000025      -0.00000008      -0.00000730
Mo     207.09942660       0.92903236      13.69345679      -0.00003681      -0.00006987       0.00000447
S      207.09969223      -0.91061522      15.26305683       0.00000030       0.00000000       0.00001989
S      207.09920132      -0.91061840      12.12147344       0.00000024       0.00000018      -0.00001082
Mo     205.50608925       3.68855864      13.69371899      -0.00004849      -0.00007369       0.00000455
S      205.50637579       1.84891024      15.26331811       0.00000011      -0.00000004       0.00001944
S      205.50583836       1.84890816      12.12173639       0.00000028       0.00000016      -0.00001023
Mo     210.28544116      -0.91067332       7.50429956      -0.00002530      -0.00004049       0.00000494
S      210.28560584       0.92897848       9.07627169       0.00000042       0.00000026       0.00001693
S      210.28520687       0.92899192       5.93472163       0.00000027      -0.00000006      -0.00000731
Mo     211.87883121       1.84856831       7.50411033      -0.00002014      -0.00003062       0.00000481
S      211.87897134       3.68822067       9.07608251       0.00000044       0.00000025       0.00001672
S      211.87862145       3.68823352       5.93453230       0.00000022      -0.00000003      -0.00000738
Mo     210.28609561       0.92879271      13.69300561      -0.00001920      -0.00007343       0.00000426
S      210.28631769      -0.91085397      15.26260676       0.00000046      -0.00000002       0.00002049
S      210.28592200      -0.91085873      12.12102133       0.00000018       0.00000020      -0.00001182
Mo     208.69276186       3.68833880      13.69321889      -0.00002711      -0.00006934       0.00000437
S      208.69300592       1.84869180      15.26281960       0.00000041       0.00000000       0.00002026
S      208.69256238       1.84868774      12.12123498       0.00000021       0.00000020      -0.00001139
Mo     213.47222092      -0.91103387       7.50394617      -0.00001541      -0.00001800       0.00000463
S      213.47233685       0.92861904       9.07591835       0.00000045       0.00000021       0.00001662
S      213.47203549       0.92863133       5.93436805       0.00000014       0.00000000      -0.00000764
Mo     215.06561026       1.84820697       7.50380669      -0.00001156      -0.00000943       0.00000442
S      215.06570254       3.68786031       9.07577887       0.00000044       0.00000017       0.00001684
S      215.06544877       3.68787207       5.93422844       0.00000004       0.00000000      -0.00000829
Mo     213.47276037       0.92851624      13.69265327      -0.00000722      -0.00008269       0.00000401
S      213.47293831      -0.91113023      15.26225480       0.00000047      -0.00000006       0.00002064
S      213.47263826      -0.91113587      12.12066857       0.00000009       0.00000015      -0.00001246
Mo     211.87942831       3.68808053      13.69281709      -0.00001259      -0.00007866       0.00000415
S      211.87962827       1.84843402      15.26241851       0.00000047      -0.00000005       0.00002060
S      211.87928054       1.84842874      12.12083254       0.00000014       0.00000018      -0.00001214
Mo     216.65899919      -0.91139491       7.50369133      -0.00000918      -0.00000870       0.00000420
S      216.65906841       0.92825867       9.07566353       0.00000041       0.00000012       0.00001756
S      216.65886099       0.92826994       5.93411289      -0.00000009      -0.00000003      -0.00000947
Mo     218.25238759       1.84784643       7.50359936      -0.00000817      -0.00001560       0.00000395
S      218.25243440       3.68750006       9.07557162       0.00000038       0.00000011       0.00001887
S      218.25227179       3.68751085       5.93402068      -0.00000022      -0.00000005      -0.00001128
Mo     216.65942406       0.92820436      13.69239854      -0.00000065      -0.00007564       0.00000357
S      216.65955876      -0.91144210      15.26199998       0.00000039      -0.00000001       0.00002107
S      216.65935176      -0.91144795      12.12041374      -0.00000004       0.00000013      -0.00001372
Mo     215.06609219       3.68778606      13.69251390      -0.00000331      -0.00008157       0.00000382
S      215.06624832       1.84813962      15.26211544       0.00000044      -0.00000003       0.00002076
S      215.06599531       1.84813380      12.12052912       0.00000002       0.00000014      -0.00001295
Mo     219.84577533      -0.91175599       7.50352994      -0.00000838      -0.00002654       0.00000369
S      219.84580041       0.92789758       9.07550227       0.00000036       0.00000012       0.00002080
S      219.84568081       0.92790791       5.93395096      -0.00000034      -0.00000006      -0.00001375
Mo     221.43916225       1.84748286       7.50348206      -0.00000915      -0.00003705       0.00000342
S      221.43916641       3.68713633       9.07545447       0.00000035       0.00000015       0.00002325
S      221.43908776       3.68714620       5.93390276      -0.00000044      -0.00000004      -0.00001676
Mo     219.84608899       0.92786213      13.69223711       0.00000114      -0.00005512       0.00000296
S      219.84618241      -0.91178449      15.26183804       0.00000028       0.00000000       0.00002275
S      219.84606297      -0.91178997      12.12025245      -0.00000014       0.00000014      -0.00001656
Mo     218.25275626       3.68745808      13.69230655       0.00000069      -0.00006609       0.00000328
S      218.25287000       1.84781157      15.26190779       0.00000033       0.00000001       0.00002172
S      218.25270763       1.84780584      12.12032179      -0.00000010       0.00000014      -0.00001492
Mo     223.03254816      -0.91212417       7.50345461      -0.00001006      -0.00004488       0.00000313
S      223.03253239       0.92752923       9.07542710       0.00000037       0.00000016       0.00002606
S      223.03249239       0.92753861       5.93387496      -0.00000048      -0.00000002      -0.00002017
Mo     224.62593292       1.84710833       7.50344636      -0.00001060      -0.00004814       0.00000284
S      224.62589837       3.68676170       9.07541893       0.00000040       0.00000018       0.00002894
S      224.62589452       3.68677058       5.93386632      -0.00000049       0.00000002      -0.00002365
Mo     223.03275669       0.92749775      13.69216184       0.00000103      -0.00003632       0.00000222
S      223.03281202      -0.91214933      15.26176189       0.00000024      -0.00000002       0.00002582
S      223.03277219      -0.91215407      12.12017757      -0.00000015       0.00000014      -0.00002103
Mo     221.43942242       3.68710375      13.69218924       0.00000114      -0.00004509       0.00000260
S      221.43949632       1.84745694      15.26178977       0.00000025      -0.00000001       0.00002417
S      221.43941780       1.84745179      12.12020476      -0.00000015       0.00000014      -0.00001865
Mo     226.21931637      -0.91250609       7.50345596      -0.00001068      -0.00004787       0.00000253
S      226.21926436       0.92714730       9.07542865       0.00000042       0.00000018       0.00003158
S      226.21929400       0.92715564       5.93387550      -0.00000046       0.00000004      -0.00002690
Mo     227.81269843       1.84671871       7.50348201      -0.00001076      -0.00004426       0.00000221
S      227.81263038       3.68637218       9.07545485       0.00000042       0.00000017       0.00003356
S      227.81269068       3.68637996       5.93390107      -0.00000041       0.00000005      -0.00002952
Mo     226.21942824       0.92711817      13.69216339       0.00000098      -0.00002674       0.00000142
S      226.21944988      -0.91252970      15.26176229       0.00000029      -0.00000005       0.00002893
S      226.21947988      -0.91253350      12.12017970      -0.00000015       0.00000010      -0.00002567
Mo     224.62609192       3.68673109      13.69215366       0.00000109      -0.00003049       0.00000182
S      224.62612979       1.84708365      15.26175316       0.00000025      -0.00000003       0.00002751
S      224.62612619       1.84707937      12.12016967      -0.00000015       0.00000013      -0.00002347
Mo     229.40607899      -0.91290310       7.50352302      -0.00001121      -0.00003951       0.00000187
S      229.40599640       0.92675045       9.07549609       0.00000040       0.00000015       0.00003464
S      229.40608446       0.92675764       5.93394151      -0.00000035       0.00000005      -0.00003128
Mo     230.99945794       1.84631502       7.50357747      -0.00001209      -0.00003396       0.00000152
S      230.99936236       3.68596864       9.07555085       0.00000036       0.00000013       0.00003467
S      230.99947520       3.68597523       5.93399531      -0.00000030       0.00000005      -0.00003200
Mo     229.40610450       0.92672709      13.69223088      -0.00000049      -0.00002328       0.00000063
S      229.40609769      -0.91292175      15.26182858       0.00000037      -0.00000005       0.00003009
S      229.40618645      -0.91292454      12.12024774      -0.00000021       0.00000007      -0.00002836
Mo     227.81276575       3.68634547      13.69218962       0.00000039      -0.00002436       0.00000102
S      227.81277247       1.84669713      15.26178791       0.00000033      -0.00000005       0.00002985
S      227.81283329       1.84669383      12.12020622      -0.00000017       0.00000009      -0.00002737
Mo     232.59283516      -0.91331265       7.50364381      -0.00001297      -0.00002931       0.00000116
S      232.59272816       0.92634101       9.07561761       0.00000030       0.00000012       0.00003368
S      232.59286280       0.92634699       5.93406089      -0.00000025       0.00000005      -0.00003173
Mo     234.18621055       1.84590042       7.50372050      -0.00001367      -0.00002585       0.00000080
S      234.18609368       3.68555408       9.07569480       0.00000024       0.00000010       0.00003181
S      234.18624712       3.68555946       5.93413673      -0.00000023       0.00000003      -0.00003057
Mo     232.59278572       0.92632609      13.69235241      -0.00000277      -0.00002270      -0.00000006
S      232.59275625      -0.91332376      15.26194904       0.00000040      -0.00000004       0.00002838
S      232.59289196      -0.91332553      12.12036967      -0.00000033       0.00000005      -0.00002801
Mo     230.99944449       3.68594930      13.69228565      -0.00000161      -0.00002253       0.00000028
S      230.99942560       1.84629997      15.26188280       0.00000040      -0.00000004       0.00002960
S      230.99953934       1.84629768      12.12030273      -0.00000027       0.00000007      -0.00002857
Mo     235.77958402      -0.91373167       7.50380601      -0.00001401      -0.00002370       0.00000044
S      235.77945882       0.92592195       9.07578088       0.00000020       0.00000008       0.00002929
S      235.77962812       0.92592672       5.93422133      -0.00000021       0.00000001      -0.00002875
Mo     237.37295556       1.84547733       7.50389881      -0.00001397      -0.00002248       0.00000010
S      237.37282349       3.68513090       9.07587428       0.00000018       0.00000007       0.00002637
S      237.37300575       3.68513508       5.93431320      -0.00000020      -0.00000000      -0.00002650
Mo     235.77947182       0.92591583      13.69251562      -0.00000465      -0.00002344      -0.00000063
S      235.77942570      -0.91373503      15.26211134       0.00000038      -0.00000002       0.00002441
S      235.77959633      -0.91373578      12.12053313      -0.00000040       0.00000006      -0.00002524
Mo     234.18612817       3.68554362      13.69242958      -0.00000370      -0.00002266      -0.00000036
S      234.18608963       1.84589327      15.26202575       0.00000040      -0.00000002       0.00002659
S      234.18624430       1.84589202      12.12044697      -0.00000037       0.00000006      -0.00002684
Mo     238.96632515      -0.91415867       7.50399745      -0.00001375      -0.00002200      -0.00000023
S      238.96618763       0.92549484       9.07597353       0.00000017       0.00000007       0.00002331
S      238.96638005       0.92549845       5.93441091      -0.00000018      -0.00000000      -0.00002407
Mo     240.55969283       1.84504649       7.50410050      -0.00001378      -0.00002300      -0.00000052
S      240.55955120       3.68469990       9.07607720       0.00000017       0.00000007       0.00002034
S      240.55975106       3.68470297       5.93451304      -0.00000017      -0.00000001      -0.00002167
Mo     238.96616259       0.92549646      13.69270826      -0.00000608      -0.00002555      -0.00000111
S      238.96610571      -0.91415538      15.26230316       0.00000031       0.00000000       0.00001988
S      238.96629959      -0.91415515      12.12072599      -0.00000038       0.00000007      -0.00002172
Mo     237.37281663       3.68512884      13.69260901      -0.00000539      -0.00002439      -0.00000088
S      237.37276442       1.84547748      15.26220431       0.00000035       0.00000000       0.00002211
S      237.37294809       1.84547723      12.12062663      -0.00000040       0.00000007      -0.00002347
Mo     242.15305863      -0.91459350       7.50420660      -0.00001404      -0.00002441      -0.00000079
S      242.15291414       0.92505980       9.07618390       0.00000015       0.00000007       0.00001759
S      242.15311887       0.92506236       5.93461824      -0.00000017      -0.00000001      -0.00001942
Mo     243.74642258       1.84460736       7.50431446      -0.00001433      -0.00002673      -0.00000102
S      243.74627639       3.68426052       9.07629235       0.00000012       0.00000008       0.00001510
S      243.74648358       3.68426260       5.93472523      -0.00000018      -0.00000002      -0.00001738
Mo     242.15285778       0.92506760      13.69291871      -0.00000796      -0.00002928      -0.00000150
S      242.15279562      -0.91458517      15.26251280       0.00000021      -0.00000000       0.00001616
S      242.15300192      -0.91458404      12.12093667      -0.00000032       0.00000008      -0.00001885
Mo     240.55950965       3.68470480      13.69281195      -0.00000695      -0.00002709      -0.00000131
S      240.55944948       1.84505249      15.26240644       0.00000026       0.00000001       0.00001789
S      240.55965085       1.84505318      12.12082979      -0.00000035       0.00000008      -0.00002017
Mo     245.33978472      -0.91503734       7.50442289      -0.00001469      -0.00002912      -0.00000122
S      245.33963792       0.92461569       9.07640135       0.00000006       0.00000010       0.00001278
S      245.33984529       0.92461732       5.93483282      -0.00000019      -0.00000000      -0.00001543
Mo     246.93314509       1.84415833       7.50453077      -0.00001516      -0.00003230      -0.00000139
S      246.93299865       3.68381118       9.07650981      -0.00000000       0.00000013       0.00001044
S      246.93320415       3.68381240       5.93493987      -0.00000018       0.00000001      -0.00001341
Mo     245.33955692       0.92462821      13.69313641      -0.00001053      -0.00003423      -0.00000180
S      245.33949440      -0.91502539      15.26272980       0.00000010      -0.00000002       0.00001319
S      245.33970348      -0.91502347      12.12115460      -0.00000028       0.00000008      -0.00001658
Mo     243.74620690       3.68427085      13.69302726      -0.00000925      -0.00003158      -0.00000166
S      243.74614398       1.84461765      15.26262098       0.00000015      -0.00000001       0.00001465
S      243.74635279       1.84461919      12.12104535      -0.00000029       0.00000008      -0.00001772
Mo     248.52650374      -0.91549211       7.50463709      -0.00001562      -0.00003557      -0.00000155
S      248.52635853       0.92416056       9.07661673      -0.00000008       0.00000015       0.00000782
S      248.52656027       0.92416142       5.93504538      -0.00000016       0.00000002      -0.00001106
Mo     250.11986068       1.84369719       7.50474095      -0.00001559      -0.00003924      -0.00000169
S      250.11971748       3.68334966       9.07672122      -0.00000017       0.00000017       0.00000464
S      250.11991381       3.68335019       5.93514842      -0.00000011       0.00000003      -0.00000812
Mo     248.52625924       0.92417668      13.69335219      -0.00001263      -0.00004059      -0.00000198
S      248.52620064      -0.91547760      15.26294510       0.00000004      -0.00000005       0.00000945
S      248.52640429      -0.91547501      12.12137047      -0.00000029       0.00000008      -0.00001329
Mo     246.93290774       3.68382561      13.69324506      -0.00001165      -0.00003713      -0.00000191
S      246.93284669       1.84417166      15.26283817       0.00000006      -0.00000004       0.00001155
S      246.93305399       1.84417393      12.12126331      -0.00000028       0.00000008      -0.00001520
Mo     251.71321599      -0.91596027       7.50484156      -0.00001549      -0.00004320      -0.00000182
S      251.71307546       0.92369199       9.07682250      -0.00000025       0.00000019       0.00000066
S      251.71326491       0.92369224       5.93524818      -0.00000004       0.00000004      -0.00000434
Mo     253.30656973       1.84322128       7.50493823      -0.00001534      -0.00004677      -0.00000195
S      253.30643242       3.68287333       9.07691987      -0.00000033       0.00000021      -0.00000426
S      253.30661375       3.68287334       5.93534400       0.00000004       0.00000005       0.00000040
Mo     251.71296381       0.92371088      13.69355844      -0.00001418      -0.00004766      -0.00000199
S      251.71291267      -0.91594393      15.26315123       0.00000006      -0.00000007       0.00000279
S      251.71310427      -0.91594082      12.12157654      -0.00000031       0.00000010      -0.00000677
Mo     250.11961130       3.68336725      13.69345692      -0.00001345      -0.00004406      -0.00000201
S      250.11955605       1.84371268      15.26304971       0.00000004      -0.00000006       0.00000660
S      250.11975440       1.84371555      12.12147515      -0.00000030       0.00000009      -0.00001055
Mo     254.89992195      -0.91644462       7.50503038      -0.00001519      -0.00005066      -0.00000208
S      254.89978832       0.92320719       9.07701277      -0.00000039       0.00000022      -0.00001018
S      254.89996050       0.92320699       5.93543526       0.00000013       0.00000004       0.00000615
Mo     256.49327274       1.84272778       7.50511754      -0.00001506      -0.00005431      -0.00000220
S      256.49314311       3.68237937       9.07710073      -0.00000044       0.00000023      -0.00001703
S      256.49330533       3.68237901       5.93552153       0.00000022       0.00000002       0.00001286
Mo     254.89966963       0.92322833      13.69374924      -0.00001526      -0.00005544      -0.00000181
S      254.89962870      -0.91642685      15.26334237       0.00000015      -0.00000007      -0.00000821
S      254.89980328      -0.91642336      12.12176680      -0.00000033       0.00000013       0.00000443
Mo     253.30631663       3.68289341      13.69365608      -0.00001479      -0.00005173      -0.00000192
S      253.30627030       1.84323839      15.26324897       0.00000010      -0.00000008      -0.00000214
S      253.30645390       1.84324171      12.12167395      -0.00000032       0.00000011      -0.00000178
Mo     258.08662213      -0.91694799       7.50519936      -0.00001496      -0.00005824      -0.00000232
S      258.08649678       0.92270335       9.07718337      -0.00000048       0.00000023      -0.00002460
S      258.08664840       0.92270287       5.93560243       0.00000028      -0.00000000       0.00002031
Mo     259.67997023       1.84221384       7.50527556      -0.00001525      -0.00006148      -0.00000242
S      259.67984928       3.68186494       9.07726040      -0.00000050       0.00000023      -0.00003259
S      259.67998987       3.68186437       5.93567773       0.00000032      -0.00000001       0.00002820
Mo     258.08637572       0.92272634      13.69392039      -0.00001665      -0.00006313      -0.00000145
S      258.08634691      -0.91692903      15.26351429       0.00000020      -0.00000003      -0.00002316
S      258.08650113      -0.91692531      12.12193707      -0.00000034       0.00000020       0.00001990
Mo     256.49302271       3.68240147      13.69383747      -0.00001595      -0.00005941      -0.00000165
S      256.49298764       1.84274617      15.26343093       0.00000019      -0.00000006      -0.00001531
S      256.49315236       1.84274979      12.12185463      -0.00000034       0.00000016       0.00001175
Mo     261.27331708      -0.91747319       7.50534598      -0.00001555      -0.00006469      -0.00000250
S      261.27320062       0.92217767       9.07733165      -0.00000051       0.00000023      -0.00004059
S      261.27332994       0.92217704       5.93574728       0.00000032      -0.00000004       0.00003614
Mo     262.86666276       1.84167677       7.50541055      -0.00001609      -0.00006777      -0.00000256
S      262.86655076       3.68132739       9.07739701      -0.00000049       0.00000022      -0.00004816
S      262.86666873       3.68132673       5.93581103       0.00000029      -0.00000006       0.00004370
Mo     261.27308110       0.92220231      13.69406934      -0.00001831      -0.00007034      -0.00000098
S      261.27306558      -0.91745310      15.26366429       0.00000014       0.00000001      -0.00003958
S      261.27319764      -0.91744929      12.12208495      -0.00000032       0.00000026       0.00003708
Mo     259.67972856       3.68188878      13.69399774      -0.00001739      -0.00006692      -0.00000122
S      259.67970629       1.84223337      15.26359213       0.00000019      -0.00000002      -0.00003140
S      259.67984957       1.84223715      12.12201390      -0.00000034       0.00000023       0.00002850
Mo     264.46000732      -0.91802273       7.50546927      -0.00001670      -0.00007032      -0.00000258
S      264.45989971       0.92162765       9.07745646      -0.00000047       0.00000022      -0.00005496
S      264.46000641       0.92162700       5.93586902       0.00000024      -0.00000007       0.00005055
Mo     266.05335084       1.84111422       7.50552224      -0.00001729      -0.00007263      -0.00000257
S      266.05324745       3.68076437       9.07751010      -0.00000044       0.00000024      -0.00006078
S      266.05334311       3.68076375       5.93592132       0.00000018      -0.00000008       0.00005647
Mo     264.45978492       0.92165379      13.69419507      -0.00002030      -0.00007641      -0.00000047
S      264.45978312      -0.91800149      15.26379113      -0.00000002       0.00000004      -0.00005416
S      264.45989261      -0.91799771      12.12220961      -0.00000026       0.00000031       0.00005248
Mo     262.86643325       3.68135278      13.69413512      -0.00001932      -0.00007345      -0.00000072
S      262.86642458       1.84169742      15.26373063       0.00000007       0.00000003      -0.00004729
S      262.86654533       1.84170123      12.12215018      -0.00000030       0.00000029       0.00004521
Mo     267.64669338      -0.91859874       7.50556960      -0.00001755      -0.00007425      -0.00000253
S      267.64659402       0.92105118       9.07755806      -0.00000040       0.00000024      -0.00006559
S      267.64667897       0.92105062       5.93596811       0.00000013      -0.00000007       0.00006145
Mo     269.24003499       1.84052439       7.50561158      -0.00001761      -0.00007566      -0.00000246
S      269.23993942       3.68017409       9.07760056      -0.00000036       0.00000025      -0.00006947
S      269.24001412       3.68017360       5.93600958       0.00000010      -0.00000007       0.00006554
Mo     267.64648645       0.92107875      13.69429787      -0.00002136      -0.00008075       0.00000001
S      267.64649820      -0.91857627      15.26389496      -0.00000018       0.00000003      -0.00006466
S      267.64658589      -0.91857263      12.12231149      -0.00000018       0.00000033       0.00006377
Mo     266.05313600       3.68079123      13.69424928      -0.00002090      -0.00007879      -0.00000022
S      266.05314104       1.84113607      15.26384587      -0.00000011       0.00000004      -0.00005997
S      266.05323947       1.84113978      12.12226333      -0.00000022       0.00000032       0.00005869
Mo     270.83337577      -0.91920269       7.50564843      -0.00001750      -0.00007608      -0.00000237
S      270.83328370       0.92044682       9.07763788      -0.00000032       0.00000027      -0.00007261
S      270.83334868       0.92044641       5.93604601       0.00000008      -0.00000005       0.00006891
Mo     272.42671577       1.83990616       7.50568046      -0.00001707      -0.00007644      -0.00000227
S      272.42662688       3.67955546       9.07767033      -0.00000028       0.00000028      -0.00007522
S      272.42668277       3.67955516       5.93607767       0.00000009      -0.00000004       0.00007177
Mo     270.83318526       0.92047568      13.69437911      -0.00002134      -0.00008312       0.00000044
S      270.83320983      -0.91917899      15.26397709      -0.00000026       0.00000001      -0.00007117
S      270.83327742      -0.91917557      12.12239199      -0.00000009       0.00000032       0.00007103
Mo     269.23983622       3.68020232      13.69434107      -0.00002153      -0.00008227       0.00000023
S      269.23985450       1.84054747      15.26393861      -0.00000024       0.00000002      -0.00006832
S      269.23993188       1.84055101      12.12235430      -0.00000014       0.00000032       0.00006781
Mo     274.02005505      -0.91983527       7.50570802      -0.00001637      -0.00007632      -0.00000216
S      274.01996902       0.91981385       9.07769828      -0.00000026       0.00000029      -0.00007758
S      274.02001648       0.91981367       5.93610489       0.00000011      -0.00000003       0.00007440
Mo     275.61339368       1.83925919       7.50573147      -0.00001535      -0.00007538      -0.00000205
S      275.61331017       3.67890815       9.07772209      -0.00000026       0.00000029      -0.00007993
S      275.61334991       3.67890809       5.93612803       0.00000013      -0.00000003       0.00007701
Mo     274.01988109       0.91984377      13.69444097      -0.00002001      -0.00008308       0.00000085
S      274.01991733      -0.91981048      15.26403978      -0.00000023      -0.00000002      -0.00007555
S      274.01996720      -0.91980732      12.12245320      -0.00000003       0.00000029       0.00007611
Mo     272.42653355       3.67958488      13.69441230      -0.00002080      -0.00008343       0.00000065
S      272.42656413       1.83993042      15.26401070      -0.00000026      -0.00000001      -0.00007348
S      272.42662253       1.83993372      12.12242485      -0.00000005       0.00000031       0.00007369
Mo     277.20673173      -0.92049652       7.50575118      -0.00001438      -0.00007361      -0.00000195
S      277.20665038       0.91915229       9.07774216      -0.00000026       0.00000029      -0.00008248
S      277.20668315       0.91915236       5.93614745       0.00000016      -0.00000002       0.00007981
Mo     278.80006924       1.83858390       7.50576754      -0.00001308      -0.00007104      -0.00000186
S      278.79998974       3.67823258       9.07775887      -0.00000028       0.00000029      -0.00008537
S      278.80001626       3.67823278       5.93616353       0.00000019      -0.00000001       0.00008292
Mo     277.20657388       0.91918306      13.69448619      -0.00001750      -0.00008036       0.00000125
S      277.20662037      -0.92047071      15.26408585      -0.00000016      -0.00000004      -0.00007999
S      277.20665531      -0.92046784      12.12249777      -0.00000003       0.00000027       0.00008125
Mo     275.61322786       3.67893851      13.69446548      -0.00001894      -0.00008213       0.00000105
S      275.61326942       1.83928450      15.26406470      -0.00000020      -0.00000003      -0.00007765
S      275.61331146       1.83928752      12.12247739      -0.00000002       0.00000028       0.00007855
Mo     280.39340627      -0.92118546       7.50578095      -0.00001171      -0.00006828      -0.00000179
S      280.39332830       0.91846310       9.07777263      -0.00000030       0.00000027      -0.00008865
S      280.39334931       0.91846343       5.93617664       0.00000021      -0.00000001       0.00008638
Mo     281.98674286       1.83788178       7.50579176      -0.00001028      -0.00006446      -0.00000173
S      281.98666613       3.67753026       9.07778379      -0.00000032       0.00000025      -0.00009229
S      281.98668234       3.67753071       5.93618717       0.00000022      -0.00000002       0.00009018
Mo     280.39326376       0.91849460      13.69451779      -0.00001440      -0.00007469       0.00000165
S      280.39331889      -0.92115868      15.26411834      -0.00000008      -0.00000004      -0.00008590
S      280.39334181      -0.92115611      12.12252865      -0.00000009       0.00000025       0.00008787
Mo     278.79991917       3.67826372      13.69450350      -0.00001596      -0.00007768       0.00000145
S      278.79997019       1.83861020      15.26410360      -0.00000012      -0.00000004      -0.00008272
S      278.79999875       1.83861292      12.12251473      -0.00000005       0.00000026       0.00008434
Mo     283.58007909      -0.92190018       7.50580035      -0.00000914      -0.00006013      -0.00000170
S      283.58000331       0.91774823       9.07779273      -0.00000032       0.00000023      -0.00009620
S      283.58001539       0.91774880       5.93619547       0.00000022      -0.00000003       0.00009421
Mo     285.17341496       1.83715519       7.50580705      -0.00000817      -0.00005511      -0.00000168
S      285.17333991       3.67680354       9.07779976      -0.00000031       0.00000021      -0.00010022
S      285.17334849       3.67680423       5.93620188       0.00000023      -0.00000003       0.00009833
Mo     283.57995100       0.91778045      13.69453874      -0.00001117      -0.00006683       0.00000205
S      283.58001314      -0.92187235      15.26414025      -0.00000002      -0.00000002      -0.00009347
S      283.58002683      -0.92187006      12.12254883      -0.00000014       0.00000024       0.00009614
Mo     281.98660769       3.67756211      13.69452941      -0.00001283      -0.00007100       0.00000186
S      281.98666652       1.83790907      15.26413044      -0.00000005      -0.00000004      -0.00008951
S      281.98668450       1.83791150      12.12253989      -0.00000012       0.00000024       0.00009184
Mo     286.76675052      -0.92263782       7.50581216      -0.00000716      -0.00004956      -0.00000167
S      286.76667601       0.91701051       9.07780518      -0.00000027       0.00000018      -0.00010416
S      286.76668164       0.91701129       5.93620672       0.00000022      -0.00000004       0.00010234
Mo     288.36008579       1.83640745       7.50581595      -0.00000597      -0.00004380      -0.00000167
S      288.36001168       3.67605575       9.07780926      -0.00000022       0.00000014      -0.00010778
S      288.36001486       3.67605662       5.93621027       0.00000020      -0.00000005       0.00010601
Mo     286.76663598       0.91704350      13.69455180      -0.00000811      -0.00005715       0.00000242
S      286.76670361      -0.92260886      15.26415422       0.00000004       0.00000000      -0.00010169
S      286.76671050      -0.92260680      12.12256113      -0.00000014       0.00000022       0.00010499
Mo     285.17329374       3.67683615      13.69454611      -0.00000959      -0.00006216       0.00000224
S      285.17335881       1.83718358      15.26414808       0.00000001      -0.00000001      -0.00009760
S      285.17336882       1.83718575      12.12255580      -0.00000014       0.00000023       0.00010061
Mo     289.95342081      -0.92339466       7.50581867      -0.00000467      -0.00003764      -0.00000168
S      289.95334701       0.91625365       9.07781220      -0.00000017       0.00000011      -0.00011085
S      289.95334814       0.91625459       5.93621279       0.00000017      -0.00000007       0.00010910
Mo     291.54675564       1.83564256       7.50582048      -0.00000354      -0.00003156      -0.00000169
S      291.54668209       3.67529089       9.07781418      -0.00000010       0.00000008      -0.00011310
S      291.54668149       3.67529188       5.93621446       0.00000011      -0.00000008       0.00011137
Mo     289.95331920       0.91628730      13.69455922      -0.00000495      -0.00004626       0.00000269
S      289.95339105      -0.92336470      15.26416236       0.00000004       0.00000004      -0.00010868
S      289.95339300      -0.92336281      12.12256792      -0.00000010       0.00000020       0.00011245
Mo     288.35997777       3.67608911      13.69455610      -0.00000658      -0.00005199       0.00000257
S      288.36004765       1.83643694      15.26415891       0.00000005       0.00000002      -0.00010548
S      288.36005188       1.83643890      12.12256509      -0.00000012       0.00000020       0.00010904
Mo     293.14009031      -0.92416650       7.50582153      -0.00000244      -0.00002508      -0.00000169
S      293.14001702       0.91548187       9.07781531      -0.00000002       0.00000006      -0.00011433
S      293.14001490       0.91548290       5.93621543       0.00000005      -0.00000008       0.00011261
Mo     294.73342488       1.83486489       7.50582189      -0.00000149      -0.00001859      -0.00000168
S      294.73335190       3.67451332       9.07781567       0.00000005       0.00000003      -0.00011441
S      294.73334837       3.67451437       5.93621579      -0.00000001      -0.00000008       0.00011270
Mo     293.14000133       0.91551585      13.69456259      -0.00000180      -0.00003435       0.00000283
S      293.14007642      -0.92413588      15.26416612      -0.00000001       0.00000006      -0.00011230
S      293.14007463      -0.92413409      12.12257094      -0.00000004       0.00000017       0.00011631
Mo     291.54666035       3.67532475      13.69456134      -0.00000332      -0.00004049       0.00000278
S      291.54673392       1.83567291      15.26416473       0.00000002       0.00000005      -0.00011102
S      291.54673390       1.83567473      12.12256982      -0.00000007       0.00000019       0.00011494
Mo     296.32675938      -0.92494884       7.50582159      -0.00000032      -0.00001217      -0.00000168
S      296.32668683       0.91469966       9.07781530       0.00000013       0.00000001      -0.00011335
S      296.32668189       0.91470072       5.93621557      -0.00000007      -0.00000007       0.00011164
Mo     297.92009387       1.83407905       7.50582060       0.00000095      -0.00000562      -0.00000166
S      297.92002191       3.67372764       9.07781416       0.00000020      -0.00000000      -0.00011128
S      297.92001545       3.67372868       5.93621472      -0.00000012      -0.00000005       0.00010957
Mo     296.32668317       0.91473351      13.69456271       0.00000123      -0.00002125       0.00000280
S      296.32676086      -0.92491804      15.26416624      -0.00000008       0.00000006      -0.00011134
S      296.32675572      -0.92491629      12.12257107       0.00000002       0.00000012       0.00011530
Mo     294.73334224       3.67454729      13.69456303      -0.00000031      -0.00002791       0.00000283
S      294.73341869       1.83489566      15.26416662      -0.00000005       0.00000006      -0.00011241
S      294.73341522       1.83489742      12.12257134      -0.00000001       0.00000014       0.00011643
Mo     299.51342838      -0.92573700       7.50581884       0.00000244       0.00000043      -0.00000165
S      299.51335724       0.91391170       9.07781218       0.00000026      -0.00000002      -0.00010842
S      299.51334904       0.91391270       5.93621315      -0.00000015      -0.00000004       0.00010670
Mo     301.10676299       1.83328972       7.50581616       0.00000382       0.00000637      -0.00000165
S      301.10669291       3.67293854       9.07780923       0.00000031      -0.00000003      -0.00010503
S      301.10668267       3.67293949       5.93621071      -0.00000017      -0.00000002       0.00010327
Mo     299.51336548       0.91394499      13.69455958       0.00000455      -0.00000799       0.00000261
S      299.51344552      -0.92570651      15.26416271      -0.00000010       0.00000003      -0.00010625
S      299.51343663      -0.92570469      12.12256827       0.00000007       0.00000004       0.00010989
Mo     297.92002421       3.67376125      13.69456159       0.00000289      -0.00001444       0.00000272
S      297.92010309       1.83410975      15.26416496      -0.00000009       0.00000005      -0.00010921
S      297.92009617       1.83411152      12.12257007       0.00000005       0.00000008       0.00011304
Mo     302.70009774      -0.92652641       7.50581237       0.00000503       0.00001183      -0.00000166
S      302.70002901       0.91312255       9.07780514       0.00000034      -0.00000004      -0.00010134
S      302.70001632       0.91312343       5.93620718      -0.00000017      -0.00000001       0.00009952
Mo     304.29343266       1.83250128       7.50580725       0.00000616       0.00001701      -0.00000168
S      304.29336562       3.67215037       9.07779970       0.00000036      -0.00000006      -0.00009759
S      304.29334998       3.67215118       5.93620233      -0.00000017      -0.00000000       0.00009567
Mo     302.70004904       0.91315500      13.69455233       0.00000768       0.00000448       0.00000231
S      302.70013155      -0.92649655      15.26415481      -0.00000005       0.00000001      -0.00009887
S      302.70011774      -0.92649460      12.12256159       0.00000009      -0.00000002       0.00010200
Mo     301.10670706       3.67297142      13.69455656       0.00000613      -0.00000150       0.00000248
S      301.10678829       1.83331992      15.26415939      -0.00000008       0.00000002      -0.00010271
S      301.10677714       1.83332180      12.12256551       0.00000009       0.00000001       0.00010612
Mo     305.88676779      -0.92731290       7.50580050       0.00000741       0.00002196      -0.00000172
S      305.88670281       0.91233635       9.07779262       0.00000036      -0.00000007      -0.00009396
S      305.88668366       0.91233705       5.93619586      -0.00000016       0.00000001       0.00009191
Mo     307.48010315       1.83171765       7.50579182       0.00000889       0.00002642      -0.00000177
S      307.48004064       3.67136706       9.07778362       0.00000034      -0.00000008      -0.00009058
S      307.48001735       3.67136766       5.93618745      -0.00000016       0.00000002       0.00008837
Mo     305.88673443       0.91236794      13.69453934       0.00001105       0.00001516       0.00000194
S      305.88681996      -0.92728377      15.26414103       0.00000002      -0.00000001      -0.00009125
S      305.88679935      -0.92728162      12.12254923       0.00000007      -0.00000008       0.00009374
Mo     304.29339147       3.67218239      13.69454669       0.00000933       0.00001002       0.00000213
S      304.29347540       1.83253078      15.26414878      -0.00000002       0.00000000      -0.00009498
S      304.29345847       1.83253282      12.12255626       0.00000009      -0.00000005       0.00009779
Mo     309.07343882      -0.92809281       7.50578087       0.00001025       0.00003088      -0.00000185
S      309.07337918       0.91155678       9.07777233       0.00000032      -0.00000009      -0.00008756
S      309.07335107       0.91155727       5.93617676      -0.00000015       0.00000002       0.00008516
Mo     310.66677484       1.83094229       7.50576727       0.00001148       0.00003438      -0.00000194
S      310.66671850       3.67059205       9.07775841       0.00000030      -0.00000011      -0.00008490
S      310.66668486       3.67059242       5.93616343      -0.00000013       0.00000002       0.00008226
Mo     309.07342214       0.91158757      13.69451829       0.00001431       0.00002398       0.00000154
S      309.07351157      -0.92806439      15.26411917       0.00000009      -0.00000000      -0.00008486
S      309.07348171      -0.92806199      12.12252882       0.00000000      -0.00000012       0.00008663
Mo     307.48007797       3.67139825      13.69452999       0.00001267       0.00001976       0.00000174
S      307.48016532       1.83174642      15.26413127       0.00000005      -0.00000001      -0.00008785
S      307.48014042       1.83174869      12.12254021       0.00000003      -0.00000010       0.00008998
Mo     312.26011127      -0.92886289       7.50575065       0.00001239       0.00003751      -0.00000205
S      312.26005862       0.91078704       9.07774147       0.00000029      -0.00000014      -0.00008254
S      312.26001872       0.91078729       5.93614706      -0.00000011       0.00000001       0.00007964
Mo     313.85344813       1.83017807       7.50573062       0.00001337       0.00004023      -0.00000216
S      313.85339961       3.66982818       9.07772111       0.00000029      -0.00000015      -0.00008033
S      313.85335272       3.66982831       5.93612730      -0.00000009       0.00000000       0.00007717
Mo     312.26011249       0.91081701      13.69448638       0.00001749       0.00003058       0.00000114
S      312.26020697      -0.92883528      15.26408647       0.00000017       0.00000001      -0.00008004
S      312.26016506      -0.92883261      12.12249752      -0.00000002      -0.00000014       0.00008110
Mo     310.66676697       3.67062244      13.69450388       0.00001595       0.00002740       0.00000134
S      310.66685877       1.83097032      15.26410436       0.00000013      -0.00000000      -0.00008227
S      310.66682325       1.83097286      12.12251471      -0.00000002      -0.00000013       0.00008369
Mo     315.44678550      -0.92962073       7.50570681       0.00001412       0.00004258      -0.00000228
S      315.44674151       0.91002957       9.07769694       0.00000031      -0.00000016      -0.00007807
S      315.44668691       0.91002959       5.93610378      -0.00000008      -0.00000000       0.00007464
Mo     317.04012345       1.82942708       7.50567883       0.00001473       0.00004427      -0.00000238
S      317.04008436       3.66907757       9.07766859       0.00000034      -0.00000018      -0.00007550
S      317.04002138       3.66907748       5.93607614      -0.00000008      -0.00000001       0.00007181
Mo     315.44680575       0.91005862      13.69444061       0.00001958       0.00003543       0.00000074
S      315.44690651      -0.92959402      15.26403992       0.00000023       0.00000004      -0.00007596
S      315.44684966      -0.92959107      12.12245234       0.00000003      -0.00000013       0.00007632
Mo     313.85345875       3.66985770      13.69446542       0.00001866       0.00003334       0.00000094
S      313.85355622       1.83020524      15.26406512       0.00000021       0.00000002      -0.00007801
S      313.85350719       1.83020805      12.12247685      -0.00000001      -0.00000014       0.00007872
Mo     318.63346205      -0.93036449       7.50564636       0.00001518       0.00004490      -0.00000247
S      318.63342817       0.90928617       9.07763569       0.00000038      -0.00000020      -0.00007234
S      318.63335620       0.90928599       5.93604404      -0.00000009      -0.00000003       0.00006843
Mo     320.22680136       1.82869074       7.50560907       0.00001558       0.00004543      -0.00000253
S      320.22677300       3.66834160       9.07759791       0.00000042      -0.00000020      -0.00006839
S      320.22669148       3.66834134       5.93600721      -0.00000012      -0.00000004       0.00006429
Mo     318.63350199       0.90931415      13.69437803       0.00002051       0.00003801       0.00000033
S      318.63361022      -0.93033887      15.26397650       0.00000021       0.00000007      -0.00007071
S      318.63353577      -0.93033568      12.12239044       0.00000013      -0.00000012       0.00007036
Mo     317.04015350       3.66910611      13.69441160       0.00002023       0.00003699       0.00000054
S      317.04025786       1.82945328      15.26401050       0.00000023       0.00000005      -0.00007363
S      317.04019251       1.82945635      12.12242364       0.00000007      -0.00000013       0.00007363
Mo     321.82014148      -0.93109330       7.50556671       0.00001590       0.00004516      -0.00000256
S      321.82011886       0.90855774       9.07755499       0.00000045      -0.00000020      -0.00006346
S      321.82002734       0.90855742       5.93596539      -0.00000016      -0.00000004       0.00005922
Mo     323.41348251       1.82796950       7.50551905       0.00001594       0.00004468      -0.00000255
S      323.41346577       3.66762073       9.07750670       0.00000048      -0.00000020      -0.00005750
S      323.41336392       3.66762038       5.93591837      -0.00000021      -0.00000004       0.00005318
Mo     321.82020110       0.90858451      13.69429609       0.00001994       0.00003870      -0.00000011
S      321.82031780      -0.93106886      15.26389357       0.00000007       0.00000008      -0.00006214
S      321.82022364      -0.93106549      12.12230935       0.00000022      -0.00000011       0.00006105
Mo     320.22685120       3.66836898      13.69433961       0.00002039       0.00003866       0.00000011
S      320.22696357       1.82871578      15.26393761       0.00000015       0.00000007      -0.00006695
S      320.22687947       1.82871907      12.12235242       0.00000018      -0.00000011       0.00006623
Mo     325.00682451      -0.93180703       7.50546597       0.00001595       0.00004364      -0.00000251
S      325.00681376       0.90784439       9.07745291       0.00000051      -0.00000019      -0.00005054
S      325.00670137       0.90784403       5.93586600      -0.00000025      -0.00000002       0.00004621
Mo     326.60016758       1.82726317       7.50540737       0.00001591       0.00004239      -0.00000243
S      326.60016282       3.66691477       9.07739355       0.00000052      -0.00000016      -0.00004281
S      326.60003983       3.66691443       5.93580820      -0.00000026       0.00000000       0.00003855
Mo     325.00690278       0.90786989      13.69419298       0.00001828       0.00003755      -0.00000058
S      325.00702855      -0.93178377      15.26378933      -0.00000011       0.00000006      -0.00004924
S      325.00691345      -0.93178030      12.12220730       0.00000031      -0.00000012       0.00004740
Mo     323.41355165       3.66764688      13.69424726       0.00001933       0.00003822      -0.00000035
S      323.41367284       1.82799336      15.26384418      -0.00000002       0.00000008      -0.00005621
S      323.41356830       1.82799679      12.12226102       0.00000027      -0.00000011       0.00005475
Mo     328.19351179      -0.93250614       7.50534327       0.00001595       0.00004063      -0.00000231
S      328.19351294       0.90714563       9.07732865       0.00000050      -0.00000013      -0.00003468
S      328.19337945       0.90714534       5.93574494      -0.00000026       0.00000002       0.00003053
Mo     329.78685723       1.82657104       7.50527375       0.00001581       0.00003843      -0.00000218
S      329.78686409       3.66622297       9.07725835       0.00000047      -0.00000012      -0.00002658
S      329.78672038       3.66622276       5.93567629      -0.00000022       0.00000003       0.00002259
Mo     328.19360646       0.90716977      13.69406794       0.00001625       0.00003485      -0.00000104
S      328.19374139      -0.93248406      15.26366311      -0.00000023       0.00000002      -0.00003323
S      328.19360526      -0.93248062      12.12208341       0.00000036      -0.00000014       0.00003067
Mo     326.60025442       3.66693961      13.69413320       0.00001722       0.00003635      -0.00000082
S      326.60038479       1.82728585      15.26372896      -0.00000018       0.00000004      -0.00004146
S      326.60025911       1.82728932      12.12214809       0.00000034      -0.00000013       0.00003924
Mo     331.38020393      -0.93319163       7.50519902       0.00001589       0.00003656      -0.00000203
S      331.38021625       0.90646047       9.07718283       0.00000042      -0.00000010      -0.00001893
S      331.38006279       0.90646038       5.93560243      -0.00000016       0.00000005       0.00001513
Mo     332.97355197       1.82589185       7.50511935       0.00001590       0.00003420      -0.00000187
S      332.97356937       3.66554410       9.07710241       0.00000035      -0.00000007      -0.00001203
S      332.97340682       3.66554417       5.93552362      -0.00000009       0.00000007       0.00000845
Mo     331.38031137       0.90648310      13.69392145       0.00001488       0.00003105      -0.00000140
S      331.38045496      -0.93317079      15.26351563      -0.00000022      -0.00000003      -0.00001717
S      331.38029902      -0.93316750      12.12193800       0.00000037      -0.00000016       0.00001409
Mo     329.78695881       3.66624637      13.69399729       0.00001551       0.00003316      -0.00000123
S      329.78709818       1.82659250      15.26359193      -0.00000024      -0.00000000      -0.00002498
S      329.78695190       1.82659588      12.12201332       0.00000037      -0.00000015       0.00002213
Mo     334.56690139      -0.93386485       7.50503512       0.00001588       0.00003193      -0.00000171
S      334.56692342       0.90578754       9.07701748       0.00000027      -0.00000006      -0.00000609
S      334.56675262       0.90578780       5.93544022      -0.00000001       0.00000007       0.00000275
Mo     336.16025224       1.82522422       7.50494683       0.00001591       0.00002933      -0.00000155
S      336.16027834       3.66487672       9.07692855       0.00000019      -0.00000006      -0.00000116
S      336.16010032       3.66487722       5.93535272       0.00000007       0.00000006      -0.00000193
Mo     334.56701666       0.90580837      13.69375549       0.00001396       0.00002669      -0.00000159
S      334.56716771      -0.93384542      15.26334902      -0.00000013      -0.00000005      -0.00000415
S      334.56699465      -0.93384241      12.12177283       0.00000036      -0.00000017       0.00000085
Mo     332.97366403       3.66556587      13.69384072       0.00001429       0.00002904      -0.00000152
S      332.97381154       1.82591202      15.26343453      -0.00000018      -0.00000004      -0.00001013
S      332.97364661       1.82591519      12.12185770       0.00000037      -0.00000017       0.00000690
Mo     337.75360455      -0.93452733       7.50485505       0.00001601       0.00002727      -0.00000138
S      337.75363406       0.90512530       9.07683617       0.00000011      -0.00000006       0.00000280
S      337.75345008       0.90512607       5.93526171       0.00000014       0.00000005      -0.00000562
Mo     339.34695837       1.82456650       7.50476046       0.00001615       0.00002518      -0.00000121
S      339.34699056       3.66421924       9.07674103       0.00000004      -0.00000005       0.00000597
S      339.34680204       3.66422031       5.93516787       0.00000019       0.00000004      -0.00000849
Mo     337.75372149       0.90514394      13.69357354       0.00001277       0.00002227      -0.00000160
S      337.75387805      -0.93450960      15.26316686      -0.00000006      -0.00000004       0.00000440
S      337.75369207      -0.93450703      12.12159134       0.00000034      -0.00000014      -0.00000757
Mo     336.16036919       3.66489650      13.69366623       0.00001343       0.00002468      -0.00000162
S      336.16052328       1.82524283      15.26325961      -0.00000009      -0.00000004       0.00000069
S      336.16034314       1.82524563      12.12168384       0.00000035      -0.00000015      -0.00000396
Mo     340.94031376      -0.93518062       7.50466386       0.00001587       0.00002313      -0.00000102
S      340.94034777       0.90447222       9.07664390      -0.00000003      -0.00000005       0.00000858
S      340.94015633       0.90447363       5.93507201       0.00000022       0.00000003      -0.00001076
Mo     342.53367073       1.82391729       7.50456611       0.00001552       0.00002150      -0.00000082
S      342.53370566       3.66357023       9.07654563      -0.00000008      -0.00000006       0.00001090
S      342.53351307       3.66357201       5.93497499       0.00000023       0.00000002      -0.00001271
Mo     340.94042499       0.90448808      13.69338069       0.00001093       0.00001822      -0.00000143
S      340.94058437      -0.93516505      15.26297420      -0.00000008      -0.00000002       0.00000921
S      340.94039115      -0.93516303      12.12139864       0.00000031      -0.00000010      -0.00001193
Mo     339.34707346       3.66423659      13.69347810       0.00001196       0.00002003      -0.00000153
S      339.34723181       1.82458322      15.26307147      -0.00000006      -0.00000003       0.00000717
S      339.34704141       1.82458554      12.12149601       0.00000033      -0.00000012      -0.00001015
Mo     344.12702931      -0.93582604       7.50446816       0.00001508       0.00001979      -0.00000059
S      344.12706416       0.90382697       9.07644718      -0.00000012      -0.00000006       0.00001320
S      344.12687237       0.90382916       5.93487780       0.00000021      -0.00000000      -0.00001459
Mo     345.72038953       1.82327539       7.50437106       0.00001441       0.00001885      -0.00000035
S      345.72042324       3.66292848       9.07634956      -0.00000015      -0.00000005       0.00001565
S      345.72023432       3.66293111       5.93478147       0.00000019       0.00000000      -0.00001657
Mo     344.12712633       0.90383922      13.69318352       0.00000832       0.00001481      -0.00000114
S      344.12728513      -0.93581336      15.26277749      -0.00000017       0.00000001       0.00001223
S      344.12709176      -0.93581202      12.12120143       0.00000031      -0.00000006      -0.00001428
Mo     342.53377598       3.66358441      13.69328218       0.00000972       0.00001633      -0.00000130
S      342.53393553       1.82393153      15.26287589      -0.00000012      -0.00000000       0.00001080
S      342.53374128       1.82393322      12.12130012       0.00000031      -0.00000008      -0.00001321
Mo     347.31375138      -0.93646460       7.50427591       0.00001351       0.00001799      -0.00000008
S      347.31378283       0.90318855       9.07625388      -0.00000017      -0.00000004       0.00001834
S      347.31359901       0.90319163       5.93468711       0.00000016       0.00000001      -0.00001874
Mo     348.90711486       1.82264007       7.50418387       0.00001272       0.00001790       0.00000021
S      348.90714288       3.66229328       9.07616132      -0.00000019      -0.00000004       0.00002124
S      348.90696647       3.66229685       5.93459588       0.00000014       0.00000001      -0.00002107
Mo     347.31382481       0.90319603      13.69298998       0.00000585       0.00001344      -0.00000076
S      347.31397899      -0.93645587      15.26258453      -0.00000027       0.00000003       0.00001545
S      347.31379375      -0.93645529      12.12100777       0.00000035      -0.00000003      -0.00001667
Mo     345.72047597       3.66293852      13.69308575       0.00000695       0.00001370      -0.00000096
S      345.72063300       1.82328626      15.26268000      -0.00000022       0.00000002       0.00001372
S      345.72044259       1.82328723      12.12110361       0.00000033      -0.00000005      -0.00001537
Mo     350.50047992      -0.93709668       7.50409617       0.00001228       0.00001768       0.00000053
S      350.50050334       0.90255656       9.07607311      -0.00000020      -0.00000004       0.00002422
S      350.50033674       0.90256064       5.93450897       0.00000015       0.00000002      -0.00002344
Mo     352.09384654       1.82201130       7.50401407       0.00001201       0.00001836       0.00000086
S      352.09386415       3.66166458       9.07599050      -0.00000022      -0.00000002       0.00002705
S      352.09370982       3.66166917       5.93442765       0.00000016       0.00000003      -0.00002563
Mo     350.50051991       0.90255779      13.69280909       0.00000449       0.00001441      -0.00000034
S      350.50066493      -0.93709332      15.26240426      -0.00000034       0.00000002       0.00001971
S      350.50049703      -0.93709357      12.12082680       0.00000038      -0.00000004      -0.00002001
Mo     348.90717279       3.66229784      13.69289735       0.00000502       0.00001354      -0.00000056
S      348.90732300       1.82264633      15.26249221      -0.00000032       0.00000002       0.00001746
S      348.90714522       1.82264650      12.12091509       0.00000037      -0.00000004      -0.00001823
Mo     353.68721471      -0.93772201       7.50393883       0.00001178       0.00001988       0.00000119
S      353.68722528       0.90193131       9.07591480      -0.00000023      -0.00000001       0.00002947
S      353.68708571       0.90193642       5.93435317       0.00000019       0.00000005      -0.00002740
Mo     355.28058437       1.82138973       7.50387175       0.00001150       0.00002198       0.00000153
S      355.28058669       3.66104308       9.07584730      -0.00000025      -0.00000002       0.00003122
S      355.28046438       3.66104872       5.93428680       0.00000024       0.00000006      -0.00002850
Mo     353.68721152       0.90192462      13.69265073       0.00000354       0.00001989       0.00000015
S      353.68734237      -0.93772564      15.26224654      -0.00000036      -0.00000001       0.00002420
S      353.68720166      -0.93772674      12.12066835       0.00000036      -0.00000006      -0.00002349
Mo     352.09386615       3.66166205      13.69272646       0.00000408       0.00001646      -0.00000010
S      352.09400474       1.82201136      15.26232194      -0.00000036      -0.00000000       0.00002202
S      352.09384918       1.82201069      12.12074412       0.00000038      -0.00000005      -0.00002183
Mo     356.87395544      -0.93833936       7.50381412       0.00001101       0.00002467       0.00000185
S      356.87394833       0.90131402       9.07578933      -0.00000028      -0.00000003       0.00003205
S      356.87384576       0.90132018       5.93422979       0.00000029       0.00000007      -0.00002869
Mo     358.46732784       1.82077716       7.50376722       0.00001010       0.00002773       0.00000216
S      358.46731013       3.66043054       9.07574217      -0.00000031      -0.00000006       0.00003184
S      358.46722973       3.66043722       5.93418341       0.00000035       0.00000006      -0.00002787
Mo     356.87389969       0.90129804      13.69252520       0.00000202       0.00003045       0.00000071
S      356.87401107      -0.93835130      15.26212173      -0.00000034      -0.00000003       0.00002716
S      356.87390764      -0.93835325      12.12054264       0.00000025      -0.00000010      -0.00002531
Mo     355.28055603       3.66103189      13.69258321       0.00000295       0.00002420       0.00000042
S      355.28067782       1.82138208      15.26217936      -0.00000036      -0.00000002       0.00002597
S      355.28055449       1.82138055      12.12060077       0.00000031      -0.00000009      -0.00002471
Mo     360.06070144      -0.93894652       7.50373227       0.00000909       0.00003194       0.00000244
S      360.06067201       0.90070688       9.07570706      -0.00000035      -0.00000009       0.00003052
S      360.06061615       0.90071406       5.93414889       0.00000039       0.00000006      -0.00002597
Mo     361.65407607       1.82017621       7.50371049       0.00000805       0.00003633       0.00000271
S      361.65403389       3.65982960       9.07568521      -0.00000038      -0.00000014       0.00002826
S      361.65400484       3.65983724       5.93412742       0.00000041       0.00000005      -0.00002318
Mo     360.06058450       0.90068139      13.69244281       0.00000012       0.00004602       0.00000137
S      360.06067105      -0.93896697      15.26204023      -0.00000027      -0.00000003       0.00002722
S      360.06061471      -0.93896973      12.12045988       0.00000012      -0.00000016      -0.00002409
Mo     358.46724252       3.66040973      13.69247798       0.00000101       0.00003762       0.00000103
S      358.46734213       1.82076087      15.26207494      -0.00000031      -0.00000003       0.00002758
S      358.46726106       1.82075851      12.12049526       0.00000017      -0.00000013      -0.00002510
Mo     363.24745160      -0.93954038       7.50370301       0.00000701       0.00004169       0.00000295
S      363.24739570       0.90011301       9.07567773      -0.00000039      -0.00000018       0.00002532
S      363.24739559       0.90012109       5.93412017       0.00000042       0.00000003      -0.00001974
Mo     364.84082787       1.81959040       7.50371089       0.00000596       0.00004698       0.00000318
S      364.84075738       3.65924378       9.07568567      -0.00000038      -0.00000021       0.00002212
S      364.84078817       3.65925225       5.93412819       0.00000040       0.00000001      -0.00001608
Mo     363.24726609       0.90007975      13.69241331      -0.00000080       0.00006116       0.00000207
S      363.24732284      -0.93956771      15.26201170      -0.00000018      -0.00000001       0.00002450
S      363.24732259      -0.93957119      12.12042987       0.00000007      -0.00000021      -0.00002002
Mo     361.65392568       3.65979989      13.69242087      -0.00000057       0.00005415       0.00000172
S      361.65399790       1.82015200      15.26201878      -0.00000023      -0.00000003       0.00002612
S      361.65396855       1.82014886      12.12043770       0.00000008      -0.00000019      -0.00002233
Mo     366.43420471      -0.94011709       7.50373509       0.00000510       0.00005301       0.00000340
S      366.43411886       0.89953628       9.07570996      -0.00000034      -0.00000023       0.00001904
S      366.43418232       0.89954510       5.93415249       0.00000036       0.00000000      -0.00001255
Mo     368.02758196       1.81902388       7.50377647       0.00000464       0.00005937       0.00000360
S      368.02748011       3.65867723       9.07575144      -0.00000030      -0.00000024       0.00001643
S      368.02757778       3.65868635       5.93419392       0.00000029      -0.00000002      -0.00000951
Mo     366.43394503       0.89949805      13.69244540      -0.00000107       0.00006463       0.00000275
S      366.43396786      -0.94014883      15.26204458      -0.00000016       0.00000002       0.00002073
S      366.43403138      -0.94015290      12.12046156       0.00000010      -0.00000023      -0.00001499
Mo     364.84060583       3.65920773      13.69242117      -0.00000082       0.00006531       0.00000242
S      364.84064607       1.81956063      15.26202000      -0.00000016       0.00000000       0.00002259
S      364.84067683       1.81955683      12.12043750       0.00000008      -0.00000023      -0.00001746
Mo     369.62095948      -0.94067225       7.50383575       0.00000420       0.00006709       0.00000380
S      369.62084114       0.89898110       9.07581081      -0.00000026      -0.00000023       0.00001449
S      369.62097428       0.89899049       5.93425325       0.00000021      -0.00000003      -0.00000717
Mo     371.21433713       1.81848143       7.50391352       0.00000374       0.00007567       0.00000398
S      371.21420195       3.65813477       9.07588864      -0.00000023      -0.00000020       0.00001337
S      371.21437156       3.65814441       5.93433105       0.00000010      -0.00000003      -0.00000568
Mo     369.62062234       0.89893718      13.69254625      -0.00000178       0.00005013       0.00000330
S      369.62060847      -0.94070960      15.26214582      -0.00000022       0.00000005       0.00001804
S      369.62074170      -0.94071402      12.12056228       0.00000009      -0.00000019      -0.00001126
Mo     368.02728383       3.65863674      13.69248686      -0.00000148       0.00005957       0.00000304
S      368.02728854       1.81898998      15.26208629      -0.00000018       0.00000004       0.00001915
S      368.02738631       1.81898570      12.12050291       0.00000010      -0.00000021      -0.00001285
Mo     372.80771475      -0.94120033       7.50401021       0.00000340       0.00008422       0.00000414
S      372.80756256       0.89845294       9.07598537      -0.00000022      -0.00000018       0.00001305
S      372.80776930       0.89846282       5.93442774      -0.00000001      -0.00000002      -0.00000503
Mo     374.40109216       1.81796954       7.50412606       0.00000388       0.00009189       0.00000427
S      374.40092298       3.65762267       9.07610127      -0.00000022      -0.00000019       0.00001342
S      374.40116720       3.65763280       5.93454357      -0.00000012      -0.00000001      -0.00000511
Mo     372.80729913       0.89839178      13.69272098       0.00000024       0.00003171       0.00000368
S      372.80724746      -0.94125526      15.26232051      -0.00000033       0.00000001       0.00001728
S      372.80745407      -0.94125965      12.12073717       0.00000001      -0.00000016      -0.00000979
Mo     371.21396072       3.65808461      13.69262415      -0.00000146       0.00003948       0.00000351
S      371.21392799       1.81843771      15.26222375      -0.00000028       0.00000004       0.00001742
S      371.21409762       1.81843325      12.12064024       0.00000006      -0.00000017      -0.00001025
Mo     375.99446919      -0.94169417       7.50426118       0.00000568       0.00009757       0.00000438
S      375.99428325       0.89795873       9.07623643      -0.00000023      -0.00000023       0.00001424
S      375.99456492       0.89796914       5.93467862      -0.00000022       0.00000001      -0.00000572
Mo     377.58784574       1.81749554       7.50441545       0.00000883       0.00010051       0.00000445
S      377.58764341       3.65714813       9.07639074      -0.00000024      -0.00000026       0.00001529
S      377.58796214       3.65715882       5.93483277      -0.00000031       0.00000003      -0.00000663
Mo     375.99397695       0.89785465      13.69297210       0.00000844       0.00003766       0.00000386
S      375.99388767      -0.94179263      15.26257123      -0.00000038      -0.00000002       0.00001785
S      375.99416842      -0.94179643      12.12098863      -0.00000011      -0.00000026      -0.00001000
Mo     374.40063778       3.65754397      13.69283696       0.00000350       0.00003041       0.00000379
S      374.40056723       1.81789679      15.26243632      -0.00000037      -0.00000002       0.00001746
S      374.40081102       1.81789261      12.12085330      -0.00000005      -0.00000020      -0.00000974
Mo     379.18122174      -0.94214674       7.50458857       0.00001357       0.00009982       0.00000447
S      379.18100357       0.89750542       9.07656392      -0.00000022      -0.00000029       0.00001638
S      379.18135857       0.89751642       5.93500573      -0.00000038       0.00000003      -0.00000767
Mo     380.77459718       1.81706560       7.50478003       0.00001980       0.00009627       0.00000441
S      380.77436390       3.65671727       9.07675542      -0.00000017      -0.00000028       0.00001733
S      380.77475393       3.65672858       5.93519701      -0.00000045       0.00000002      -0.00000874
Mo     379.18065823       0.89732546      13.69329885       0.00002149       0.00006200       0.00000383
S      379.18053246      -0.94232225      15.26289708      -0.00000032       0.00000004       0.00001863
S      379.18088476      -0.94232478      12.12131598      -0.00000023      -0.00000035      -0.00001082
Mo     377.58731697       3.65701031      13.69312621       0.00001459       0.00004982       0.00000387
S      377.58720922       1.81736287      15.26272496      -0.00000037      -0.00000001       0.00001828
S      377.58752629       1.81735962      12.12114299      -0.00000017      -0.00000032      -0.00001040
Mo     382.36797208      -0.94255323       7.50498908       0.00002746       0.00009173       0.00000424
S      382.36772463       0.89709788       9.07696448      -0.00000011      -0.00000025       0.00001812
S      382.36814803       0.89710954       5.93540586      -0.00000049      -0.00000000      -0.00000985
Mo     383.96134655       1.81668325       7.50521474       0.00003663       0.00008966       0.00000399
S      383.96108615       3.65633382       9.07719006      -0.00000005      -0.00000020       0.00001872
S      383.96154077       3.65634586       5.93563138      -0.00000046       0.00000001      -0.00001095
Mo     382.36734615       0.89680818      13.69369690       0.00003906       0.00006258       0.00000362
S      382.36718694      -0.94284100      15.26329339      -0.00000002       0.00000005       0.00001896
S      382.36760483      -0.94284148      12.12171528      -0.00000034      -0.00000026      -0.00001159
Mo     380.77400114       3.65648687      13.69348937       0.00002947       0.00006680       0.00000375
S      380.77385809       1.81683859      15.26308685      -0.00000020       0.00000007       0.00001885
S      380.77424414       1.81683698      12.12150702      -0.00000029      -0.00000032      -0.00001120
Mo     385.55472075      -0.94291036       7.50545578       0.00004705       0.00009009       0.00000371
S      385.55444890       0.89673966       9.07743089      -0.00000000      -0.00000022       0.00001939
S      385.55493217       0.89675217       5.93587234      -0.00000034       0.00000001      -0.00001219
Mo     387.14809493       1.81635318       7.50571073       0.00005860       0.00009316       0.00000348
S      387.14781340       3.65600266       9.07768550       0.00000007      -0.00000027       0.00002037
S      387.14832233       3.65601576       5.93612734      -0.00000013       0.00000003      -0.00001366
Mo     385.55404461       0.89629742      13.69415855       0.00006608       0.00004831       0.00000315
S      385.55385779      -0.94335417      15.26375232       0.00000055      -0.00000006       0.00001963
S      385.55433213      -0.94335178      12.12217897      -0.00000028      -0.00000025      -0.00001316
Mo     383.96069378       3.65597432      13.69392038       0.00005136       0.00005396       0.00000342
S      383.96051990       1.81632402      15.26351564       0.00000024      -0.00000001       0.00001915
S      383.96096735       1.81632486      12.12193968      -0.00000035      -0.00000022      -0.00001217
Mo     388.74146937      -0.94321064       7.50597798       0.00007109       0.00009460       0.00000332
S      388.74118015       0.89643817       9.07795225       0.00000023      -0.00000031       0.00002205
S      388.74171143       0.89645202       5.93639476       0.00000005       0.00000001      -0.00001572
Mo     390.33484442       1.81608596       7.50625574       0.00008300       0.00009231       0.00000314
S      390.33454965       3.65573398       9.07822932       0.00000053      -0.00000027       0.00002456
S      390.33509960       3.65574875       5.93667283       0.00000012      -0.00000003      -0.00001866
Mo     388.74075880       0.89578080      13.69467301       0.00009183       0.00005837       0.00000248
S      388.74055128      -0.94387354      15.26426307       0.00000113       0.00000009       0.00002271
S      388.74107018      -0.94386731      12.12269627       0.00000009      -0.00000027      -0.00001747
Mo     387.14739938       3.65546195      13.69440996       0.00008061       0.00005138       0.00000283
S      387.14720135       1.81580905      15.26400201       0.00000087      -0.00000000       0.00002078
S      387.14769960       1.81581324      12.12243169      -0.00000013      -0.00000027      -0.00001490
Mo     391.92822044      -0.94344153       7.50654200       0.00009212       0.00008553       0.00000279
S      391.92792239       0.89620547       9.07851476       0.00000094      -0.00000019       0.00002789
S      391.92848691       0.89622137       5.93695952       0.00000003      -0.00000009      -0.00002280
Mo     393.52159771       1.81589449       7.50683454       0.00009670       0.00007863       0.00000216
S      393.52129881       3.65554031       9.07880632       0.00000129      -0.00000016       0.00003182
S      393.52187339       3.65555756       5.93725261      -0.00000010      -0.00000009      -0.00002807
Mo     391.92749380       0.89524987      13.69522709       0.00009515       0.00005572       0.00000168
S      391.92727278      -0.94440813      15.26481243       0.00000140       0.00000006       0.00002925
S      391.92782264      -0.94439697      12.12325412       0.00000035      -0.00000018      -0.00002548
Mo     390.33412348       3.65493927      13.69494598       0.00009696       0.00006233       0.00000211
S      390.33390823       1.81528329      15.26453380       0.00000132       0.00000017       0.00002561
S      390.33444437       1.81529182      12.12297100       0.00000028      -0.00000020      -0.00002103
Mo     395.11497634      -0.94359032       7.50713088       0.00009590       0.00007595       0.00000136
S      395.11467926       0.89605413       9.07910157       0.00000137      -0.00000020       0.00003615
S      395.11525908       0.89607309       5.93754959      -0.00000011       0.00000001      -0.00003401
Mo     396.70835623       1.81579292       7.50742846       0.00009021       0.00007620       0.00000071
S      396.70806383       3.65543563       9.07939807       0.00000110      -0.00000022       0.00004066
S      396.70864408       3.65545680       5.93784780       0.00000006       0.00000016      -0.00003982
Mo     395.11425135       0.89468773      13.69580633       0.00007285       0.00003915       0.00000043
S      395.11402570      -0.94497450      15.26538670       0.00000100      -0.00000017       0.00003813
S      395.11459177      -0.94495693      12.12383730      -0.00000005      -0.00000031      -0.00003669
Mo     393.52086984       3.65439591      13.69551451       0.00008683       0.00004525       0.00000113
S      393.52064529       1.81473577      15.26509731       0.00000133      -0.00000009       0.00003358
S      393.52120519       1.81474992      12.12354358       0.00000026      -0.00000022      -0.00003084
Mo     398.30173712      -0.94363845       7.50772481       0.00007999       0.00007516       0.00000045
S      398.30145216       0.89600194       9.07969347       0.00000067      -0.00000015       0.00004504
S      398.30202839       0.89602599       5.93814468       0.00000020       0.00000021      -0.00004478
Mo     399.89511852       1.81580574       7.50801774       0.00006582       0.00006814       0.00000045
S      399.89484360       3.65544301       9.07998575       0.00000043      -0.00000005       0.00004872
S      399.89541186       3.65547066       5.93843789       0.00000004       0.00000007      -0.00004861
Mo     398.30102831       0.89406716      13.69639480       0.00003030       0.00004453      -0.00000099
S      398.30080827      -0.94559870      15.26597123      -0.00000027       0.00000007       0.00004595
S      398.30137405      -0.94557276      12.12442860      -0.00000089      -0.00000022      -0.00004719
Mo     396.70763778       3.65380789      13.69610048       0.00005337       0.00004188      -0.00000032
S      396.70741358       1.81414382      15.26567872       0.00000042      -0.00000004       0.00004247
S      396.70798168       1.81416529      12.12413303      -0.00000044      -0.00000028      -0.00004244
Mo     401.48849980      -0.94355663       7.50830532       0.00004887       0.00005978       0.00000027
S      401.48823749       0.89607678       9.08027292       0.00000047      -0.00000002       0.00005110
S      401.48879411       0.89610877       5.93872552      -0.00000048      -0.00000007      -0.00005147
Mo     403.08188027       1.81596531       7.50858563       0.00003131       0.00005525      -0.00000035
S      403.08163344       3.65559416       9.08055299       0.00000054      -0.00000012       0.00005219
S      403.08217466       3.65563127       5.93900566      -0.00000103      -0.00000004      -0.00005376
Mo     401.48781776       0.89335894      13.69697495      -0.00000638       0.00002785      -0.00000214
S      401.48761587      -0.94631083      15.26654856      -0.00000101      -0.00000013       0.00004971
S      401.48816343      -0.94627391      12.12501046      -0.00000173      -0.00000026      -0.00005327
Mo     399.89442194       3.65314798      13.69668705       0.00000868       0.00003904      -0.00000155
S      399.89420922       1.81348022      15.26626194      -0.00000083       0.00000004       0.00004834
S      399.89476820       1.81351126      12.12472184      -0.00000138      -0.00000017      -0.00005071
Mo     404.67525926      -0.94330852       7.50885659       0.00001683       0.00005582      -0.00000113
S      404.67503127       0.89631499       9.08082381       0.00000030      -0.00000017       0.00005273
S      404.67555309       0.89635820       5.93927631      -0.00000127       0.00000016      -0.00005578
Mo     406.26863619       1.81631582       7.50911602       0.00000897       0.00005414      -0.00000161
S      406.26843083       3.65593291       9.08108317      -0.00000022      -0.00000017       0.00005384
S      406.26892920       3.65598341       5.93953535      -0.00000124       0.00000019      -0.00005779
Mo     404.67461302       0.89251638      13.69752824       0.00000665       0.00002446      -0.00000358
S      404.67444522      -0.94715734      15.26709969      -0.00000062       0.00000013       0.00005150
S      404.67495563      -0.94710589      12.12556479      -0.00000138      -0.00000022      -0.00005786
Mo     403.08121484       3.65237948      13.69725616      -0.00000698       0.00002181      -0.00000287
S      403.08102793       1.81270774      15.26682869      -0.00000093      -0.00000010       0.00005061
S      403.08155931       1.81275144      12.12529218      -0.00000186      -0.00000030      -0.00005561
Mo     407.86201080      -0.94283895       7.50936177       0.00000717       0.00004652      -0.00000174
S      407.86183193       0.89677041       9.08132891      -0.00000047      -0.00000012       0.00005572
S      407.86230288       0.89682964       5.93978069      -0.00000118      -0.00000001      -0.00006001
Mo     409.45538299       1.81692303       7.50959175       0.00001194       0.00003973      -0.00000200
S      409.45523487       3.65652346       9.08155872      -0.00000023      -0.00000011       0.00005788
S      409.45567435       3.65659296       5.94001040      -0.00000118      -0.00000019      -0.00006274
Mo     407.86141465       0.89148119      13.69803586       0.00006431       0.00002237      -0.00000400
S      407.86129726       4.57064515      15.26760407       0.00000073       0.00000010       0.00005409
S      407.86175301       4.57071557      12.12607477       0.00000042      -0.00000010      -0.00006135
Mo     406.26801265       3.65144853      13.69778883       0.00003234       0.00002652      -0.00000396
S      406.26786802       1.81177247      15.26735894      -0.00000012       0.00000025       0.00005265
S      406.26835301       1.81183279      12.12582623      -0.00000048      -0.00000013      -0.00005977
Mo     411.04875310      -0.94207281       7.50980370       0.00002021       0.00003954      -0.00000267
S      411.04864048       0.89751752       9.08177014       0.00000026      -0.00000010       0.00005973
S      411.04904405       0.89759907       5.94022235      -0.00000079      -0.00000005      -0.00006584
Mo     412.64212161       1.81787414       7.50999508       0.00002965       0.00004159      -0.00000331
S      412.64204973       3.65745281       9.08196071       0.00000055      -0.00000013       0.00006152
S      412.64241273       3.65754859       5.94041401       0.00000029       0.00000012      -0.00006887
Mo     411.04823087       0.89017467      13.69848285       0.00010208       0.00003685      -0.00000451
S      411.04817821       4.56933127      15.26804624       0.00000284       0.00000017       0.00005777
S      411.04856645       4.56942679      12.12652595       0.00000136       0.00000016      -0.00006590
Mo     409.45482054       3.65028945      13.69826766       0.00008862       0.00002154      -0.00000406
S      409.45473370       1.81060678      15.26783357       0.00000197      -0.00000004       0.00005573
S      409.45515705       1.81068884      12.12630855       0.00000113      -0.00000006      -0.00006311
Mo     414.23548884      -0.94090515       7.51016335       0.00003827       0.00003417      -0.00000335
S      414.23546336       0.89865975       9.08212797       0.00000069      -0.00000032       0.00006373
S      414.23578144       0.89877241       5.94058277       0.00000155      -0.00000009      -0.00007130
Mo     415.82885538       1.81929438       7.51030627       0.00003865       0.00001547      -0.00000294
S      415.82888151       3.65884307       9.08226975       0.00000109      -0.00000057       0.00006609
S      415.82915095       3.65897560       5.94072636       0.00000215      -0.00000050      -0.00007314
Mo     414.23506585       0.88849574      13.69885864       0.00007701       0.00013060      -0.00000570
S      414.23509063       4.56764445      15.26841730       0.00000207       0.00000040       0.00006301
S      414.23540214       4.56777333      12.12690614       0.00000131       0.00000036      -0.00007318
Mo     412.64164623       3.64881002      13.69868017       0.00009569       0.00007193      -0.00000519
S      412.64163067       1.80911960      15.26824106       0.00000297       0.00000046       0.00006029
S      412.64198143       1.80923065      12.12672556       0.00000162       0.00000038      -0.00006953
Mo     417.42222102      -0.93919249       7.51042197       0.00003552      -0.00001629      -0.00000280
S      417.42230472       0.90033744       9.08238409       0.00000114      -0.00000091       0.00006757
S      417.42252220       0.90049303       5.94084283       0.00000157      -0.00000050      -0.00007441
Mo     419.01558596       1.82134394       7.51050866       0.00002466      -0.00008254      -0.00000314
S      419.01573306       3.66085199       9.08246935       0.00000035      -0.00000156       0.00006708
S      419.01589534       3.66103409       5.94093017       0.00000038      -0.00000018      -0.00007435
Mo     417.42191336       0.88633347      13.69915670       0.00001970       0.00040778      -0.00000665
S      417.42202719       4.56547557      15.26871302      -0.00000064       0.00000001       0.00006341
S      417.42225721       4.56564843      12.12720672      -0.00000189       0.00000005      -0.00007585
Mo     415.82848865       3.64690361      13.69901759       0.00005168       0.00023272      -0.00000605
S      415.82855687       1.80720547      15.26857454       0.00000062       0.00000012       0.00006457
S      415.82882802       1.80735481      12.12706685      -0.00000007       0.00000031      -0.00007565
Mo     420.60894965      -0.93675783       7.51056456       0.00000651      -0.00021225      -0.00000342
S      420.60916583       0.90272417       9.08252434      -0.00000154      -0.00000237       0.00006392
S      420.60926992       0.90293659       5.94098610      -0.00000101       0.00000008      -0.00007156
Mo     422.20231088       1.82421130       7.51058820      -0.00001386      -0.00042103      -0.00000343
S      422.20260171       3.66366260       9.08254768      -0.00000297      -0.00000295       0.00005836
S      422.20264505       3.66390939       5.94100900      -0.00000222       0.00000017      -0.00006595
Mo     420.60875967       0.88359240      13.69937422      -0.00002347       0.00098346      -0.00000771
S      420.60897138       4.56273163      15.26893242      -0.00000230      -0.00000044       0.00005408
S      420.60911718       4.56296200      12.12742301      -0.00000408      -0.00000193      -0.00006877
Mo     419.01533747       3.64446083      13.69927568      -0.00000477       0.00066453      -0.00000742
S      419.01549954       1.80475804      15.26883248      -0.00000205      -0.00000001       0.00005935
S      419.01568773       1.80495783      12.12732545      -0.00000400      -0.00000060      -0.00007345
Mo     423.79566893      -0.93341445       7.51057834      -0.00003853      -0.00069203      -0.00000362
S      423.79603892       0.90600133       9.08253806      -0.00000255      -0.00000247       0.00005152
S      423.79601912       0.90628677       5.94099765      -0.00000270       0.00000058      -0.00005971
Mo     425.38902180       1.82807083       7.51053363      -0.00004965      -0.00097678      -0.00000432
S      425.38947750       3.66744653       9.08249368      -0.00000087      -0.00000122       0.00004676
S      425.38939146       3.66777522       5.94095103      -0.00000175       0.00000089      -0.00005627
Mo     423.79559150       0.88021312      13.69951016      -0.00001462       0.00150481      -0.00000667
S      423.79591050       4.55934814      15.26907158       0.00000031      -0.00000044       0.00005070
S      423.79597274       4.55965213      12.12755747      -0.00000022      -0.00000426      -0.00006272
Mo     422.20217801       3.64140843      13.69945224      -0.00002558       0.00130442      -0.00000729
S      422.20244149       1.80170364      15.26901239      -0.00000146      -0.00000098       0.00005063
S      422.20254495       1.80196861      12.12749975      -0.00000282      -0.00000359      -0.00006425
Mo     426.98236915      -0.92899535       7.51045206      -0.00005613      -0.00116843      -0.00000491
S      426.98291853       0.91033668       9.08241161       0.00000201       0.00000101       0.00004642
S      426.98276202       0.91071428       5.94086805       0.00000063      -0.00000004      -0.00005711
Mo     428.57571021       1.83311124       7.51033077      -0.00005901      -0.00111188      -0.00000489
S      428.57636672       3.67239744       9.08228786       0.00000375       0.00000417       0.00004944
S      428.57613354       3.67283109       5.94074676       0.00000226      -0.00000186      -0.00006064
Mo     426.98240540       0.87602884      13.69957143      -0.00003380       0.00087807      -0.00000631
S      426.98285919       4.55513794      15.26912935       0.00000135       0.00000341       0.00005540
S      426.98285078       4.55553554      12.12762636       0.00000495       0.00000125      -0.00006608
Mo     425.38900099       3.63766748      13.69954911      -0.00001992       0.00140967      -0.00000645
S      425.38938097       1.79795084      15.26911015       0.00000236       0.00000141       0.00005349
S      425.38940482       1.79829888      12.12759841       0.00000414      -0.00000329      -0.00006420
Mo     430.16904474      -0.92322776       7.51016562      -0.00006271      -0.00069081      -0.00000483
S      430.16983083       0.91601240       9.08211647       0.00000399       0.00000566       0.00005055
S      430.16951108       0.91651059       5.94058400       0.00000185      -0.00000282      -0.00006167
Mo     431.76237379       1.83978609       7.50995007      -0.00008393       0.00002045      -0.00000485
S      431.76332099       3.67897756       9.08189116       0.00000238       0.00000321       0.00004453
S      431.76289845       3.67955020       5.94037212       0.00000048      -0.00000127      -0.00005546
Mo     430.16919960       0.87038735      13.69958611      -0.00010285      -0.00088608      -0.00000550
S      430.16985393       4.54944432      15.26913463      -0.00000037      -0.00000142       0.00004173
S      430.16981836       4.54996159      12.12765914       0.00000123       0.00000919      -0.00005381
Mo     428.57580563       3.63287971      13.69958142      -0.00007439      -0.00001125      -0.00000590
S      428.57634992       1.79312030      15.26913415       0.00000101       0.00000297       0.00005112
S      428.57631990       1.79357376      12.12764530       0.00000534       0.00000755      -0.00006248
Mo     433.35569498      -0.91538103       7.50967424      -0.00008217       0.00070644      -0.00000473
S      433.35684738       0.92375320       9.08160324      -0.00000136      -0.00000310       0.00003345
S      433.35629624       0.92441086       5.94009875      -0.00000059       0.00000229      -0.00004246
Mo     434.94900813       1.84912301       7.50932337      -0.00006268       0.00092673      -0.00000409
S      434.95041363       3.68818298       9.08124040      -0.00000194      -0.00000580       0.00002392
S      434.94969559       3.68893649       5.93974623       0.00000006       0.00000475      -0.00003051
Mo     433.35595798       0.86215548      13.69962006      -0.00006760      -0.00061246      -0.00000413
S      433.35686617       4.54119098      15.26917510      -0.00000042      -0.00000637       0.00003839
S      433.35689081       4.54186508      12.12770160      -0.00000047      -0.00000879      -0.00004561
Mo     431.76258288       3.62608096      13.69959495      -0.00007264      -0.00118765      -0.00000494
S      431.76336589       1.78627597      15.26914283      -0.00000135      -0.00000672       0.00003466
S      431.76334623       1.78686647      12.12767507      -0.00000188       0.00000222      -0.00004614
Mo     436.54231092      -0.90424807       7.50887614      -0.00001851       0.00044609      -0.00000360
S      436.54401987       0.93471517       9.08078394      -0.00000289      -0.00000101       0.00002223
S      436.54307918       0.93557403       5.93929028       0.00000049       0.00000357      -0.00002931
Mo     438.13559960       1.86227970       7.50830165       0.00002809      -0.00044854      -0.00000369
S      438.13766988       3.70113106       9.08020025      -0.00000425       0.00000181       0.00002625
S      438.13642752       3.70210212       5.93870114      -0.00000052      -0.00000318      -0.00003484
Mo     436.54265956       0.85066712      13.69979017      -0.00009011       0.00102020      -0.00000269
S      436.54377715       4.52970491      15.26937004      -0.00000033       0.00001301       0.00004683
S      436.54403227       4.53057512      12.12787838       0.00000000       0.00000546      -0.00005017
Mo     434.94931465       3.61625037      13.69967745      -0.00001905       0.00044330      -0.00000302
S      434.95034156       1.77644881      15.26924500      -0.00000385       0.00000427       0.00004927
S      434.95045136       1.77721634      12.12775909      -0.00000481      -0.00000657      -0.00005292
Mo     439.72887579      -0.88891822       7.50755504      -0.00001553      -0.00098342      -0.00000275
S      439.73137451       0.94982028       9.07943999      -0.00000207      -0.00000071       0.00002466
S      439.72972149       0.95090952       5.93793677       0.00000151      -0.00000948      -0.00003269
Mo     441.32212934       1.87995215       7.50657464       0.00001516      -0.00059699      -0.00000143
S      441.32516914       3.71859214       9.07843412      -0.00000220      -0.00000236       0.00001001
S      441.32295943       3.71980363       5.93693941       0.00000048      -0.00000427      -0.00001363
Mo     439.72928874       0.83541956      13.70033747       0.00006081      -0.00052781      -0.00000379
S      439.73055324       4.51438975      15.26992877      -0.00000039      -0.00001300       0.00000287
S      439.73140182       4.51549003      12.12847523       0.00000052      -0.00000601      -0.00001227
Mo     438.13598392       3.60301930      13.69999328      -0.00007842       0.00047464      -0.00000348
S      438.13717901       1.76318748      15.26958094      -0.00000094       0.00000537       0.00002736
S      438.13766898       1.76416953      12.12810000      -0.00000149       0.00000741      -0.00003432
Mo     442.91536499      -0.86857867       7.50527853       0.00006088       0.00025191      -0.00000087
S      442.91908437       0.96997189       9.07710250       0.00000303       0.00000644      -0.00001193
S      442.91613646       0.97130794       5.93562506       0.00000107       0.00000929       0.00001161
Mo     444.50857850       1.90345943       7.50356773       0.00012319       0.00048694      -0.00000146
S      444.51312751       3.74190597       9.07536229       0.00000156       0.00001042      -0.00002458
S      444.50923619       3.74336408       5.93388059       0.00000247       0.00001218       0.00002268
Mo     442.91584996       0.81471750      13.70174234       0.00015543       0.00015085      -0.00000259
S      442.91710999       4.49367589      15.27138857      -0.00000152       0.00000804       0.00000279
S      442.91917747       4.49501837      12.12991984      -0.00000486       0.00000669      -0.00000857
Mo     441.32258835       3.58527841      13.70089187       0.00006594      -0.00068477      -0.00000366
S      441.32387022       1.74538804      15.27050259       0.00000359      -0.00001385      -0.00000421
S      441.32523496       1.74660976      12.12905285       0.00000362      -0.00001219      -0.00000366
Mo     446.10175213      -0.84139624       7.50133514       0.00014318      -0.00022265      -0.00000191
S      446.10727833       0.99693244       9.07310960      -0.00000402      -0.00000777      -0.00002130
S      446.10224120       0.99850492       5.93159731       0.00000069      -0.00000557       0.00001853
Mo     447.69488760       1.93466567       7.49847876      -0.00015923      -0.00075846      -0.00000035
S      447.70147914       3.77288281       9.07024129       0.00000382      -0.00001519      -0.00001752
S      447.69512798       3.77456097       5.92867649       0.00000625      -0.00001662       0.00001557
Mo     446.10226796       0.78726941      13.70474267      -0.00005563       0.00007384       0.00000215
S      446.10323741       4.46621178      15.27448086      -0.00000095      -0.00000115      -0.00001097
S      446.10733374       4.46778888      12.13296352       0.00000074      -0.00000341       0.00001663
Mo     444.50909405       3.56132114      13.70298908      -0.00016929       0.00071271      -0.00000029
S      444.51022321       1.72144226      15.27268185       0.00000516       0.00001608      -0.00000071
S      444.51319912       1.72290361      12.13118294       0.00000655       0.00001478       0.00000079
Mo     449.28793225      -0.80591443       7.49491947      -0.00003777      -0.00026456       0.00000073
S      449.29571358       1.03223334       9.06666310      -0.00000003       0.00000333      -0.00001514
S      449.28794553       1.03400262       5.92505477      -0.00000124       0.00000041       0.00001381
Mo     450.88091443       1.97477615       7.49061861      -0.00001305       0.00037195       0.00000121
S      450.88990575       3.81289046       9.06234182       0.00000354       0.00001843       0.00000360
S      450.88072879       3.81472890       5.92069320      -0.00000312       0.00001547      -0.00000220
Mo     449.28846680       0.75148120      13.71017974       0.00003030      -0.00020315      -0.00000164
S      449.28899507       4.43039714      15.28003976       0.00000050      -0.00000016      -0.00001209
S      449.29580749       4.43216820      12.13843887      -0.00000234       0.00000375       0.00000815
Mo     447.69539426       3.52997677      13.70711079       0.00010209      -0.00057307       0.00000268
S      447.69616011       1.69004582      15.27689615      -0.00000086      -0.00001665      -0.00002147
S      447.70156006       1.69172760      12.13536397      -0.00000075      -0.00001480       0.00002795
Mo     452.47380892      -0.76072870       7.48560435       0.00003391       0.00007657       0.00000215
S      452.48395230       1.07735496       9.05733584      -0.00000213      -0.00000036       0.00003266
S      452.47352785       1.07923129       5.91559534      -0.00000284       0.00000139      -0.00002658
Mo     454.06658736       2.02529679       7.47999411       0.00011942      -0.00052636       0.00000251
S      454.07773151       3.86339448       9.05173921      -0.00000999      -0.00001871       0.00005941
S      454.06640632       3.86526812       5.90990280      -0.00000876      -0.00001378      -0.00005095
Mo     452.47433496       0.70583095      13.71850404      -0.00020892       0.00007508      -0.00000699
S      452.47456463       4.38472194      15.28851824       0.00000346       0.00000052       0.00002226
S      452.48402042       4.38659917      12.14676465       0.00000963      -0.00000471      -0.00003517
Mo     450.88143345       3.48935628      13.71398751       0.00015133       0.00028597      -0.00000635
S      450.88178829       1.64942581      15.28392508      -0.00000838       0.00001346       0.00000392
S      450.89000332       1.65126462      12.14224848      -0.00000883       0.00001535      -0.00001806
Mo     455.65928650      -0.70487250       7.47400323      -0.00025577      -0.00023042       0.00000221
S      455.67110753       1.13330693       9.04576412       0.00000489       0.00000852       0.00005219
S      455.65941149       1.13512931       5.90383371       0.00000365       0.00000154      -0.00004814
Mo     457.25183702       2.08643200       7.46794206       0.00012950       0.00031866       0.00000078
S      457.26404706       3.92477050       9.03971265      -0.00000484       0.00001803       0.00002524
S      457.25266433       3.92647590       5.89770202       0.00000192       0.00001320      -0.00002624
Mo     455.65977625       0.64951682      13.72911263      -0.00009615      -0.00011709      -0.00000356
S      455.66044667       4.32835735      15.29929117       0.00000601      -0.00000346       0.00000215
S      455.67119042       4.33017726      12.15734187      -0.00000006       0.00000266      -0.00001157
Mo     454.06710066       3.43848154      13.72361631       0.00000111      -0.00051596      -0.00000543
S      454.06744362       1.59848954      15.29370544      -0.00000215      -0.00001015       0.00002263
S      454.07780478       1.60036547      12.15187157      -0.00000263      -0.00001551      -0.00003335
Mo     458.84432741      -0.63853519       7.46219776      -0.00012139      -0.00000395      -0.00000075
S      458.85643075       1.20001273       9.03397807       0.00000603      -0.00000614      -0.00000940
S      458.84615343       1.20152099       5.89188050       0.00000443      -0.00000093       0.00000782
Mo     460.43669759       2.15766363       7.45719986      -0.00010909      -0.00040124      -0.00000022
S      460.44826082       3.99647343       9.02898828       0.00000549      -0.00001482      -0.00005260
S      460.43990002       3.99769851       5.88679018       0.00000501      -0.00001127       0.00005440
Mo     458.84474196       0.58259074      13.73994922       0.00015172      -0.00014052      -0.00000447
S      458.84710586       4.26139093      15.31028457      -0.00000681       0.00000206      -0.00003559
S      458.85646064       4.26289765      12.16814919      -0.00000278      -0.00000422       0.00003059
Mo     457.25231262       3.37672845      13.73468583      -0.00000191       0.00010482      -0.00000432
S      457.25365388       1.53671222      15.30495142       0.00000173       0.00001000      -0.00001378
S      457.26409564       1.53841408      12.16288765       0.00000104       0.00001211       0.00000712
Mo     462.02897623      -0.56302980       7.45337249       0.00019237      -0.00000138       0.00000011
S      462.03958501       1.27615506       9.02510886       0.00000601       0.00000835      -0.00007411
S      462.03387310       1.27700221       5.88289786      -0.00000926       0.00000153       0.00007394
Mo     463.62124668       2.23675585       7.45107102      -0.00013986       0.00030877       0.00000357
S      463.63050441       4.07637621       9.02272196       0.00001337       0.00000597      -0.00006508
S      463.62798671       4.07675271       5.88052613       0.00000772       0.00000274       0.00005813
Mo     462.02937406       0.50645804      13.74785346      -0.00027594      -0.00026405      -0.00000020
S      462.03473883       4.18527803      15.31834095      -0.00001888      -0.00000483      -0.00002353
S      462.03960146       4.18611594      12.17610444      -0.00001093       0.00000716       0.00002515
Mo     460.43709597       3.30497047      13.74447659      -0.00006386      -0.00028786      -0.00000269
S      460.44081516       1.46491935      15.31488003       0.00000053      -0.00000726      -0.00002179
S      460.44828275       1.46613908      12.17269588       0.00001285      -0.00000823       0.00002114
Mo     465.21345830      -0.48106027       7.45053396      -0.00012793      -0.00018084      -0.00000157
S      465.22116026       1.35899751       9.02209071      -0.00002440      -0.00001431      -0.00005845
S      465.22212411       1.35882578       5.87987934      -0.00000119       0.00001176       0.00006942
Mo     466.80562613       2.32063014       7.45184436       0.00007300      -0.00035992      -0.00000596
S      466.81169024       4.16116126       9.02325283      -0.00001514      -0.00001502      -0.00002165
S      466.81611938       4.16039927       5.88108772      -0.00001429      -0.00002712       0.00004015
Mo     465.21370138       0.42382769      13.74986317       0.00010601      -0.00061211       0.00000486
S      465.22282274       4.10276814      15.32051986      -0.00002977      -0.00000976      -0.00008130
S      465.22111957       4.10258819      12.17830802      -0.00003774      -0.00003561       0.00007317
Mo     463.62154974       3.22511829      13.74972636       0.00006858       0.00039004       0.00000474
S      463.62877311       1.38517998      15.32031660       0.00001716       0.00001505      -0.00003622
S      463.63049060       1.38554580      12.17803515       0.00001524       0.00001986       0.00001628
Mo     468.39782156      -0.39640546       7.45490783       0.00003358       0.00056290      -0.00000739
S      468.40230032       1.44462861       9.02611680      -0.00003169       0.00003140      -0.00002594
S      468.40985151       1.44327047       5.88406697      -0.00000791      -0.00000384       0.00002355
Mo     469.99002375       2.40516652       7.45946725      -0.00017422      -0.00039402       0.00001512
S      469.99315106       4.24657658       9.03048566       0.00001449       0.00002018       0.00002868
S      470.00319703       4.24465007       5.88849332       0.00002545       0.00003587      -0.00006216
Mo     468.39796239       0.33834399      13.74480751      -0.00011570      -0.00008219      -0.00000428
S      468.41032489       4.01757781      15.31569961       0.00013033      -0.00001320       0.00000622
S      468.40221833       4.01619049      12.17355690       0.00006077       0.00005368      -0.00000321
Mo     466.80585255       3.14058377      13.74818881      -0.00032663       0.00004311      -0.00000585
S      466.81673232       1.30082821      15.31896338       0.00003940       0.00001238      -0.00003364
S      466.81165012       1.30004762      12.17676558      -0.00000187       0.00001291       0.00006116
Mo     471.58224685      -0.31297260       7.46511556      -0.00006014       0.00002776       0.00003877
S      471.58431723       1.52877551       9.03592388       0.00006713      -0.00009678       0.00022830
S      471.59602720       1.52638466       5.89405004       0.00014431      -0.00003596      -0.00017338
Mo     473.17448827       2.48651377       7.47140760       0.00020587       0.00048380      -0.00000238
S      473.17603217       4.32852779       9.04193241       0.00006121      -0.00003488       0.00035200
S      473.18842019       4.32575483       5.90022826       0.00007404      -0.00001398      -0.00033897
Mo     471.58229911       0.25415018      13.73413733       0.00059038       0.00017466       0.00004411
S      471.59620475       3.93367987      15.30522872       0.00016974      -0.00015396       0.00028163
S      471.58420707       3.93127065      12.16332855       0.00025353      -0.00028039      -0.00016072
Mo     469.99007044       3.05530536      13.73998310      -0.00019519      -0.00052528       0.00002432
S      470.00358274       1.21580440      15.31094896       0.00008491       0.00005929       0.00038105
S      469.99309674       1.21385870      12.16898821       0.00007129       0.00001849      -0.00039708
Mo     474.76686913      -0.23426289       7.47770534       0.00002898       0.00017091      -0.00005956
S      474.76810635       1.60775117       9.04815373       0.00024502       0.00023347       0.00032610
S      474.78020349       1.60486395       5.90647149       0.00013918       0.00013982      -0.00039897
Mo     476.35915330       2.56204681       7.48365158      -0.00307225       0.00224914       0.00005627
S      476.36078840       4.40416491       9.05382703      -0.00008580      -0.00011013       0.00007837
S      476.37195020       4.40126908       5.91237838      -0.00019807      -0.00018433      -0.00001837
Mo     474.76684433       0.17448977      13.72143295       0.00009630       0.00245097      -0.00008217
S      474.77972749       3.85425462      15.29282930      -0.00041248       0.00004332      -0.00032596
S      474.76776977       3.85129388      12.15096904      -0.00033972       0.00021555       0.00018997
Mo     473.17444163       2.97311707      13.72776285      -0.00293313      -0.00230434      -0.00003385
S      473.18864653       1.13376664      15.29891391      -0.00024847       0.00017376       0.00027851
S      473.17616228       1.13097524      12.15723947      -0.00023371       0.00021800      -0.00026749
Mo     477.95167111      -0.16201841       7.48884682      -0.00041630      -0.00238564       0.00007571
S      477.95301006       1.67971357       9.05903647      -0.00033216      -0.00018367      -0.00018620
S      477.96266611       1.67704207       5.91745681      -0.00043652      -0.00011659       0.00029084
Mo     479.54334182       2.63042887       7.49314507       0.03444789      -0.03788299       0.00005980
S      479.54726917       4.47266493       9.06271777      -0.00020615       0.00040123      -0.00015114
S      479.55510985       4.47009860       5.92233717      -0.00011137       0.00035188       0.00033811
Mo     477.95296246       0.10272235      13.71066453      -0.00962981       0.18247094       0.00007838
S      477.96055295       3.78757275      15.28400084       0.00024982      -0.00022091       0.00017241
S      477.95159586       3.78455606      12.13858827       0.00002806      -0.00036347      -0.00015901
Mo     476.35836350       2.89706080      13.71564700       0.03715125       0.04099079      -0.00000565
S      476.37237647       1.05739616      15.28644956      -0.00019066      -0.00032840      -0.00016819
S      476.36178958       1.05434376      12.14590980      -0.00024232      -0.00034177       0.00011627
Mo     481.13790971      -0.09767344       7.49651975      -0.00953131      -0.17212039      -0.00003591
S      481.13740873       1.73911573       9.06831730      -0.00001738       0.00030364       0.00015708
S      481.14348731       1.73664735       5.92333205       0.00025202       0.00022750      -0.00015490
Mo     482.72932023       2.67001958       7.49886109       0.00040087      -0.00075753       0.00002720
S      482.73039155       4.51266615       9.06784708       0.00006684       0.00017484       0.00021984
S      482.73467425       4.51065878       5.92853061       0.00001461       0.00028524      -0.00030357
Mo     481.13919973       0.07957266      13.70366160      -0.00009037      -0.00050251      -0.00001330
S      481.14344337       3.75882677      15.27444906      -0.00011143       0.00033564      -0.00042068
S      481.13799108       3.75670424      12.13426570       0.00010721       0.00014371       0.00034797
Mo     479.54426973       2.85185035      13.70673213       0.00043971       0.00083104      -0.00002501
S      479.55156477       1.01116236      15.27702883      -0.00005612      -0.00024425       0.00033171
S      479.54435125       1.00866949      12.13767887       0.00003092      -0.00015111      -0.00025831
Mo     484.32419587      -0.07847420       7.50040889      -0.00015663       0.00043601       0.00002092
S      484.32411420       1.76287956       9.06972131       0.00003187      -0.00021795      -0.00017727
S      484.32672739       1.76114553       5.92961145      -0.00012427      -0.00038829       0.00029124
Mo     485.91673184       2.69032025       7.50118416      -0.00069156       0.00027344       0.00004833
S      485.91796865       4.53106777       9.07093801       0.00014578       0.00015739       0.00013807
S      485.91932426       4.52957461       5.93006487       0.00019679       0.00024109       0.00002821
Mo     484.32487733       0.05934242      13.70001167      -0.00064311      -0.00029423      -0.00001397
S      484.32776577       3.73873530      15.27099715       0.00011408       0.00030796      -0.00009111
S      484.32513823       3.73704041      12.13036646       0.00002242       0.00038351       0.00002727
Mo     482.73166884       2.82800424      13.70147081      -0.00076214      -0.00036370      -0.00007530
S      482.73580614       0.98882473      15.27265244       0.00020442      -0.00024385       0.00001181
S      482.73192053       0.98688932      12.13167303       0.00007648      -0.00016410      -0.00017344
Mo     487.50995781      -0.06121150       7.50152588      -0.00074208       0.00029782       0.00003229
S      487.51103429       1.77960896       9.07111487       0.00005517      -0.00034493       0.00000210
S      487.51162907       1.77831437       5.93059125       0.00008784      -0.00032290       0.00005159
Mo     489.10295064       2.70534753       7.50159357       0.00095887      -0.00002071       0.00004146
S      489.10425092       4.54592804       9.07122883       0.00036901       0.00000017       0.00012945
S      489.10441020       4.54483077       5.93066583       0.00035589      -0.00002571      -0.00020380
Mo     487.51101191       0.04393129      13.69856944      -0.00004917      -0.00020147      -0.00000631
S      487.51280271       3.72329440      15.26952082      -0.00020460      -0.00014601      -0.00023214
S      487.51179680       3.72203918      12.12895241      -0.00025050      -0.00025046       0.00019152
Mo     485.91784661       2.81052864      13.69909241       0.00083301      -0.00000207      -0.00003979
S      485.92025346       0.97111199      15.27008334       0.00041885       0.00003319       0.00003422
S      485.91859365       0.96963825      12.12946989       0.00045972      -0.00006022       0.00002168
Mo     490.69609843      -0.04780486       7.50154503      -0.00006150       0.00014976       0.00000930
S      490.69724784       1.79266657       9.07118767      -0.00015648       0.00007990      -0.00019326
S      490.69719425       1.79170969       5.93059749      -0.00023182       0.00005567       0.00028928
Mo     492.28911595       2.71719772       7.50143437      -0.00008284      -0.00036926       0.00002770
S      492.29024070       4.55752578       9.07110951      -0.00011924      -0.00007497      -0.00000838
S      492.29009436       4.55669691       5.93048493      -0.00017292      -0.00009434       0.00006238
Mo     490.69709383       0.03218002      13.69799005       0.00010377      -0.00009358      -0.00001947
S      490.69834845       3.71151907      15.26890721       0.00006472      -0.00013366       0.00033964
S      490.69778273       3.71056822      12.12836160       0.00008268      -0.00007091      -0.00034313
Mo     489.10404222       2.79701072      13.69824865      -0.00008892       0.00038831      -0.00002856
S      489.10557750       0.95754167      15.26922451      -0.00022900       0.00010061      -0.00030136
S      489.10487805       0.95645888      12.12856889      -0.00017280       0.00011593       0.00014799
Mo     493.88216172      -0.03737680       7.50132241       0.00017748       0.00008144       0.00001170
S      493.88313561       1.80288666       9.07094645       0.00001583       0.00003561       0.00041122
S      493.88296056       1.80215213       5.93041476      -0.00002404       0.00006392      -0.00035703
Mo     495.47518282       2.72637490       7.50120381      -0.00004346       0.00012687       0.00000746
S      495.47609603       4.56653961       9.07085039      -0.00016062       0.00009463       0.00020596
S      495.47589847       4.56589697       5.93028019      -0.00013940       0.00009679      -0.00019869
Mo     493.88313244       0.02329656      13.69749461       0.00002489       0.00003604      -0.00001247
S      493.88415063       3.70262116      15.26842632       0.00005235       0.00003945       0.00025896
S      493.88358152       3.70189420      12.12784379       0.00011613       0.00006367      -0.00033352
Mo     492.29010863       2.78686428      13.69775712       0.00008845      -0.00023738      -0.00004852
S      492.29127748       0.94735018      15.26866827      -0.00022151      -0.00018081       0.00030281
S      492.29073749       0.94653644      12.12811084      -0.00019284      -0.00022176      -0.00032522
Mo     497.06820136      -0.02920439       7.50108184       0.00002011      -0.00009619       0.00000879
S      497.06898864       1.81089302       9.07072854       0.00015321      -0.00005335       0.00027506
S      497.06877498       1.81032696       5.93015856       0.00020324      -0.00005651      -0.00028306
Mo     498.66119448       2.73360315       7.50095259       0.00007415      -0.00014458       0.00000465
S      498.66192984       4.57363893       9.07061399       0.00014291      -0.00016499       0.00004603
S      498.66169688       4.57313936       5.93001086       0.00014255      -0.00015005      -0.00004053
Mo     497.06911370       0.01671385      13.69691619       0.00006977      -0.00017667      -0.00001050
S      497.06997036       3.69602738      15.26783487       0.00013509      -0.00015661       0.00023903
S      497.06935610       3.69546755      12.12727463       0.00015392      -0.00015977      -0.00025518
Mo     495.47611812       2.77915938      13.69721611       0.00006030       0.00009960      -0.00001111
S      495.47705072       0.93963538      15.26815302       0.00019192       0.00010238       0.00017397
S      495.47645945       0.93899950      12.12754881       0.00016936       0.00011003      -0.00020014
Mo     500.25420764      -0.02286612       7.50081037       0.00006662       0.00009609      -0.00000085
S      500.25487586       1.81711405       9.07044613       0.00017897       0.00006730       0.00013887
S      500.25461536       1.81667973       5.92989333       0.00014597       0.00005644      -0.00015148
Mo     501.84723411       2.73920211       7.50065241      -0.00008906       0.00019874      -0.00001876
S      501.84786624       4.57912538       9.07028021      -0.00000969       0.00022393       0.00012551
S      501.84756579       4.57874534       5.92973609      -0.00001162       0.00021620      -0.00013656
Mo     500.25509529       0.01173281      13.69630998      -0.00003053       0.00005245      -0.00001461
S      500.25583132       3.69104268      15.26725681      -0.00013055       0.00002602      -0.00002008
S      500.25523587       3.69061041      12.12664179      -0.00015329       0.00001830       0.00001687
Mo     498.66212395       2.77349477      13.69661104      -0.00010302      -0.00026860      -0.00000744
S      498.66289770       0.93396773      15.26753320       0.00003728      -0.00028492       0.00017178
S      498.66228823       0.93347737      12.12697024       0.00001686      -0.00029808      -0.00019601
Mo     503.44023026      -0.01779865       7.50047170      -0.00002551      -0.00010746      -0.00000588
S      503.44085884       1.82208271       9.07012631      -0.00019974      -0.00008056      -0.00005394
S      503.44052252       1.82175150       5.92953492      -0.00015638      -0.00007490       0.00003176
Mo     505.03323097       2.74375599       7.50027948      -0.00001003      -0.00026766       0.00001144
S      505.03377879       4.58360878       9.06994113       0.00004979      -0.00032855      -0.00006988
S      505.03343103       4.58332104       5.92933666       0.00006594      -0.00031010       0.00008141
Mo     503.44102882       0.00810964      13.69573582       0.00006534      -0.00002931       0.00000207
S      503.44159231       3.68741486      15.26668083       0.00015004      -0.00003196      -0.00003090
S      503.44104457       3.68708351      12.12607326       0.00016554      -0.00003459       0.00004342
Mo     501.84806957       2.76916591      13.69601490      -0.00000531       0.00019915       0.00000275
S      501.84870242       0.92962134      15.26697058       0.00005319       0.00023678      -0.00006699
S      501.84812640       0.92923638      12.12634242       0.00006471       0.00026349       0.00007614
Mo     506.62621475      -0.01383301       7.50008602       0.00008941      -0.00005613       0.00001790
S      506.62672135       1.82596938       9.06973901       0.00016328      -0.00005436      -0.00003361
S      506.62637500       1.82572510       5.92915125       0.00014846      -0.00004900       0.00007111
Mo     508.21921671       2.74721195       7.49989767       0.00009694       0.00030111       0.00001137
S      508.21968615       4.58696755       9.06952866       0.00018372       0.00035118       0.00005913
S      508.21934648       4.58676269       5.92898441       0.00016144       0.00034165      -0.00003499
Mo     506.62696902       0.00544788      13.69522367       0.00005856      -0.00040347      -0.00001345
S      506.62744982       3.68476022      15.26614934       0.00006144      -0.00044972       0.00003793
S      506.62696829       3.68451414      12.12558362       0.00003580      -0.00045652      -0.00006118
Mo     505.03399603       2.76614341      13.69547026       0.00009098      -0.00035896       0.00000730
S      505.03450865       0.92661602      15.26640060       0.00013578      -0.00041564       0.00003585
S      505.03399397       0.92632775      12.12582943       0.00013441      -0.00040850      -0.00004396
Mo     509.81222491      -0.01065823       7.49971518       0.00006342       0.00034993       0.00000007
S      509.81268988       1.82906554       9.06934140       0.00004744       0.00040622       0.00005547
S      509.81235868       1.82889403       5.92880632       0.00004007       0.00039849      -0.00004906
Mo     511.40523699       2.75027981       7.49953898       0.00003261       0.00005876      -0.00000119
S      511.40568908       4.58999519       9.06917260      -0.00008371       0.00005958       0.00001535
S      511.40537441       4.58985292       5.92862506      -0.00006965       0.00005795      -0.00001659
Mo     509.81291125       0.00317113      13.69476403      -0.00000791       0.00016906      -0.00000769
S      509.81331801       3.68244735      15.26570562      -0.00007577       0.00020704      -0.00001427
S      509.81289545       3.68226010      12.12511057      -0.00004629       0.00021394      -0.00000698
Mo     508.21993922       2.76366903      13.69498865       0.00003762      -0.00014285      -0.00002637
S      508.22039788       0.92412039      15.26592162      -0.00006398      -0.00013716      -0.00000301
S      508.21994267       0.92390793      12.12534117      -0.00006034      -0.00015173      -0.00003936
Mo     512.99825315      -0.00772390       7.49937516      -0.00001918      -0.00029770       0.00000546
S      512.99865422       1.83198912       9.06901858      -0.00007072      -0.00033971      -0.00001526
S      512.99837135       1.83187329       5.92845356      -0.00005760      -0.00034228       0.00002362
Mo     514.59126097       2.75293452       7.49923197      -0.00000412      -0.00050267       0.00000969
S      514.59160136       4.59263771       9.06888169      -0.00002612      -0.00053297      -0.00003994
S      514.59136183       4.59254424       5.92830501      -0.00002616      -0.00053975       0.00005649
Mo     512.99883278       0.00160670      13.69437849       0.00001879       0.00032753       0.00001885
S      512.99910881       3.68087302      15.26532392       0.00004443       0.00033744      -0.00001119
S      512.99878214       3.68073811      12.12472161       0.00003831       0.00033917       0.00004630
Mo     511.40587504       2.76170487      13.69455849      -0.00001378       0.00033522       0.00001208
S      511.40621786       0.92212931      15.26550442      -0.00002720       0.00036384      -0.00001017
S      511.40584078       0.92196808      12.12490067      -0.00001072       0.00037199       0.00003474
Mo     516.18426873      -0.00547132       7.49911422       0.00003122      -0.00050957       0.00000576
S      516.18453880       1.83421780       9.06876173       0.00006167      -0.00052812      -0.00003857
S      516.18434544       1.83414087       5.92818871       0.00005062      -0.00053228       0.00005053
Mo     517.77727807       2.75475873       7.49902041       0.00007343      -0.00040512       0.00000032
S      517.77749103       4.59443116       9.06866228       0.00011511      -0.00041301      -0.00003197
S      517.77733893       4.59436715       5.92809964       0.00010613      -0.00041591       0.00003435
Mo     516.18474823       0.00076955      13.69409330       0.00008733       0.00012153       0.00000470
S      516.18492400       3.68003970      15.26502968       0.00011833       0.00012496      -0.00001701
S      516.18468270       3.67994876      12.12444428       0.00011691       0.00011294       0.00002695
Mo     514.59178873       2.76053874      13.69422511       0.00005950       0.00022843       0.00001030
S      514.59200770       0.92096352      15.26516611       0.00010439       0.00023252      -0.00001444
S      514.59172667       0.92085371      12.12457119       0.00009294       0.00022248       0.00003741
Mo     519.37029582      -0.00402045       7.49894697       0.00009514      -0.00027968      -0.00000093
S      519.37046317       1.83563710       9.06858202       0.00012430      -0.00028443      -0.00002135
S      519.37034729       1.83558397       5.92803254       0.00012398      -0.00028824       0.00002100
Mo     520.96332399       2.75592120       7.49889202       0.00008542      -0.00017797       0.00000169
S      520.96345387       4.59556646       9.06852152       0.00010786      -0.00018306      -0.00001214
S      520.96337329       4.59552280       5.92798324       0.00011123      -0.00018786       0.00001615
Mo     519.37069106       0.00033650      13.69388972       0.00006064      -0.00000049       0.00000625
S      519.37080020       3.67960886      15.26481869       0.00007012       0.00000533      -0.00001004
S      519.37064039       3.67954133      12.12424898       0.00007066       0.00000116       0.00002163
Mo     517.77771567       2.75994163      13.69398112       0.00008524       0.00004412       0.00000562
S      517.77785600       0.92037028      15.26491324       0.00010245       0.00004892      -0.00001299
S      517.77765421       0.92029251      12.12433700       0.00010595       0.00004250       0.00002180
Mo     522.55636057      -0.00306736       7.49885628       0.00006241      -0.00010970       0.00000380
S      522.55645882       1.83656799       9.06848222       0.00007241      -0.00011242      -0.00001027
S      522.55641541       1.83653210       5.92795131       0.00007391      -0.00011656       0.00001799
Mo     524.14940285       2.75672452       7.49884116       0.00003837      -0.00006916       0.00000288
S      524.14947179       4.59635228       9.06846504       0.00004197      -0.00007009      -0.00001301
S      524.14946743       4.59632232       5.92793831       0.00004006      -0.00007171       0.00001932
Mo     522.55665435       0.00009141      13.69377286       0.00001576      -0.00002702       0.00000425
S      522.55670900       3.67936409      15.26469967       0.00001233      -0.00002709      -0.00001763
S      522.55663448       3.67931218      12.12413412       0.00001162      -0.00002931       0.00002641
Mo     520.96367159       2.75961928      13.69382032       0.00003307      -0.00002089       0.00000530
S      520.96375262       0.92004884      15.26474771       0.00003380      -0.00001746      -0.00001316
S      520.96363589       0.91998979      12.12418117       0.00003182      -0.00002058       0.00002343
Mo     525.74244768      -0.00237351       7.49884709       0.00002520      -0.00004901       0.00000021
S      525.74248936       1.83724840       9.06847006       0.00002534      -0.00004786      -0.00001860
S      525.74252433       1.83722305       5.92794512       0.00002221      -0.00004760       0.00001973
Mo     527.33549364       2.75733406       7.49887355       0.00002612      -0.00004037      -0.00000230
S      527.33550958       4.59695154       9.06849596       0.00002519      -0.00003756      -0.00002359
S      527.33558284       4.59692998       5.92797202       0.00002291      -0.00003646       0.00001987
Mo     525.74262158      -0.00004995      13.69374070       0.00003063      -0.00002791       0.00000689
S      525.74262734       3.67922221      15.26466647       0.00002751      -0.00003450      -0.00002050
S      525.74263365       3.67918098      12.12410295       0.00003094      -0.00003412       0.00003339
Mo     524.14963755       2.75943192      13.69374651       0.00001565      -0.00002742       0.00000491
S      524.14966724       0.91986148      15.26467309       0.00001148      -0.00003137      -0.00002073
S      524.14963357       0.91981541      12.12410793       0.00001351      -0.00003237       0.00003052
Mo     528.92854097      -0.00183332       7.49891950       0.00003716      -0.00003513      -0.00000354
S      528.92853263       1.83778088       9.06854099       0.00003787      -0.00003163      -0.00002534
S      528.92864249       1.83776264       5.92801877       0.00003691      -0.00003058       0.00001911
Mo     530.52159109       2.75781479       7.49898388       0.00005218      -0.00003070      -0.00000359
S      530.52156016       4.59742665       9.06860385       0.00005403      -0.00002705      -0.00002444
S      530.52170473       4.59741139       5.92808453       0.00005406      -0.00002648       0.00001808
Mo     528.92860160      -0.00012424      13.69379005       0.00007248      -0.00002938       0.00000930
S      528.92856215       3.67914459      15.26471126       0.00007388      -0.00003476      -0.00001515
S      528.92864665       3.67911163      12.12415667       0.00007471      -0.00003385       0.00003243
Mo     527.33560872       2.75932796      13.69375528       0.00005199      -0.00002930       0.00000862
S      527.33559126       0.91975580      15.26467923       0.00005197      -0.00003619      -0.00001796
S      527.33563706       0.91971886      12.12411932       0.00005459      -0.00003522       0.00003390
Mo     532.11464572      -0.00140400       7.49906568       0.00006542      -0.00002825      -0.00000297
S      532.11459402       1.83820648       9.06868362       0.00006678      -0.00002575      -0.00002188
S      532.11477130       1.83819380       5.92816824       0.00006744      -0.00002558       0.00001673
Mo     533.70770638       2.75819930       7.49916387       0.00007263      -0.00002848      -0.00000203
S      533.70763543       4.59780918       9.06877949       0.00007378      -0.00002810      -0.00001872
S      533.70784329       4.59779870       5.92826865       0.00007483      -0.00002825       0.00001526
Mo     532.11461400      -0.00015709      13.69391768       0.00009114      -0.00002474       0.00000815
S      532.11453444       3.67910591      15.26483162       0.00009412      -0.00002463      -0.00001005
S      532.11469146       3.67908012      12.12429084       0.00009235      -0.00002448       0.00002563
Mo     530.52160282       2.75927675      13.69384449       0.00008618      -0.00002735       0.00000902
S      530.52154260       0.91969973      15.26476226       0.00008843      -0.00002992      -0.00001241
S      530.52166438       0.91967047      12.12421426       0.00008765      -0.00002931       0.00002935
Mo     535.30077372      -0.00105966       7.49927738       0.00007339      -0.00002944      -0.00000110
S      535.30068509       1.83854999       9.06889063       0.00007449      -0.00003089      -0.00001584
S      535.30092123       1.83854133       5.92838443       0.00007555      -0.00003126       0.00001404
Mo     536.89384775       2.75850657       7.49940500       0.00006903      -0.00002861      -0.00000045
S      536.89374303       4.59811606       9.06901594       0.00007065      -0.00003091      -0.00001361
S      536.89400489       4.59810886       5.92851420       0.00007135      -0.00003138       0.00001294
Mo     535.30066789      -0.00016276      13.69411521       0.00008121      -0.00002346       0.00000594
S      535.30055483       3.67909468      15.26502156       0.00008423      -0.00002139      -0.00000725
S      535.30077456       3.67907499      12.12449497       0.00008189      -0.00002178       0.00001891
Mo     533.70763576       2.75925897      13.69400838       0.00008868      -0.00002343       0.00000709
S      533.70753854       0.91967598      15.26491843       0.00009177      -0.00002181      -0.00000827
S      533.70772832       0.91965338      12.12438495       0.00008957      -0.00002196       0.00002197
Mo     538.48692785      -0.00078646       7.49954531       0.00006206      -0.00002587      -0.00000020
S      538.48680896       1.83882275       9.06915417       0.00006391      -0.00002792      -0.00001243
S      538.48709359       1.83881670       5.92865639       0.00006411      -0.00002837       0.00001219
Mo     540.08001312       2.75874946       7.49969671       0.00005471      -0.00002317      -0.00000025
S      540.07988214       4.59835841       9.06930378       0.00005601      -0.00002460      -0.00001214
S      540.08018633       4.59835322       5.92880932       0.00005584      -0.00002498       0.00001179
Mo     538.48676001      -0.00015404      13.69437111       0.00006199      -0.00002144       0.00000375
S      538.48662103       3.67909879      15.26527115       0.00006330      -0.00001980      -0.00000779
S      538.48689141       3.67908415      12.12475614       0.00006159      -0.00002030       0.00001522
Mo     536.89370962       2.75926211      13.69423666       0.00007164      -0.00002324       0.00000478
S      536.89358268       0.91967409      15.26513966       0.00007391      -0.00002136      -0.00000723
S      536.89382932       0.91965706      12.12461925       0.00007178      -0.00002189       0.00001671
Mo     541.67310273      -0.00056990       7.49985744       0.00004802      -0.00002249      -0.00000043
S      541.67296162       1.83903891       9.06946305       0.00004866      -0.00002359      -0.00001234
S      541.67328202       1.83903437       5.92897125       0.00004832      -0.00002393       0.00001166
Mo     543.26619592       2.75894277       7.50002573       0.00004233      -0.00002402      -0.00000063
S      543.26604648       4.59855162       9.06963014       0.00004257      -0.00002522      -0.00001272
S      543.26637971       4.59854755       5.92914045       0.00004214      -0.00002555       0.00001167
Mo     541.67288305      -0.00013974      13.69467231       0.00004603      -0.00001411       0.00000228
S      541.67272509       3.67910900      15.26556743       0.00004662      -0.00001260      -0.00000926
S      541.67303310       3.67909851      12.12506130       0.00004546      -0.00001284       0.00001358
Mo     540.07981809       2.75927412      13.69451689       0.00005331      -0.00001803       0.00000294
S      540.07966880       0.91968177      15.26541434       0.00005402      -0.00001650      -0.00000852
S      540.07995966       0.91966930      12.12490403       0.00005271      -0.00001686       0.00001425
Mo     544.85929210      -0.00039829       7.50019981       0.00003747      -0.00002638      -0.00000087
S      544.85913596       1.83921069       9.06980322       0.00003787      -0.00002786      -0.00001319
S      544.85947864       1.83920692       5.92931523       0.00003735      -0.00002820       0.00001169
Mo     546.45239075       2.75909309       7.50037793       0.00003330      -0.00002783      -0.00000121
S      546.45222957       4.59870220       9.06998047       0.00003423      -0.00002945      -0.00001385
S      546.45257832       4.59869858       5.92949391       0.00003364      -0.00002977       0.00001172
Mo     544.85903089      -0.00012091      13.69500500       0.00003550      -0.00000882       0.00000105
S      544.85886077       3.67912437      15.26589600       0.00003684      -0.00000756      -0.00001107
S      544.85919250       3.67911748      12.12539713       0.00003560      -0.00000788       0.00001290
Mo     543.26595417       2.75929061      13.69483563       0.00004011      -0.00001084       0.00000166
S      543.26578923       0.91969446      15.26572860       0.00004104      -0.00000938      -0.00001006
S      543.26611090       0.91968584      12.12522627       0.00003983      -0.00000962       0.00001311
Mo     548.04549146      -0.00026907       7.50055833       0.00002987      -0.00002739      -0.00000162
S      548.04532694       1.83934010       9.07016010       0.00003133      -0.00002883      -0.00001478
S      548.04567842       1.83933649       5.92967477       0.00003073      -0.00002911       0.00001185
Mo     549.63859389       2.75920203       7.50073928       0.00002725      -0.00002506      -0.00000206
S      549.63842783       4.59881116       9.07034035       0.00002907      -0.00002607      -0.00001591
S      549.63877876       4.59880746       5.92985610       0.00002849      -0.00002631       0.00001212
Mo     548.04519941      -0.00009835      13.69535442       0.00002968      -0.00000777       0.00000004
S      548.04502451       3.67914414      15.26624183       0.00003129      -0.00000722      -0.00001346
S      548.04536559       3.67914021      12.12574922       0.00003035      -0.00000757       0.00001327
Mo     546.45211275       2.75931162      13.69517855       0.00003208      -0.00000795       0.00000049
S      546.45193931       0.91971237      15.26606770       0.00003366      -0.00000703      -0.00001225
S      546.45227748       0.91970705      12.12557206       0.00003252      -0.00000740       0.00001297
Mo     551.23169781      -0.00017871       7.50091910       0.00002546      -0.00002150      -0.00000249
S      551.23153198       1.83943034       9.07051953       0.00002739      -0.00002204      -0.00001708
S      551.23187926       1.83942650       5.93003627       0.00002685      -0.00002222       0.00001246
Mo     552.82480307       2.75927619       7.50109622       0.00002432      -0.00001756      -0.00000286
S      552.82463918       4.59888518       9.07069605       0.00002615      -0.00001773      -0.00001813
S      552.82497994       4.59888117       5.93021373       0.00002568      -0.00001786       0.00001279
Mo     551.23138622      -0.00007544      13.69570615       0.00002689      -0.00000769      -0.00000059
S      551.23121350       3.67916461      15.26659034       0.00002822      -0.00000754      -0.00001553
S      551.23155078       3.67916292      12.12610342       0.00002764      -0.00000776       0.00001400
Mo     549.63829062       2.75933483      13.69553083       0.00002805      -0.00000779      -0.00000031
S      549.63811601       0.91973300      15.26641660       0.00002955      -0.00000751      -0.00001458
S      549.63845672       0.91973027      12.12592688       0.00002881      -0.00000780       0.00001365
Mo     554.41790964      -0.00011804       7.50126922       0.00002352      -0.00001388      -0.00000313
S      554.41774919       1.83949093       9.07086847       0.00002514      -0.00001388      -0.00001893
S      554.41808089       1.83948676       5.93038709       0.00002477      -0.00001396       0.00001306
Mo     556.01101751       2.75932595       7.50143689       0.00002277      -0.00001082      -0.00000331
S      556.01086180       4.59893497       9.07103558       0.00002414      -0.00001079      -0.00001947
S      556.01118225       4.59893065       5.93055511       0.00002387      -0.00001086       0.00001327
Mo     554.41758995      -0.00005517      13.69604763       0.00002490      -0.00000692      -0.00000103
S      554.41742520       3.67918263      15.26692885       0.00002587      -0.00000672      -0.00001692
S      554.41774759       3.67918261      12.12644722       0.00002557      -0.00000686       0.00001447
Mo     552.82448604       2.75935667      13.69587887       0.00002591      -0.00000739      -0.00000084
S      552.82431667       0.91975250      15.26676155       0.00002705      -0.00000724      -0.00001631
S      552.82464775       0.91975170      12.12627732       0.00002662      -0.00000741       0.00001427
Mo     557.60412668      -0.00007698       7.50159817       0.00002189      -0.00000845      -0.00000342
S      557.60397680       1.83953214       9.07119633       0.00002301      -0.00000848      -0.00001984
S      557.60428417       1.83952770       5.93071677       0.00002282      -0.00000855       0.00001343
Mo     559.19723714       2.75936009       7.50175223       0.00002084      -0.00000670      -0.00000350
S      559.19709394       4.59896933       9.07134989       0.00002177      -0.00000679      -0.00002012
S      559.19738676       4.59896481       5.93087120       0.00002163      -0.00000685       0.00001357
Mo     557.60380933      -0.00003865      13.69636857       0.00002269      -0.00000574      -0.00000123
S      557.60365693       3.67919716      15.26724713       0.00002332      -0.00000549      -0.00001780
S      557.60395577       3.67919833      12.12677032       0.00002328      -0.00000559       0.00001492
Mo     556.01069778       2.75937511      13.69621121       0.00002381      -0.00000635      -0.00000117
S      556.01053874       0.91976880      15.26709106       0.00002461      -0.00000611      -0.00001741
S      556.01085028       0.91976943      12.12661190       0.00002443      -0.00000623       0.00001467
Mo     560.79034886      -0.00004842       7.50189840       0.00001974      -0.00000544      -0.00000355
S      560.79021302       1.83956096       9.07149560       0.00002047      -0.00000557      -0.00002037
S      560.79049014       1.83955639       5.93101775       0.00002043      -0.00000559       0.00001371
Mo     562.38346182       2.75938407       7.50203617       0.00001870      -0.00000454      -0.00000355
S      562.38333381       4.59899358       9.07163295       0.00001924      -0.00000468      -0.00002054
S      562.38359441       4.59898902       5.93115590       0.00001935      -0.00000467       0.00001390
Mo     560.79004279      -0.00002585      13.69666141       0.00002071      -0.00000455      -0.00000113
S      560.78990568       3.67920831      15.26753766       0.00002104      -0.00000438      -0.00001827
S      560.79017505       3.67921025      12.12706514       0.00002123      -0.00000443       0.00001558
Mo     559.19692440       2.75938972      13.69651886       0.00002164      -0.00000513      -0.00000122
S      559.19677937       0.91978160      15.26739622       0.00002210      -0.00000491      -0.00001809
S      559.19706404       0.91978320      12.12692161       0.00002219      -0.00000499       0.00001523
Mo     563.97657597      -0.00002827       7.50216522       0.00001778      -0.00000389      -0.00000346
S      563.97645609       1.83958137       9.07176159       0.00001818      -0.00000400      -0.00002061
S      563.97669969       1.83957686       5.93128533       0.00001844      -0.00000399       0.00001415
Mo     565.56969130       2.75940096       7.50228538       0.00001697      -0.00000337      -0.00000330
S      565.56957969       4.59901071       9.07188137       0.00001730      -0.00000346      -0.00002056
S      565.56980610       4.59900631       5.93140589       0.00001765      -0.00000347       0.00001442
Mo     563.97628879      -0.00001628      13.69692160       0.00001914      -0.00000356      -0.00000084
S      563.97616849       3.67921652      15.26779583       0.00001931      -0.00000342      -0.00001833
S      563.97640524       3.67921888      12.12732714       0.00001960      -0.00000345       0.00001619
Mo     562.38316431       2.75940084      13.69679576       0.00001990      -0.00000403      -0.00000100
S      562.38303550       0.91979122      15.26767097       0.00002014      -0.00000388      -0.00001835
S      562.38328879       0.91979340      12.12720042       0.00002039      -0.00000392       0.00001591
Mo     567.16280782      -0.00001420       7.50239666       0.00001621      -0.00000291      -0.00000311
S      567.16270446       1.83959567       9.07199228       0.00001651      -0.00000301      -0.00002043
S      567.16291378       1.83959140       5.93151758       0.00001688      -0.00000304       0.00001466
Mo     568.75592551       2.75941259       7.50249918       0.00001539      -0.00000250      -0.00000291
S      568.75583031       4.59902255       9.07209444       0.00001568      -0.00000263      -0.00002025
S      568.75602282       4.59901845       5.93162052       0.00001606      -0.00000266       0.00001487
Mo     567.16254596      -0.00000942      13.69714723       0.00001744      -0.00000276      -0.00000049
S      567.16244281       3.67922226      15.26801970       0.00001748      -0.00000256      -0.00001808
S      567.16264611       3.67922480      12.12755445       0.00001785      -0.00000259       0.00001666
Mo     565.56941606       2.75940899      13.69703876       0.00001835      -0.00000314      -0.00000068
S      565.56930436       0.91979813      15.26791208       0.00001845      -0.00000298      -0.00001823
S      565.56952436       0.91980061      12.12744516       0.00001878      -0.00000301       0.00001643
Mo     570.34904436      -0.00000468       7.50259315       0.00001447      -0.00000214      -0.00000272
S      570.34895712       1.83960538       9.07218807       0.00001472      -0.00000230      -0.00002005
S      570.34913328       1.83960146       5.93171490       0.00001512      -0.00000233       0.00001507
Mo     571.94216433       2.75942030       7.50267885       0.00001343      -0.00000182      -0.00000250
S      571.94208478       4.59903044       9.07227345       0.00001363      -0.00000202      -0.00001982
S      571.94224521       4.59902672       5.93180101       0.00001407      -0.00000204       0.00001528
Mo     570.34881294      -0.00000474      13.69733860       0.00001526      -0.00000205      -0.00000006
S      570.34872634       3.67922606      15.26820960       0.00001518      -0.00000179      -0.00001771
S      570.34889727       3.67922856      12.12774731       0.00001562      -0.00000183       0.00001715
Mo     568.75567831       2.75941470      13.69724710       0.00001640      -0.00000240      -0.00000028
S      568.75558357       0.91980284      15.26811881       0.00001638      -0.00000216      -0.00001790
S      568.75577045       0.91980538      12.12765510       0.00001679      -0.00000219       0.00001689
Mo     573.53528536       0.00000148       7.50275666       0.00001231      -0.00000156      -0.00000226
S      573.53521317       1.83961169       9.07235096       0.00001245      -0.00000177      -0.00001959
S      573.53535859       1.83960819       5.93187920       0.00001294      -0.00000179       0.00001552
Mo     575.12840737       2.75942514       7.50282698       0.00001117      -0.00000133      -0.00000199
S      575.12834215       4.59903539       9.07242103       0.00001125      -0.00000153      -0.00001934
S      575.12847340       4.59903212       5.93194989       0.00001178      -0.00000156       0.00001580
Mo     573.53508828      -0.00000171      13.69749775       0.00001294      -0.00000144       0.00000042
S      573.53501688       3.67922843      15.26836756       0.00001278      -0.00000119      -0.00001736
S      573.53515795       3.67923074      12.12790774       0.00001324      -0.00000123       0.00001775
Mo     571.94194966       2.75941848      13.69742202       0.00001409      -0.00000173       0.00000018
S      571.94187086       0.91980586      15.26829240       0.00001396      -0.00000147      -0.00001754
S      571.94202648       0.91980828      12.12783140       0.00001442      -0.00000150       0.00001744
Mo     576.72153028       0.00000521       7.50289030       0.00001005      -0.00000111      -0.00000171
S      576.72147160       1.83961549       9.07248413       0.00001010      -0.00000130      -0.00001908
S      576.72158958       1.83961244       5.93201354       0.00001063      -0.00000133       0.00001610
Mo     578.31465398       2.75942793       7.50294710       0.00000899      -0.00000089      -0.00000144
S      578.31460141       4.59903822       9.07254074       0.00000902      -0.00000107      -0.00001882
S      578.31470704       4.59903539       5.93207063       0.00000953      -0.00000110       0.00001639
Mo     576.72137057       0.00000018      13.69762785       0.00001087      -0.00000098       0.00000091
S      576.72131265       3.67922983      15.26849670       0.00001066      -0.00000077      -0.00001698
S      576.72142716       3.67923187      12.12803894       0.00001112      -0.00000080       0.00001836
Mo     575.12822863       2.75942088      13.69756620       0.00001187      -0.00000119       0.00000066
S      575.12816421       0.91980769      15.26843551       0.00001168      -0.00000096      -0.00001718
S      575.12829155       0.91980987      12.12797676       0.00001214      -0.00000100       0.00001806
Mo     579.90777837       0.00000723       7.50299787       0.00000796      -0.00000066      -0.00000118
S      579.90773149       1.83961752       9.07259134       0.00000798      -0.00000083      -0.00001856
S      579.90782565       1.83961490       5.93212167       0.00000847      -0.00000086       0.00001665
Mo     581.50090336       2.75942934       7.50304306       0.00000695      -0.00000044      -0.00000093
S      581.50086179       4.59903962       9.07263640       0.00000697      -0.00000060      -0.00001831
S      581.50094529       4.59903718       5.93216708       0.00000742      -0.00000064       0.00001689
Mo     579.90765868       0.00000134      13.69773266       0.00000899      -0.00000067       0.00000139
S      579.90761239       3.67923061      15.26860071       0.00000879      -0.00000047      -0.00001654
S      579.90770390       3.67923236      12.12814469       0.00000920      -0.00000049       0.00001885
Mo     578.31451396       2.75942237      13.69768318       0.00000992      -0.00000081       0.00000116
S      578.31446208       0.91980874      15.26855161       0.00000971      -0.00000062      -0.00001677
S      578.31456465       0.91981064      12.12809475       0.00001016      -0.00000064       0.00001862
Mo     583.09402884       0.00000819       7.50308308       0.00000594      -0.00000023      -0.00000070
S      583.09399225       1.83961847       9.07267631       0.00000595      -0.00000040      -0.00001806
S      583.09406579       1.83961618       5.93220728       0.00000635      -0.00000043       0.00001710
Mo     584.68715469       2.75942999       7.50311827       0.00000489      -0.00000005      -0.00000050
S      584.68712281       4.59904026       9.07271143       0.00000490      -0.00000022      -0.00001784
S      584.68718696       4.59903809       5.93224260       0.00000524      -0.00000026       0.00001728
Mo     583.09395170       0.00000210      13.69781585       0.00000697      -0.00000046       0.00000176
S      583.09391539       3.67923104      15.26868321       0.00000683      -0.00000023      -0.00001610
S      583.09398708       3.67923255      12.12822866       0.00000713      -0.00000024       0.00001917
Mo     581.50080463       2.75942329      13.69777675       0.00000802      -0.00000055       0.00000159
S      581.50076351       0.91980932      15.26864444       0.00000784      -0.00000035      -0.00001631
S      581.50084476       0.91981094      12.12818919       0.00000820      -0.00000036       0.00001903
Mo     586.28028078       0.00000867       7.50314890       0.00000378       0.00000010      -0.00000033
S      586.28025344       1.83961893       9.07274202       0.00000379      -0.00000008      -0.00001765
S      586.28030858       1.83961683       5.93227330       0.00000406      -0.00000013       0.00001742
Mo     587.87340697       2.75943042       7.50317511       0.00000261       0.00000022      -0.00000021
S      587.87338409       4.59904066       9.07276823       0.00000262       0.00000002      -0.00001751
S      587.87343041       4.59903859       5.93229953       0.00000280      -0.00000003       0.00001752
Mo     586.28024880       0.00000268      13.69788035       0.00000460      -0.00000032       0.00000201
S      586.28022135       3.67923131      15.26874713       0.00000452      -0.00000004      -0.00001578
S      586.28027538       3.67923270      12.12829378       0.00000469      -0.00000006       0.00001934
Mo     584.68709980       2.75942393      13.69785030       0.00000583      -0.00000038       0.00000190
S      584.68706801       0.91980964      15.26871736       0.00000573      -0.00000013      -0.00001592
S      584.68713068       0.91981108      12.12826345       0.00000596      -0.00000014       0.00001927
Mo     589.46653311       0.00000912       7.50319697       0.00000137       0.00000031      -0.00000014
S      589.46651473       1.83961934       9.07279012       0.00000140       0.00000010      -0.00001742
S      589.46655218       1.83961725       5.93232134       0.00000147       0.00000005       0.00001757
Mo     591.05965905       2.75943095       7.50321440       0.00000009       0.00000037      -0.00000012
S      591.05964530       4.59904116       9.07280761       0.00000012       0.00000015      -0.00001740
S      591.05967361       4.59903898       5.93233865       0.00000009       0.00000010       0.00001758
Mo     589.46654909       0.00000324      13.69792775       0.00000191      -0.00000022       0.00000213
S      589.46653015       3.67923159      15.26879407       0.00000189       0.00000008      -0.00001560
S      589.46656719       3.67923301      12.12834161       0.00000193       0.00000007       0.00001941
Mo     587.87339860       2.75942449      13.69790616       0.00000328      -0.00000026       0.00000208
S      587.87337540       0.91980990      15.26877269       0.00000323       0.00000003      -0.00001567
S      587.87342096       0.91981129      12.12831982       0.00000334       0.00000001       0.00001939
