546
Lattice="30.395417565743546 0.0 0.0 -15.197708782871771 26.32320377056967 0.0 0.0 0.0 30.0" Properties=species:S:1:pos:R:3:masses:R:1:momenta:R:3:id:I:1:type:I:1:travel:I:3 comment="LAMMPS data file via write_data, version 28 Mar 2023, timestep = 64, units = metal" pbc="T T T"
Mo       0.83957417       1.63959178      12.63957871      95.95000002       0.00000000       0.00000000       0.00000000        1        1        0        0        0
Mo       3.67677058       0.18088913      12.62823244      95.95000002       0.00000000       0.00000000       0.00000000        2        1        0        0        0
Mo       3.51931755       3.35859442      12.61433338      95.95000002       0.00000000       0.00000000       0.00000000        3        1        0        0        0
Mo       6.36296467       1.90485398      12.58589007      95.95000002       0.00000000       0.00000000       0.00000000        4        1        0        0        0
Mo       9.20922687       0.46340150      12.55834700      95.95000002       0.00000000       0.00000000       0.00000000        5        1        0        0        0
Mo       3.34958593       6.53911492      12.58881504      95.95000002       0.00000000       0.00000000       0.00000000        6        1        0        0        0
Mo       6.19501393       5.08050553      12.55612188      95.95000002       0.00000000       0.00000000       0.00000000        7        1        0        0        0
Mo       9.04205013       3.63562949      12.51848081      95.95000002       0.00000000       0.00000000       0.00000000        8        1        0        0        0
Mo      11.88973751       2.20020731      12.49794637      95.95000002       0.00000000       0.00000000       0.00000000        9        1        0        0       -1
Mo      14.73437248       0.76679991      12.50522310      95.95000002       0.00000000       0.00000000       0.00000000       10        1        0        0        0
Mo       6.01715802       8.26014793      12.53491926      95.95000002       0.00000000       0.00000000       0.00000000       11        1        0        0        0
Mo       8.86405120       6.81246437      12.48577660      95.95000002       0.00000000       0.00000000       0.00000000       12        1        0        0       -1
Mo      11.71248717       5.37616928      12.45095128      95.95000002       0.00000000       0.00000000       0.00000000       13        1        0        0       -1
Mo      14.56031065       3.94516080      12.44464518      95.95000002       0.00000000       0.00000000       0.00000000       14        1        0        0       -1
Mo      17.40370448       2.51325174      12.46968017      95.95000002       0.00000000       0.00000000       0.00000000       15        1        0        0       -1
Mo      20.23886477       1.07571536      12.51726564      95.95000002       0.00000000       0.00000000       0.00000000       16        1        0        0        0
Mo       5.83686260      11.44256436      12.53841021      95.95000002       0.00000000       0.00000000       0.00000000       17        1        0        0        0
Mo       8.68089414       9.99287911      12.47755863      95.95000002       0.00000000       0.00000000       0.00000000       18        1        0        0       -1
Mo      11.52801890       8.55524708      12.42791593      95.95000002       0.00000000       0.00000000       0.00000000       19        1        0        0       -1
Mo      14.37678533       7.12474678      12.40561275      95.95000002       0.00000000       0.00000000       0.00000000       20        1        0        0       -1
Mo      17.22432138       5.69572274      12.41753849      95.95000002       0.00000000       0.00000000       0.00000000       21        1        0        0       -1
Mo      20.06729065       4.26319798      12.46181879      95.95000002       0.00000000       0.00000000       0.00000000       22        1        0        0       -1
Mo      22.90305011       2.82294006      12.52663416      95.95000002       0.00000000       0.00000000       0.00000000       23        1        0        0        0
Mo      25.73158799       1.37229539      12.59039870      95.95000002       0.00000000       0.00000000       0.00000000       24        1        0        0        0
Mo       8.50012011      13.17622013      12.49911707      95.95000002       0.00000000       0.00000000       0.00000000       25        1        0        0       -1
Mo      11.34264676      11.73669447      12.43771892      95.95000002       0.00000000       0.00000000       0.00000000       26        1        0        0       -1
Mo      14.18953843      10.30542863      12.39921548      95.95000002       0.00000000       0.00000000       0.00000000       27        1        0        0       -1
Mo      17.03813412       8.87729252      12.39401238      95.95000002       0.00000000       0.00000000       0.00000000       28        1        0        0       -1
Mo      19.88545897       7.44726399      12.42442123      95.95000002       0.00000000       0.00000000       0.00000000       29        1        0        0       -1
Mo      22.72895418       6.01057772      12.48422701      95.95000002       0.00000000       0.00000000       0.00000000       30        1        0        0       -1
Mo      25.56725572       4.56302947      12.55617181      95.95000002       0.00000000       0.00000000       0.00000000       31        1        0        0        0
Mo      28.40143926       3.10388070      12.61495010      95.95000002       0.00000000       0.00000000       0.00000000       32        1        0        0        0
Mo       8.32855138      16.36371749      12.53983627      95.95000002       0.00000000       0.00000000       0.00000000       33        1        0        0        0
Mo      11.16277244      14.92079288      12.47804835      95.95000002       0.00000000       0.00000000       0.00000000       34        1        0        0       -1
Mo      14.00446299      13.48708409      12.42812715      95.95000002       0.00000000       0.00000000       0.00000000       35        1        0        0       -1
Mo      16.85113891      12.05813269      12.40562967      95.95000002       0.00000000       0.00000000       0.00000000       36        1        0        0       -1
Mo      19.69943453      10.62892784      12.41768298      95.95000002       0.00000000       0.00000000       0.00000000       37        1        0        0       -1
Mo      22.54660475       9.19423675      12.46208712      95.95000002       0.00000000       0.00000000       0.00000000       38        1        0        0       -1
Mo      25.39116439       7.74901335      12.52572418      95.95000002       0.00000000       0.00000000       0.00000000       39        1        0        0        0
Mo      -2.16226626       6.29085087      12.58558202      95.95000002       0.00000000       0.00000000       0.00000000       40        1        1        0        0
Mo       0.67824375       4.82383910      12.61831113      95.95000002       0.00000000       0.00000000       0.00000000       41        1        1        0        0
Mo      10.99359029      18.10914651      12.53440287      95.95000002       0.00000000       0.00000000       0.00000000       42        1        0        0        0
Mo      13.82709256      16.67023726      12.48578787      95.95000002       0.00000000       0.00000000       0.00000000       43        1        0        0       -1
Mo      16.66904973      15.23809620      12.45099007      95.95000002       0.00000000       0.00000000       0.00000000       44        1        0        0       -1
Mo      19.51579393      13.80807952      12.44450747      95.95000002       0.00000000       0.00000000       0.00000000       45        1        0        0       -1
Mo      22.36353935      12.37449814      12.47002637      95.95000002       0.00000000       0.00000000       0.00000000       46        1        0        0       -1
Mo      -5.18523286      10.93135900      12.51793135      95.95000002       0.00000000       0.00000000       0.00000000       47        1        1        0        0
Mo      -2.33982901       9.47493726      12.56729364      95.95000002       0.00000000       0.00000000       0.00000000       48        1        1        0        0
Mo       0.50492651       8.00765003      12.59495324      95.95000002       0.00000000       0.00000000       0.00000000       49        1        1        0        0
Mo      10.83649571      21.30285402      12.58349763      95.95000002       0.00000000       0.00000000       0.00000000       50        1        0        0        0
Mo      13.66167922      19.85618247      12.55447904      95.95000002       0.00000000       0.00000000       0.00000000       51        1        0        0        0
Mo      16.49694213      18.41738848      12.51901648      95.95000002       0.00000000       0.00000000       0.00000000       52        1        0        0        0
Mo      19.34027253      16.98405998      12.49800392      95.95000002       0.00000000       0.00000000       0.00000000       53        1        0        0       -1
Mo      -8.20840204      15.55052748      12.50467418      95.95000002       0.00000000       0.00000000       0.00000000       54        1        1        0        0
Mo      -5.36198952      14.10976335      12.53587252      95.95000002       0.00000000       0.00000000       0.00000000       55        1        1        0        0
Mo      -2.51703624      12.65630611      12.57267075      95.95000002       0.00000000       0.00000000       0.00000000       56        1        1        0        0
Mo       0.32720286      11.19070298      12.59092130      95.95000002       0.00000000       0.00000000       0.00000000       57        1        1        0        0
Mo       3.17176223       9.72144301      12.57658063      95.95000002       0.00000000       0.00000000       0.00000000       58        1        1        0        0
Mo      13.50810098      23.04565020      12.60906132      95.95000002       0.00000000       0.00000000       0.00000000       59        1        0        0        0
Mo      16.33767223      21.59728930      12.58791235      95.95000002       0.00000000       0.00000000       0.00000000       60        1        0        0        0
Mo     -11.21872941      20.15722107      12.56107166      95.95000002       0.00000000       0.00000000       0.00000000       61        1        1        0        0
Mo      -8.37372066      18.72171831      12.55117000      95.95000002       0.00000000       0.00000000       0.00000000       62        1        1        0        0
Mo      -5.52794174      17.28322437      12.56618322      95.95000002       0.00000000       0.00000000       0.00000000       63        1        1        0        0
Mo      -2.68472950      15.83429537      12.59304141      95.95000002       0.00000000       0.00000000       0.00000000       64        1        1        0        0
Mo       0.15569546      14.37267873      12.60650602      95.95000002       0.00000000       0.00000000       0.00000000       65        1        1        0        0
Mo       2.99552469      12.90489630      12.58775890      95.95000002       0.00000000       0.00000000       0.00000000       66        1        1        0        0
Mo      13.35921555      26.23698794      12.62953400      95.95000002       0.00000000       0.00000000       0.00000000       67        1        0        0        0
Mo     -14.20750930      24.77912508      12.63261823      95.95000002       0.00000000       0.00000000       0.00000000       68        1        1        0        0
Mo     -11.37124546      23.32967035      12.61048085      95.95000002       0.00000000       0.00000000       0.00000000       69        1        1        0        0
Mo      -8.52806486      21.88941350      12.58892231      95.95000002       0.00000000       0.00000000       0.00000000       70        1        1        0        0
Mo      -5.68253656      20.45195972      12.58790345      95.95000002       0.00000000       0.00000000       0.00000000       71        1        1        0        0
Mo      -2.84000545      19.00847670      12.60592140      95.95000002       0.00000000       0.00000000       0.00000000       72        1        1        0        0
Mo      -0.00314029      17.55349903      12.62134386      95.95000002       0.00000000       0.00000000       0.00000000       73        1        1        0        0
Mo       2.82970223      16.08987717      12.60979404      95.95000002       0.00000000       0.00000000       0.00000000       74        1        1        0        0
Mo       5.66297315      14.62782431      12.56423702      95.95000002       0.00000000       0.00000000       0.00000000       75        1        1        0        0
Mo      -8.67842440      25.05703310      12.60145237      95.95000002       0.00000000       0.00000000       0.00000000       76        1        1        0        0
Mo      -5.83271875      23.61849419      12.58566642      95.95000002       0.00000000       0.00000000       0.00000000       77        1        1        0        0
Mo      -2.98900145      22.17982374      12.59260584      95.95000002       0.00000000       0.00000000       0.00000000       78        1        1        0        0
Mo      -0.15221700      20.73322141      12.61120427      95.95000002       0.00000000       0.00000000       0.00000000       79        1        1        0        0
Mo       2.67642039      19.27695362      12.61698777      95.95000002       0.00000000       0.00000000       0.00000000       80        1        1        0        0
Mo       5.50117769      17.81736941      12.59227540      95.95000002       0.00000000       0.00000000       0.00000000       81        1        1        0        0
Mo      -3.14261977      25.35070746      12.55181464      95.95000002       0.00000000       0.00000000       0.00000000       82        1        1        0        0
Mo      -0.30242893      23.91198846      12.56814990      95.95000002       0.00000000       0.00000000       0.00000000       83        1        1        0        0
Mo       2.52815844      22.46526254      12.59095606      95.95000002       0.00000000       0.00000000       0.00000000       84        1        1        0        0
Mo       5.34987921      21.01140058      12.59798300      95.95000002       0.00000000       0.00000000       0.00000000       85        1        1        0        0
Mo       8.16916307      19.55701774      12.57738066      95.95000002       0.00000000       0.00000000       0.00000000       86        1        1        0        0
Mo       2.37347300      25.65220946      12.53504499      95.95000002       0.00000000       0.00000000       0.00000000       87        1        1        0        0
Mo       5.19992401      24.20678152      12.56990156      95.95000002       0.00000000       0.00000000       0.00000000       88        1        1        0        0
Mo       8.01842533      22.75506024      12.58978372      95.95000002       0.00000000       0.00000000       0.00000000       89        1        1        0        0
Mo       7.86690475      25.95302186      12.56916006      95.95000002       0.00000000       0.00000000       0.00000000       90        1        1        0        0
Mo      10.68666513      24.49988870      12.60416086      95.95000002       0.00000000       0.00000000       0.00000000       91        1        1        0        0
Mo       2.77455149       1.54777109      18.88466651      95.95000002       0.00000000       0.00000000       0.00000000       92        1        0        0        0
Mo       2.93570634       4.73346746      18.90450003      95.95000002       0.00000000       0.00000000       0.00000000       93        1        0        0        0
Mo       5.60458280       3.00926856      18.92480087      95.95000002       0.00000000       0.00000000       0.00000000       94        1        0        0        0
Mo       8.27113098       1.27219178      18.94530955      95.95000002       0.00000000       0.00000000       0.00000000       95        1        0        0        0
Mo       5.77456411       6.19587435      18.95430679      95.95000002       0.00000000       0.00000000       0.00000000       96        1        0        0        0
Mo       8.43845495       4.46162308      18.98775496      95.95000002       0.00000000       0.00000000       0.00000000       97        1        0        0        0
Mo      11.10186202       2.71675229      19.00287003      95.95000002       0.00000000       0.00000000       0.00000000       98        1        0        0        0
Mo      13.76742138       0.96796296      18.99007610      95.95000002       0.00000000       0.00000000       0.00000000       99        1        0        0        0
Mo       5.95354971       9.37917443      18.96699400      95.95000002       0.00000000       0.00000000       0.00000000      100        1        0        0        0
Mo       8.61664498       7.64619997      19.01804164      95.95000002       0.00000000       0.00000000       0.00000000      101        1        0        0        0
Mo      11.27843974       5.90212366      19.05108844      95.95000002       0.00000000       0.00000000       0.00000000      102        1        0        0        0
Mo      13.94092982       4.15192826      19.05420486      95.95000002       0.00000000       0.00000000       0.00000000      103        1        0        0        0
Mo      16.60714737       2.40201249      19.02674572      95.95000002       0.00000000       0.00000000       0.00000000      104        1        0        0        0
Mo      19.28127628       0.65799930      18.97975420      95.95000002       0.00000000       0.00000000       0.00000000      105        1        0        0        0
Mo       8.79984262      10.82762892      19.02050607      95.95000002       0.00000000       0.00000000       0.00000000      106        1        0        0        0
Mo      11.46258450       9.08439539      19.07251948      95.95000002       0.00000000       0.00000000       0.00000000      107        1        0        0        0
Mo      14.12389903       7.33400621      19.09452452      95.95000002       0.00000000       0.00000000       0.00000000      108        1        0        0        0
Mo      16.78625556       5.58167389      19.08193418      95.95000002       0.00000000       0.00000000       0.00000000      109        1        0        0        0
Mo      19.45287713       3.83284821      19.03904493      95.95000002       0.00000000       0.00000000       0.00000000      110        1        0        0        0
Mo      22.12747292       2.09194073      18.97930305      95.95000002       0.00000000       0.00000000       0.00000000      111        1        0        0        0
Mo      24.81200992       0.36017212      18.92415861      95.95000002       0.00000000       0.00000000       0.00000000      112        1        0        0        0
Mo       8.98045708      14.00587410      18.99489263      95.95000002       0.00000000       0.00000000       0.00000000      113        1        0        0        0
Mo      11.64811394      12.26436126      19.06055456      95.95000002       0.00000000       0.00000000       0.00000000      114        1        0        0        0
Mo      14.31104133      10.51502157      19.10067505      95.95000002       0.00000000       0.00000000       0.00000000      115        1        0        0        0
Mo      16.97214809       8.76221962      19.10600979      95.95000002       0.00000000       0.00000000       0.00000000      116        1        0        0        0
Mo      19.63425071       7.01094821      19.07657342      95.95000002       0.00000000       0.00000000       0.00000000      117        1        0        0        0
Mo      22.30038684       5.26625158      19.02027133      95.95000002       0.00000000       0.00000000       0.00000000      118        1        0        0        0
Mo      24.97364232       3.53184201      18.95383405      95.95000002       0.00000000       0.00000000       0.00000000      119        1        0        0        0
Mo      27.65478072       1.80722194      18.90033938      95.95000002       0.00000000       0.00000000       0.00000000      120        1        0        0        0
Mo      11.82857373      15.44150900      19.02037264      95.95000002       0.00000000       0.00000000       0.00000000      121        1        0        0        0
Mo      14.49655585      13.69502661      19.07229591      95.95000002       0.00000000       0.00000000       0.00000000      122        1        0        0        0
Mo      17.15930238      11.94354167      19.09451073      95.95000002       0.00000000       0.00000000       0.00000000      123        1        0        0        0
Mo      19.82015844      10.19179246      19.08179627      95.95000002       0.00000000       0.00000000       0.00000000      124        1        0        0        0
Mo      22.48189246       8.44516143      19.03865643      95.95000002       0.00000000       0.00000000       0.00000000      125        1        0        0        0
Mo      25.14709828       6.70859246      18.97829598      95.95000002       0.00000000       0.00000000       0.00000000      126        1        0        0        0
Mo      -2.57743044       4.98387791      18.92085798      95.95000002       0.00000000       0.00000000       0.00000000      127        1        1        0        0
Mo       0.09829923       3.26679615      18.88679590      95.95000002       0.00000000       0.00000000       0.00000000      128        1        1        0        0
Mo      11.99841531      18.61526914      18.96664717      95.95000002       0.00000000       0.00000000       0.00000000      129        1        0        0        0
Mo      14.67454518      16.87378495      19.01748861      95.95000002       0.00000000       0.00000000       0.00000000      130        1        0        0        0
Mo      17.34174926      15.12563661      19.05115921      95.95000002       0.00000000       0.00000000       0.00000000      131        1        0        0        0
Mo      20.00422976      13.37495436      19.05425201      95.95000002       0.00000000       0.00000000       0.00000000      132        1        0        0        0
Mo      22.66539570      11.62764406      19.02664604      95.95000002       0.00000000       0.00000000       0.00000000      133        1        0        0        0
Mo      -5.06782524       9.88966486      18.98014610      95.95000002       0.00000000       0.00000000       0.00000000      134        1        1        0        0
Mo      -2.40274885       8.16414167      18.93350580      95.95000002       0.00000000       0.00000000       0.00000000      135        1        1        0        0
Mo       0.26568752       6.44837008      18.90511217      95.95000002       0.00000000       0.00000000       0.00000000      136        1        1        0        0
Mo      14.84019667      20.05176191      18.95281205      95.95000002       0.00000000       0.00000000       0.00000000      137        1        0        0        0
Mo      17.51382394      18.30911326      18.98812409      95.95000002       0.00000000       0.00000000       0.00000000      138        1        0        0        0
Mo      20.17995954      16.56106363      19.00311554      95.95000002       0.00000000       0.00000000       0.00000000      139        1        0        0        0
Mo      -7.55227931      14.81371929      18.98948061      95.95000002       0.00000000       0.00000000       0.00000000      140        1        1        0        0
Mo      -4.88900546      13.07429595      18.95618937      95.95000002       0.00000000       0.00000000       0.00000000      141        1        1        0        0
Mo      -2.22409007      11.34731514      18.92318307      95.95000002       0.00000000       0.00000000       0.00000000      142        1        1        0        0
Mo       0.44235705       9.63106830      18.90920664      95.95000002       0.00000000       0.00000000       0.00000000      143        1        1        0        0
Mo       3.10905894       7.91736434      18.92196977      95.95000002       0.00000000       0.00000000       0.00000000      144        1        1        0        0
Mo      14.99339873      23.23020451      18.90048825      95.95000002       0.00000000       0.00000000       0.00000000      145        1        0        0        0
Mo      17.67268175      21.49510777      18.92613158      95.95000002       0.00000000       0.00000000       0.00000000      146        1        0        0        0
Mo     -10.05225624      19.75151468      18.94680688      95.95000002       0.00000000       0.00000000       0.00000000      147        1        1        0        0
Mo      -7.38618701      18.00478682      18.94433278      95.95000002       0.00000000       0.00000000       0.00000000      148        1        1        0        0
Mo      -4.72010850      16.26321218      18.92049363      95.95000002       0.00000000       0.00000000       0.00000000      149        1        1        0        0
Mo      -2.05170014      14.53319142      18.89511658      95.95000002       0.00000000       0.00000000       0.00000000      150        1        1        0        0
Mo       0.61840861      12.81464919      18.89108511      95.95000002       0.00000000       0.00000000       0.00000000      151        1        1        0        0
Mo       3.28751951      11.10011909      18.91798832      95.95000002       0.00000000       0.00000000       0.00000000      152        1        1        0        0
Mo      30.33919837       0.08638276      18.87847337      95.95000002       0.00000000       0.00000000       0.00000000      153        1        0        1        0
Mo     -12.57339758      24.68325194      18.88804977      95.95000002       0.00000000       0.00000000       0.00000000      154        1        1        0        0
Mo      -9.90013209      22.94618603      18.90810000      95.95000002       0.00000000       0.00000000       0.00000000      155        1        1        0        0
Mo      -7.23192147      21.20140535      18.91390526      95.95000002       0.00000000       0.00000000       0.00000000      156        1        1        0        0
Mo      -4.56387191      19.45730725      18.89708620      95.95000002       0.00000000       0.00000000       0.00000000      157        1        1        0        0
Mo      -1.89190974      17.72227170      18.87228415      95.95000002       0.00000000       0.00000000       0.00000000      158        1        1        0        0
Mo       0.78433447      15.99880368      18.86586181      95.95000002       0.00000000       0.00000000       0.00000000      159        1        1        0        0
Mo       3.46097884      14.28139047      18.89470754      95.95000002       0.00000000       0.00000000       0.00000000      160        1        1        0        0
Mo       6.13328176      12.55990612      18.95344397      95.95000002       0.00000000       0.00000000       0.00000000      161        1        1        0        0
Mo      -9.75059822      26.14122657      18.90215182      95.95000002       0.00000000       0.00000000       0.00000000      162        1        1        0        0
Mo      -7.08215822      24.40009655      18.91457457      95.95000002       0.00000000       0.00000000       0.00000000      163        1        1        0        0
Mo      -4.41429192      22.65442031      18.90525243      95.95000002       0.00000000       0.00000000       0.00000000      164        1        1        0        0
Mo      -1.74194216      20.91352401      18.87928730      95.95000002       0.00000000       0.00000000       0.00000000      165        1        1        0        0
Mo       0.93794098      19.18284543      18.86058803      95.95000002       0.00000000       0.00000000       0.00000000      166        1        1        0        0
Mo       3.62268971      17.46019217      18.87373772      95.95000002       0.00000000       0.00000000       0.00000000      167        1        1        0        0
Mo       6.30528941      15.73709694      18.92408014      95.95000002       0.00000000       0.00000000       0.00000000      168        1        1        0        0
Mo      -4.26064776      25.84971851      18.94623202      95.95000002       0.00000000       0.00000000       0.00000000      169        1        1        0        0
Mo      -1.59118561      24.10395899      18.92342647      95.95000002       0.00000000       0.00000000       0.00000000      170        1        1        0        0
Mo       1.08662837      22.36541248      18.89250407      95.95000002       0.00000000       0.00000000       0.00000000      171        1        1        0        0
Mo       3.77408240      20.63572996      18.87918506      95.95000002       0.00000000       0.00000000       0.00000000      172        1        1        0        0
Mo       6.46541712      18.90972836      18.90120345      95.95000002       0.00000000       0.00000000       0.00000000      173        1        1        0        0
Mo       9.15183508      17.17976689      18.95518537      95.95000002       0.00000000       0.00000000       0.00000000      174        1        1        0        0
Mo       1.24174666      25.54590984      18.95550147      95.95000002       0.00000000       0.00000000       0.00000000      175        1        1        0        0
Mo       3.92434467      23.80860068      18.91881353      95.95000002       0.00000000       0.00000000       0.00000000      176        1        1        0        0
Mo       6.61683011      22.07824700      18.90328546      95.95000002       0.00000000       0.00000000       0.00000000      177        1        1        0        0
Mo       9.31127077      20.34914293      18.92148621      95.95000002       0.00000000       0.00000000       0.00000000      178        1        1        0        0
Mo       6.76866521      25.24544930      18.93350828      95.95000002       0.00000000       0.00000000       0.00000000      179        1        1        0        0
Mo       9.46237914      23.51582303      18.90975789      95.95000002       0.00000000       0.00000000       0.00000000      180        1        1        0        0
Mo      12.15571219      21.78655931      18.91911099      95.95000002       0.00000000       0.00000000       0.00000000      181        1        1        0        0
Mo      12.30513180      24.95745436      18.89528517      95.95000002       0.00000000       0.00000000       0.00000000      182        1        1        0        0
S        2.68917174       1.72983350      14.20231096      32.06000001       0.00000000       0.00000000       0.00000000      183        2        0        0        0
S        2.66853190       1.71890601      11.05966553      32.06000001       0.00000000       0.00000000       0.00000000      184        2        0        0       -1
S        5.53695115       0.27657254      14.17857659      32.06000001       0.00000000       0.00000000       0.00000000      185        2        0        0        0
S        5.50015641       0.26594860      11.03661549      32.06000001       0.00000000       0.00000000       0.00000000      186        2        0        0       -1
S        5.38416406       3.45615282      14.15788670      32.06000001       0.00000000       0.00000000       0.00000000      187        2        0        0        0
S        5.33577764       3.43181962      11.01609209      32.06000001       0.00000000       0.00000000       0.00000000      188        2        0        0       -1
S        8.23099639       2.01533546      14.12513992      32.06000001       0.00000000       0.00000000       0.00000000      189        2        0        0        0
S        8.17915064       1.98187495      10.98387641      32.06000001       0.00000000       0.00000000       0.00000000      190        2        0        0       -1
S       11.07068800       0.58638666      14.10620699      32.06000001       0.00000000       0.00000000       0.00000000      191        2        0        0        0
S       11.03369528       0.53922899      10.96520026      32.06000001       0.00000000       0.00000000       0.00000000      192        2        0        0       -1
S        5.21305510       6.62996894      14.13119575      32.06000001       0.00000000       0.00000000       0.00000000      193        2        0        0        0
S        5.16369032       6.61263243      10.98962197      32.06000001       0.00000000       0.00000000       0.00000000      194        2        0        0       -1
S        8.06424382       5.18610570      14.08983885      32.06000001       0.00000000       0.00000000       0.00000000      195        2        0        0        0
S        8.00470705       5.15812956      10.94856209      32.06000001       0.00000000       0.00000000       0.00000000      196        2        0        0       -1
S       10.90641799       3.75605167      14.05777372      32.06000001       0.00000000       0.00000000       0.00000000      197        2        0        0        0
S       10.85824953       3.71412627      10.91667301      32.06000001       0.00000000       0.00000000       0.00000000      198        2        0        0       -1
S       13.74294612       2.33114750      14.05119605      32.06000001       0.00000000       0.00000000       0.00000000      199        2        0        0        0
S       13.71725106       2.27585374      10.90998271      32.06000001       0.00000000       0.00000000       0.00000000      200        2        0        0       -1
S       16.57549300       0.90114486      14.07282110      32.06000001       0.00000000       0.00000000       0.00000000      201        2        0        0        0
S       16.57119223       0.84021307      10.93140339      32.06000001       0.00000000       0.00000000       0.00000000      202        2        0        0       -1
S        7.88362083       8.35360146      14.06854813      32.06000001       0.00000000       0.00000000       0.00000000      203        2        0        0        0
S        7.82485935       8.34751313      10.92711682      32.06000001       0.00000000       0.00000000       0.00000000      204        2        0        0       -1
S       10.72712735       6.92213854      14.02264348      32.06000001       0.00000000       0.00000000       0.00000000      205        2        0        0        0
S       10.67649083       6.90149920      10.88132513      32.06000001       0.00000000       0.00000000       0.00000000      206        2        0        0       -1
S       13.56494888       5.49892846      14.00104564      32.06000001       0.00000000       0.00000000       0.00000000      207        2        0        0        0
S       13.53671751       5.46281673      10.85959750      32.06000001       0.00000000       0.00000000       0.00000000      208        2        0        0       -1
S       16.39910141       4.07606623      14.01157301      32.06000001       0.00000000       0.00000000       0.00000000      209        2        0        0        0
S       16.39763264       4.02723173      10.87006421      32.06000001       0.00000000       0.00000000       0.00000000      210        2        0        0       -1
S       19.22991854       2.64566352      14.05164950      32.06000001       0.00000000       0.00000000       0.00000000      211        2        0        0        0
S       19.25075335       2.59267169      10.91014082      32.06000001       0.00000000       0.00000000       0.00000000      212        2        0        0       -1
S       22.05705851       1.20067111      14.10808731      32.06000001       0.00000000       0.00000000       0.00000000      213        2        0        0        0
S       22.08945581       1.15806555      10.96660943      32.06000001       0.00000000       0.00000000       0.00000000      214        2        0        0       -1
S        7.69918298      11.52209380      14.07457407      32.06000001       0.00000000       0.00000000       0.00000000      215        2        0        0        0
S        7.64486952      11.54348264      10.93305693      32.06000001       0.00000000       0.00000000       0.00000000      216        2        0        0       -1
S       10.54103333      10.08728456      14.01544944      32.06000001       0.00000000       0.00000000       0.00000000      217        2        0        0        0
S       10.49237211      10.09698457      10.87392135      32.06000001       0.00000000       0.00000000       0.00000000      218        2        0        0       -1
S       13.37867502       8.66347073      13.97789732      32.06000001       0.00000000       0.00000000       0.00000000      219        2        0        0        0
S       13.35083961       8.65760930      10.83613121      32.06000001       0.00000000       0.00000000       0.00000000      220        2        0        0       -1
S       16.21390831       7.24364017      13.97264232      32.06000001       0.00000000       0.00000000       0.00000000      221        2        0        0        0
S       16.21401697       7.22146096      10.83080058      32.06000001       0.00000000       0.00000000       0.00000000      222        2        0        0       -1
S       19.04738500       5.82094543      14.00196364      32.06000001       0.00000000       0.00000000       0.00000000      223        2        0        0        0
S       19.07486724       5.78535964      10.86043190      32.06000001       0.00000000       0.00000000       0.00000000      224        2        0        0       -1
S       21.87993286       4.38866276      14.05967127      32.06000001       0.00000000       0.00000000       0.00000000      225        2        0        0        0
S       21.92607538       4.34723664      10.91837783      32.06000001       0.00000000       0.00000000       0.00000000      226        2        0        0       -1
S       24.71315011       2.94031858      14.12890705      32.06000001       0.00000000       0.00000000       0.00000000      227        2        0        0        0
S       24.76185826       2.90507900      10.98737114      32.06000001       0.00000000       0.00000000       0.00000000      228        2        0        0       -1
S       27.54913804       1.47437602      14.18552545      32.06000001       0.00000000       0.00000000       0.00000000      229        2        0        0        0
S       27.58230151       1.45760375      11.04325273      32.06000001       0.00000000       0.00000000       0.00000000      230        2        0        0       -1
S       10.35587616      13.25652536      14.04000105      32.06000001       0.00000000       0.00000000       0.00000000      231        2        0        0        0
S       10.31217129      13.29464963      10.89862660      32.06000001       0.00000000       0.00000000       0.00000000      232        2        0        0       -1
S       13.19086210      11.82850368      13.98882314      32.06000001       0.00000000       0.00000000       0.00000000      233        2        0        0        0
S       13.16498540      11.85573749      10.84719000      32.06000001       0.00000000       0.00000000       0.00000000      234        2        0        0       -1
S       16.02550341      10.40825576      13.96647325      32.06000001       0.00000000       0.00000000       0.00000000      235        2        0        0        0
S       16.02621559      10.41922348      10.82454832      32.06000001       0.00000000       0.00000000       0.00000000      236        2        0        0       -1
S       18.86016381       8.98870266      13.97902358      32.06000001       0.00000000       0.00000000       0.00000000      237        2        0        0        0
S       18.88945993       8.98216339      10.83729278      32.06000001       0.00000000       0.00000000       0.00000000      238        2        0        0       -1
S       21.69587083       7.56319768      14.02468673      32.06000001       0.00000000       0.00000000       0.00000000      239        2        0        0        0
S       21.74784520       7.54155267      10.88345683      32.06000001       0.00000000       0.00000000       0.00000000      240        2        0        0       -1
S       24.53528035       6.12509195      14.09177624      32.06000001       0.00000000       0.00000000       0.00000000      241        2        0        0        0
S       24.59440054       6.09442673      10.95060136      32.06000001       0.00000000       0.00000000       0.00000000      242        2        0        0       -1
S       27.38098178       4.66917445      14.15793965      32.06000001       0.00000000       0.00000000       0.00000000      243        2        0        0        0
S       27.42541790       4.63921360      11.01626061      32.06000001       0.00000000       0.00000000       0.00000000      244        2        0        0       -1
S       -0.16308313       3.19911651      14.19895041      32.06000001       0.00000000       0.00000000       0.00000000      245        2        1        0        0
S       -0.15066935       3.17850206      11.05643985      32.06000001       0.00000000       0.00000000       0.00000000      246        2        1        0       -1
S       10.17728753      16.43691010      14.08709838      32.06000001       0.00000000       0.00000000       0.00000000      247        2        0        0        0
S       10.14357152      16.48949145      10.94602316      32.06000001       0.00000000       0.00000000       0.00000000      248        2        0        0       -1
S       13.00703272      14.99878733      14.03196700      32.06000001       0.00000000       0.00000000       0.00000000      249        2        0        0        0
S       12.98554116      15.05257412      10.89075989      32.06000001       0.00000000       0.00000000       0.00000000      250        2        0        0       -1
S       15.83949172      13.57374324      13.99546363      32.06000001       0.00000000       0.00000000       0.00000000      251        2        0        0        0
S       15.84018955      13.61633484      10.85394596      32.06000001       0.00000000       0.00000000       0.00000000      252        2        0        0       -1
S       18.67368716      12.15378171      13.98977907      32.06000001       0.00000000       0.00000000       0.00000000      253        2        0        0        0
S       18.70150492      12.17893380      10.84811477      32.06000001       0.00000000       0.00000000       0.00000000      254        2        0        0       -1
S       21.51016144      10.73093590      14.01762977      32.06000001       0.00000000       0.00000000       0.00000000      255        2        0        0        0
S       21.56216273      10.73768976      10.87625766      32.06000001       0.00000000       0.00000000       0.00000000      256        2        0        0       -1
S       24.35174065       9.29786196      14.07097769      32.06000001       0.00000000       0.00000000       0.00000000      257        2        0        0        0
S       24.41464065       9.28874280      10.92990522      32.06000001       0.00000000       0.00000000       0.00000000      258        2        0        0       -1
S       -3.19319845       7.84862044      14.13056072      32.06000001       0.00000000       0.00000000       0.00000000      259        2        1        0        0
S       -3.14173164       7.82923928      10.98941785      32.06000001       0.00000000       0.00000000       0.00000000      260        2        1        0       -1
S       -0.33383829       6.38384300      14.17258358      32.06000001       0.00000000       0.00000000       0.00000000      261        2        1        0        0
S       -0.31526370       6.36115038      11.03084808      32.06000001       0.00000000       0.00000000       0.00000000      262        2        1        0       -1
S        2.52806488       4.91452424      14.18072204      32.06000001       0.00000000       0.00000000       0.00000000      263        2        1        0        0
S        2.50668241       4.89240798      11.03858851      32.06000001       0.00000000       0.00000000       0.00000000      264        2        1        0       -1
S       12.83143978      18.18065724      14.09466929      32.06000001       0.00000000       0.00000000       0.00000000      265        2        0        0        0
S       12.81907302      18.24390902      10.95359280      32.06000001       0.00000000       0.00000000       0.00000000      266        2        0        0       -1
S       15.66075757      16.74460569      14.05381799      32.06000001       0.00000000       0.00000000       0.00000000      267        2        0        0        0
S       15.66183626      16.80798106      10.91264649      32.06000001       0.00000000       0.00000000       0.00000000      268        2        0        0       -1
S       18.49382610      15.32012427      14.03259832      32.06000001       0.00000000       0.00000000       0.00000000      269        2        0        0        0
S       18.51689285      15.37030520      10.89116973      32.06000001       0.00000000       0.00000000       0.00000000      270        2        0        0       -1
S       21.32959873      13.89738164      14.04154499      32.06000001       0.00000000       0.00000000       0.00000000      271        2        0        0        0
S       21.37644425      13.92934059      10.90005605      32.06000001       0.00000000       0.00000000       0.00000000      272        2        0        0       -1
S       -6.22509507      12.46660633      14.07747660      32.06000001       0.00000000       0.00000000       0.00000000      273        2        1        0        0
S       -6.16415416      12.48156091      10.93624345      32.06000001       0.00000000       0.00000000       0.00000000      274        2        1        0       -1
S       -3.37518669      11.02037589      14.12355299      32.06000001       0.00000000       0.00000000       0.00000000      275        2        1        0        0
S       -3.32096235      11.02283667      10.98254735      32.06000001       0.00000000       0.00000000       0.00000000      276        2        1        0       -1
S       -0.51442834       9.55829280      14.15655673      32.06000001       0.00000000       0.00000000       0.00000000      277        2        1        0        0
S       -0.49013148       9.55307681      11.01530767      32.06000001       0.00000000       0.00000000       0.00000000      278        2        1        0       -1
S        2.35161184       8.08996648      14.15913357      32.06000001       0.00000000       0.00000000       0.00000000      279        2        1        0        0
S        2.33470133       8.07945184      11.01752838      32.06000001       0.00000000       0.00000000       0.00000000      280        2        1        0       -1
S       12.66653671      21.37870161      14.15444438      32.06000001       0.00000000       0.00000000       0.00000000      281        2        0        0        0
S       12.66831364      21.42751042      11.01296697      32.06000001       0.00000000       0.00000000       0.00000000      282        2        0        0       -1
S       15.49378805      19.92635812      14.12478208      32.06000001       0.00000000       0.00000000       0.00000000      283        2        0        0        0
S       15.49630139      19.99008726      10.98336807      32.06000001       0.00000000       0.00000000       0.00000000      284        2        0        0       -1
S       18.32623870      18.49169559      14.09598227      32.06000001       0.00000000       0.00000000       0.00000000      285        2        0        0        0
S       18.34047110      18.55104850      10.95458180      32.06000001       0.00000000       0.00000000       0.00000000      286        2        0        0       -1
S       -9.23392546      17.06619337      14.08780234      32.06000001       0.00000000       0.00000000       0.00000000      287        2        1        0        0
S       -9.19966411      17.10995132      10.94629358      32.06000001       0.00000000       0.00000000       0.00000000      288        2        1        0       -1
S       -6.39517978      15.63713314      14.10628556      32.06000001       0.00000000       0.00000000       0.00000000      289        2        1        0        0
S       -6.34418445      15.66437176      10.96489182      32.06000001       0.00000000       0.00000000       0.00000000      290        2        1        0       -1
S       -3.54911322      14.19344924      14.13915556      32.06000001       0.00000000       0.00000000       0.00000000      291        2        1        0        0
S       -3.49856801      14.21012767      10.99802060      32.06000001       0.00000000       0.00000000       0.00000000      292        2        1        0       -1
S       -0.69290080      12.73213646      14.16294559      32.06000001       0.00000000       0.00000000       0.00000000      293        2        1        0        0
S       -0.66612302      12.74491769      11.02171674      32.06000001       0.00000000       0.00000000       0.00000000      294        2        1        0       -1
S        2.17021036      11.26244003      14.15761269      32.06000001       0.00000000       0.00000000       0.00000000      295        2        1        0        0
S        2.15866842      11.27315581      11.01621263      32.06000001       0.00000000       0.00000000       0.00000000      296        2        1        0       -1
S        5.03132033       9.79999071      14.12091306      32.06000001       0.00000000       0.00000000       0.00000000      297        2        1        0        0
S        4.98621505       9.80489084      10.97943088      32.06000001       0.00000000       0.00000000       0.00000000      298        2        1        0       -1
S       15.33964613      23.12162314      14.18362838      32.06000001       0.00000000       0.00000000       0.00000000      299        2        0        0        0
S       15.34427783      23.16238380      11.04144612      32.06000001       0.00000000       0.00000000       0.00000000      300        2        0        0       -1
S      -12.22136654      21.67226692      14.15897686      32.06000001       0.00000000       0.00000000       0.00000000      301        2        1        0        0
S      -12.21992065      21.71945580      11.01712681      32.06000001       0.00000000       0.00000000       0.00000000      302        2        1        0       -1
S       -9.38506259      20.23965674      14.13857853      32.06000001       0.00000000       0.00000000       0.00000000      303        2        1        0        0
S       -9.37235224      20.27663457      10.99702667      32.06000001       0.00000000       0.00000000       0.00000000      304        2        1        0       -1
S       -6.54738369      18.81145001      14.14026606      32.06000001       0.00000000       0.00000000       0.00000000      305        2        1        0        0
S       -6.51768459      18.83243762      10.99883836      32.06000001       0.00000000       0.00000000       0.00000000      306        2        1        0       -1
S       -3.70582068      17.37242273      14.16151793      32.06000001       0.00000000       0.00000000       0.00000000      307        2        1        0        0
S       -3.66917221      17.38348601      11.02018058      32.06000001       0.00000000       0.00000000       0.00000000      308        2        1        0       -1
S       -0.85738212      15.91401693      14.18129405      32.06000001       0.00000000       0.00000000       0.00000000      309        2        1        0        0
S       -0.83473840      15.92661552      11.03982978      32.06000001       0.00000000       0.00000000       0.00000000      310        2        1        0       -1
S        1.99682743      14.44213337      14.17521940      32.06000001       0.00000000       0.00000000       0.00000000      311        2        1        0        0
S        1.98839560      14.46293817      11.03378027      32.06000001       0.00000000       0.00000000       0.00000000      312        2        1        0       -1
S        4.85088604      12.97398208      14.13528477      32.06000001       0.00000000       0.00000000       0.00000000      313        2        1        0        0
S        4.81140556      12.99950796      10.99391803      32.06000001       0.00000000       0.00000000       0.00000000      314        2        1        0       -1
S       30.38863289       0.00122137      14.20931102      32.06000001       0.00000000       0.00000000       0.00000000      315        2        0        1        0
S        0.00084052       0.00674335      11.06647357      32.06000001       0.00000000       0.00000000       0.00000000      316        2        1        1       -1
S      -12.36309269      24.86161795      14.19842635      32.06000001       0.00000000       0.00000000       0.00000000      317        2        1        0        0
S      -12.37519394      24.87991395      11.05590135      32.06000001       0.00000000       0.00000000       0.00000000      318        2        1        0       -1
S       -9.52280192      23.41825546      14.17333426      32.06000001       0.00000000       0.00000000       0.00000000      319        2        1        0        0
S       -9.53678082      23.43317489      11.03149695      32.06000001       0.00000000       0.00000000       0.00000000      320        2        1        0       -1
S       -6.68423302      21.98794908      14.15990021      32.06000001       0.00000000       0.00000000       0.00000000      321        2        1        0        0
S       -6.68508614      21.98875416      11.01849701      32.06000001       0.00000000       0.00000000       0.00000000      322        2        1        0       -1
S       -3.84555979      20.55491450      14.16876318      32.06000001       0.00000000       0.00000000       0.00000000      323        2        1        0        0
S       -3.83318960      20.54372423      11.02739608      32.06000001       0.00000000       0.00000000       0.00000000      324        2        1        0       -1
S       -1.00454632      19.10479146      14.18759655      32.06000001       0.00000000       0.00000000       0.00000000      325        2        1        0        0
S       -0.99372484      19.09526505      11.04600787      32.06000001       0.00000000       0.00000000       0.00000000      326        2        1        0       -1
S        1.83862201      17.63555393      14.19110798      32.06000001       0.00000000       0.00000000       0.00000000      327        2        1        0        0
S        1.83040162      17.64257182      11.04944635      32.06000001       0.00000000       0.00000000       0.00000000      328        2        1        0       -1
S        4.68086834      16.16131253      14.16194224      32.06000001       0.00000000       0.00000000       0.00000000      329        2        1        0        0
S        4.64824748      16.18870172      11.02067828      32.06000001       0.00000000       0.00000000       0.00000000      330        2        1        0       -1
S        7.51977807      14.69946270      14.10501659      32.06000001       0.00000000       0.00000000       0.00000000      331        2        1        0        0
S        7.47305476      14.73860992      10.96376272      32.06000001       0.00000000       0.00000000       0.00000000      332        2        1        0       -1
S       -6.81893288      25.16419095      14.15380767      32.06000001       0.00000000       0.00000000       0.00000000      333        2        1        0        0
S       -6.85029647      25.14284267      11.01250331      32.06000001       0.00000000       0.00000000       0.00000000      334        2        1        0       -1
S       -3.98075605      23.73494189      14.14867821      32.06000001       0.00000000       0.00000000       0.00000000      335        2        1        0        0
S       -3.99607334      23.69988268      11.00757510      32.06000001       0.00000000       0.00000000       0.00000000      336        2        1        0       -1
S       -1.14406914      22.29627325      14.16382546      32.06000001       0.00000000       0.00000000       0.00000000      337        2        1        0        0
S       -1.14885690      22.25735467      11.02259498      32.06000001       0.00000000       0.00000000       0.00000000      338        2        1        0       -1
S        1.69105946      20.83823967      14.18070132      32.06000001       0.00000000       0.00000000       0.00000000      339        2        1        0        0
S        1.68234968      20.81414351      11.03921405      32.06000001       0.00000000       0.00000000       0.00000000      340        2        1        0       -1
S        4.52250284      19.36509257      14.17630317      32.06000001       0.00000000       0.00000000       0.00000000      341        2        1        0        0
S        4.50009536      19.37065192      11.03491278      32.06000001       0.00000000       0.00000000       0.00000000      342        2        1        0       -1
S        7.35013200      17.89328095      14.14171664      32.06000001       0.00000000       0.00000000       0.00000000      343        2        1        0        0
S        7.31658256      17.92863664      11.00064132      32.06000001       0.00000000       0.00000000       0.00000000      344        2        1        0       -1
S       -1.29138621      25.48003150      14.11246044      32.06000001       0.00000000       0.00000000       0.00000000      345        2        1        0        0
S       -1.30944045      25.42311822      10.97136476      32.06000001       0.00000000       0.00000000       0.00000000      346        2        1        0       -1
S        1.54069821      24.03746339      14.13665519      32.06000001       0.00000000       0.00000000       0.00000000      347        2        1        0        0
S        1.53340138      23.98542827      10.99540228      32.06000001       0.00000000       0.00000000       0.00000000      348        2        1        0       -1
S        4.36754173      22.57640303      14.15913074      32.06000001       0.00000000       0.00000000       0.00000000      349        2        1        0        0
S        4.35978438      22.54912090      11.01774097      32.06000001       0.00000000       0.00000000       0.00000000      350        2        1        0       -1
S        7.18848661      21.10364287      14.16097260      32.06000001       0.00000000       0.00000000       0.00000000      351        2        1        0        0
S        7.17514920      21.11373527      11.01969883      32.06000001       0.00000000       0.00000000       0.00000000      352        2        1        0       -1
S       10.00786994      19.63444243      14.13636772      32.06000001       0.00000000       0.00000000       0.00000000      353        2        1        0        0
S        9.99148140      19.67887189      10.99530404      32.06000001       0.00000000       0.00000000       0.00000000      354        2        1        0       -1
S        4.20545854      25.78029905      14.11151593      32.06000001       0.00000000       0.00000000       0.00000000      355        2        1        0        0
S        4.21380775      25.72958436      10.97004555      32.06000001       0.00000000       0.00000000       0.00000000      356        2        1        0       -1
S        7.02736629      24.31897091      14.14824842      32.06000001       0.00000000       0.00000000       0.00000000      357        2        1        0        0
S        7.03822978      24.29675035      11.00677011      32.06000001       0.00000000       0.00000000       0.00000000      358        2        1        0       -1
S        9.84569418      22.84699507      14.16502267      32.06000001       0.00000000       0.00000000       0.00000000      359        2        1        0        0
S        9.85253682      22.86308510      11.02351154      32.06000001       0.00000000       0.00000000       0.00000000      360        2        1        0       -1
S        9.68403541      26.06157207      14.16039091      32.06000001       0.00000000       0.00000000       0.00000000      361        2        1        0        0
S        9.71452093      26.04473926      11.01860186      32.06000001       0.00000000       0.00000000       0.00000000      362        2        1        0       -1
S       12.50956763      24.58882889      14.18818865      32.06000001       0.00000000       0.00000000       0.00000000      363        2        1        0        0
S       12.52773686      24.60477074      11.04600199      32.06000001       0.00000000       0.00000000       0.00000000      364        2        1        0       -1
S        4.59455677       1.44979116      20.47159868      32.06000001       0.00000000       0.00000000       0.00000000      365        2        0        0        0
S        4.62408384       1.47190168      17.33029447      32.06000001       0.00000000       0.00000000       0.00000000      366        2        0        0        0
S        4.75232785       4.63629761      20.49689426      32.06000001       0.00000000       0.00000000       0.00000000      367        2        0        0        0
S        4.78962919       4.66523721      17.35559406      32.06000001       0.00000000       0.00000000       0.00000000      368        2        0        0        0
S        7.41606682       2.89710001      20.52270302      32.06000001       0.00000000       0.00000000       0.00000000      369        2        0        0        0
S        7.45893962       2.93768851      17.38155975      32.06000001       0.00000000       0.00000000       0.00000000      370        2        0        0        0
S       10.08815322       1.14643906      20.53560097      32.06000001       0.00000000       0.00000000       0.00000000      371        2        0        0        0
S       10.11665052       1.19890709      17.39459359      32.06000001       0.00000000       0.00000000       0.00000000      372        2        0        0        0
S        7.58304974       6.09068612      20.55828526      32.06000001       0.00000000       0.00000000       0.00000000      373        2        0        0        0
S        7.63514578       6.12019992      17.41682670      32.06000001       0.00000000       0.00000000       0.00000000      374        2        0        0        0
S       10.25117173       4.33950955      20.58640248      32.06000001       0.00000000       0.00000000       0.00000000      375        2        0        0        0
S       10.29209288       4.38490100      17.44513058      32.06000001       0.00000000       0.00000000       0.00000000      376        2        0        0        0
S       12.92523113       2.58252944      20.58830986      32.06000001       0.00000000       0.00000000       0.00000000      377        2        0        0        0
S       12.94413439       2.64212147      17.44719811      32.06000001       0.00000000       0.00000000       0.00000000      378        2        0        0        0
S       15.60196696       0.82996700      20.56265083      32.06000001       0.00000000       0.00000000       0.00000000      379        2        0        0        0
S       15.60048960       0.89618321      17.42145622      32.06000001       0.00000000       0.00000000       0.00000000      380        2        0        0        0
S        7.76117607       9.28710345      20.57417278      32.06000001       0.00000000       0.00000000       0.00000000      381        2        0        0        0
S        7.81867244       9.29080830      17.43267710      32.06000001       0.00000000       0.00000000       0.00000000      382        2        0        0        0
S       10.42815338       7.53665316      20.62086364      32.06000001       0.00000000       0.00000000       0.00000000      383        2        0        0        0
S       10.47546487       7.55719334      17.47935404      32.06000001       0.00000000       0.00000000       0.00000000      384        2        0        0        0
S       13.10077934       5.77785475      20.64076483      32.06000001       0.00000000       0.00000000       0.00000000      385        2        0        0        0
S       13.12551397       5.81570399      17.49928179      32.06000001       0.00000000       0.00000000       0.00000000      386        2        0        0        0
S       15.77628085       4.01858720      20.62809823      32.06000001       0.00000000       0.00000000       0.00000000      387        2        0        0        0
S       15.77555916       4.07025681      17.48675867      32.06000001       0.00000000       0.00000000       0.00000000      388        2        0        0        0
S       18.45368039       2.26791825      20.58791334      32.06000001       0.00000000       0.00000000       0.00000000      389        2        0        0        0
S       18.43321538       2.32354702      17.44653132      32.06000001       0.00000000       0.00000000       0.00000000      390        2        0        0        0
S       21.13400980       0.53308410      20.53527663      32.06000001       0.00000000       0.00000000       0.00000000      391        2        0        0        0
S       21.10637002       0.57661360      17.39378846      32.06000001       0.00000000       0.00000000       0.00000000      392        2        0        0        0
S       10.61172403      10.73357431      20.62495391      32.06000001       0.00000000       0.00000000       0.00000000      393        2        0        0        0
S       10.66201080      10.72308385      17.48352868      32.06000001       0.00000000       0.00000000       0.00000000      394        2        0        0        0
S       13.28516168       8.97605346      20.66403481      32.06000001       0.00000000       0.00000000       0.00000000      395        2        0        0        0
S       13.31247095       8.98196223      17.52225256      32.06000001       0.00000000       0.00000000       0.00000000      396        2        0        0        0
S       15.96027893       7.21434549      20.66906732      32.06000001       0.00000000       0.00000000       0.00000000      397        2        0        0        0
S       15.95953366       7.23704925      17.52723853      32.06000001       0.00000000       0.00000000       0.00000000      398        2        0        0        0
S       18.63592652       5.45604893      20.64003592      32.06000001       0.00000000       0.00000000       0.00000000      399        2        0        0        0
S       18.60936997       5.49126265      17.49845897      32.06000001       0.00000000       0.00000000       0.00000000      400        2        0        0        0
S       21.31212082       3.70881644      20.58547038      32.06000001       0.00000000       0.00000000       0.00000000      401        2        0        0        0
S       21.26869873       3.74685932      17.44395033      32.06000001       0.00000000       0.00000000       0.00000000      402        2        0        0        0
S       23.98941422       1.97801730      20.52270727      32.06000001       0.00000000       0.00000000       0.00000000      403        2        0        0        0
S       23.94455205       2.00518076      17.38129607      32.06000001       0.00000000       0.00000000       0.00000000      404        2        0        0        0
S       26.66799830       0.26220570      20.47462347      32.06000001       0.00000000       0.00000000       0.00000000      405        2        0        0        0
S       26.63891846       0.26668680      17.33323152      32.06000001       0.00000000       0.00000000       0.00000000      406        2        0        0        0
S       10.79488508      13.92444562      20.59818886      32.06000001       0.00000000       0.00000000       0.00000000      407        2        0        0        0
S       10.84468097      13.88842120      17.45704008      32.06000001       0.00000000       0.00000000       0.00000000      408        2        0        0        0
S       13.47168810      12.17254782      20.65230873      32.06000001       0.00000000       0.00000000       0.00000000      409        2        0        0        0
S       13.50001416      12.14621333      17.51072567      32.06000001       0.00000000       0.00000000       0.00000000      410        2        0        0        0
S       16.14812801      10.41238867      20.67547074      32.06000001       0.00000000       0.00000000       0.00000000      411        2        0        0        0
S       16.14771137      10.40153098      17.53354392      32.06000001       0.00000000       0.00000000       0.00000000      412        2        0        0        0
S       18.82330766       8.65157780      20.66288404      32.06000001       0.00000000       0.00000000       0.00000000      413        2        0        0        0
S       18.79418636       8.65634720      17.52113553      32.06000001       0.00000000       0.00000000       0.00000000      414        2        0        0        0
S       21.49653489       6.89723058      20.61870849      32.06000001       0.00000000       0.00000000       0.00000000      415        2        0        0        0
S       21.44568666       6.91380780      17.47729468      32.06000001       0.00000000       0.00000000       0.00000000      416        2        0        0        0
S       24.16731186       5.15582812      20.55552828      32.06000001       0.00000000       0.00000000       0.00000000      417        2        0        0        0
S       24.10874426       5.17701004      17.41422253      32.06000001       0.00000000       0.00000000       0.00000000      418        2        0        0        0
S       26.83594327       3.43034674      20.49379659      32.06000001       0.00000000       0.00000000       0.00000000      419        2        0        0        0
S       26.78897163       3.44751409      17.35259739      32.06000001       0.00000000       0.00000000       0.00000000      420        2        0        0        0
S       -0.89162309       1.71594447      20.45540117      32.06000001       0.00000000       0.00000000       0.00000000      421        2        1        0        0
S       -0.91089507       1.72281879      17.31383826      32.06000001       0.00000000       0.00000000       0.00000000      422        2        1        0        0
S       13.65466159      15.36274276      20.60997257      32.06000001       0.00000000       0.00000000       0.00000000      423        2        0        0        0
S       13.68172148      15.31247140      17.46870860      32.06000001       0.00000000       0.00000000       0.00000000      424        2        0        0        0
S       16.33390768      13.60830929      20.64701367      32.06000001       0.00000000       0.00000000       0.00000000      425        2        0        0        0
S       16.33468157      13.56760886      17.50540150      32.06000001       0.00000000       0.00000000       0.00000000      426        2        0        0        0
S       19.01037209      11.84891368      20.65131027      32.06000001       0.00000000       0.00000000       0.00000000      427        2        0        0        0
S       18.98180487      11.82268188      17.50970273      32.06000001       0.00000000       0.00000000       0.00000000      428        2        0        0        0
S       21.68296057      10.09259545      20.62266003      32.06000001       0.00000000       0.00000000       0.00000000      429        2        0        0        0
S       21.63041073      10.08055967      17.48138355      32.06000001       0.00000000       0.00000000       0.00000000      430        2        0        0        0
S       24.35012354       8.34602410      20.57104082      32.06000001       0.00000000       0.00000000       0.00000000      431        2        0        0        0
S       24.28722129       8.34590943      17.42993060      32.06000001       0.00000000       0.00000000       0.00000000      432        2        0        0        0
S       -3.38401135       6.61325805      20.51405669      32.06000001       0.00000000       0.00000000       0.00000000      433        2        1        0        0
S       -3.43787219       6.62247398      17.37301673      32.06000001       0.00000000       0.00000000       0.00000000      434        2        1        0        0
S       -0.72655460       4.89286906      20.47213988      32.06000001       0.00000000       0.00000000       0.00000000      435        2        1        0        0
S       -0.75277517       4.90828459      17.33085287      32.06000001       0.00000000       0.00000000       0.00000000      436        2        1        0        0
S        1.93131497       3.17585975      20.45910336      32.06000001       0.00000000       0.00000000       0.00000000      437        2        1        0        0
S        1.93940077       3.19465137      17.31758741      32.06000001       0.00000000       0.00000000       0.00000000      438        2        1        0        0
S       13.82935858      18.54273178      20.55019915      32.06000001       0.00000000       0.00000000       0.00000000      439        2        0        0        0
S       13.85078630      18.48410434      17.40906429      32.06000001       0.00000000       0.00000000       0.00000000      440        2        0        0        0
S       16.51160751      16.79822093      20.59163546      32.06000001       0.00000000       0.00000000       0.00000000      441        2        0        0        0
S       16.51480070      16.73939171      17.45019717      32.06000001       0.00000000       0.00000000       0.00000000      442        2        0        0        0
S       19.19040114      15.04342703      20.60953190      32.06000001       0.00000000       0.00000000       0.00000000      443        2        0        0        0
S       19.16656153      14.99466849      17.46804599      32.06000001       0.00000000       0.00000000       0.00000000      444        2        0        0        0
S       21.86475518      13.28812356      20.59637220      32.06000001       0.00000000       0.00000000       0.00000000      445        2        0        0        0
S       21.81575558      13.25196367      17.45513881      32.06000001       0.00000000       0.00000000       0.00000000      446        2        0        0        0
S       -5.86327378      11.54077231      20.55938296      32.06000001       0.00000000       0.00000000       0.00000000      447        2        1        0        0
S       -5.92439177      11.51639610      17.41828508      32.06000001       0.00000000       0.00000000       0.00000000      448        2        1        0        0
S       -3.20441583       9.80582019      20.51583603      32.06000001       0.00000000       0.00000000       0.00000000      449        2        1        0        0
S       -3.25739079       9.79380806      17.37479197      32.06000001       0.00000000       0.00000000       0.00000000      450        2        1        0        0
S       -0.55242777       8.08205280      20.48486971      32.06000001       0.00000000       0.00000000       0.00000000      451        2        1        0        0
S       -0.57814623       8.08423790      17.34366830      32.06000001       0.00000000       0.00000000       0.00000000      452        2        1        0        0
S        2.09765074       6.36237360      20.47900271      32.06000001       0.00000000       0.00000000       0.00000000      453        2        1        0        0
S        2.10774652       6.37888951      17.33761219      32.06000001       0.00000000       0.00000000       0.00000000      454        2        1        0        0
S       16.67642034      19.97937303      20.52593573      32.06000001       0.00000000       0.00000000       0.00000000      455        2        0        0        0
S       16.68276200      19.92165370      17.38463299      32.06000001       0.00000000       0.00000000       0.00000000      456        2        0        0        0
S       19.35685253      18.23207106      20.55083451      32.06000001       0.00000000       0.00000000       0.00000000      457        2        0        0        0
S       19.34349800      18.17797918      17.40932097      32.06000001       0.00000000       0.00000000       0.00000000      458        2        0        0        0
S       -8.36143093      16.47923845      20.55060306      32.06000001       0.00000000       0.00000000       0.00000000      459        2        1        0        0
S       -8.39965196      16.43451377      17.40917458      32.06000001       0.00000000       0.00000000       0.00000000      460        2        1        0        0
S       -5.69059805      14.73227964      20.52615817      32.06000001       0.00000000       0.00000000       0.00000000      461        2        1        0        0
S       -5.74384064      14.69606773      17.38476067      32.06000001       0.00000000       0.00000000       0.00000000      462        2        1        0        0
S       -3.02897286      12.99803365      20.49448092      32.06000001       0.00000000       0.00000000       0.00000000      463        2        1        0        0
S       -3.07634616      12.96944536      17.35302258      32.06000001       0.00000000       0.00000000       0.00000000      464        2        1        0        0
S       -0.37600084      11.27524485      20.47681901      32.06000001       0.00000000       0.00000000       0.00000000      465        2        1        0        0
S       -0.39675682      11.25727031      17.33530956      32.06000001       0.00000000       0.00000000       0.00000000      466        2        1        0        0
S        2.27274972       9.55583338      20.48565382      32.06000001       0.00000000       0.00000000       0.00000000      467        2        1        0        0
S        2.28767152       9.55274488      17.34416064      32.06000001       0.00000000       0.00000000       0.00000000      468        2        1        0        0
S        4.92392007       7.82964061      20.51807419      32.06000001       0.00000000       0.00000000       0.00000000      469        2        1        0        0
S        4.96712257       7.84298691      17.37661271      32.06000001       0.00000000       0.00000000       0.00000000      470        2        1        0        0
S       16.82841059      23.15242767      20.47267943      32.06000001       0.00000000       0.00000000       0.00000000      471        2        0        0        0
S       16.83688807      23.11705472      17.33132593      32.06000001       0.00000000       0.00000000       0.00000000      472        2        0        0        0
S      -10.88797545      21.41429909      20.49624427      32.06000001       0.00000000       0.00000000       0.00000000      473        2        1        0        0
S      -10.88599271      21.37679902      17.35484903      32.06000001       0.00000000       0.00000000       0.00000000      474        2        1        0        0
S       -8.20932323      19.66512250      20.50504618      32.06000001       0.00000000       0.00000000       0.00000000      475        2        1        0        0
S       -8.22842475      19.63358572      17.36354284      32.06000001       0.00000000       0.00000000       0.00000000      476        2        1        0        0
S       -5.53419094      17.91758879      20.49027234      32.06000001       0.00000000       0.00000000       0.00000000      477        2        1        0        0
S       -5.57192806      17.89186597      17.34852601      32.06000001       0.00000000       0.00000000       0.00000000      478        2        1        0        0
S       -2.86643252      16.18265522      20.46462363      32.06000001       0.00000000       0.00000000       0.00000000      479        2        1        0        0
S       -2.90405091      16.15838534      17.32252396      32.06000001       0.00000000       0.00000000       0.00000000      480        2        1        0        0
S       -0.20701132      14.46182716      20.45219384      32.06000001       0.00000000       0.00000000       0.00000000      481        2        1        0        0
S       -0.22151241      14.43753450      17.30995548      32.06000001       0.00000000       0.00000000       0.00000000      482        2        1        0        0
S        2.44718591      12.74637083      20.47014729      32.06000001       0.00000000       0.00000000       0.00000000      483        2        1        0        0
S        2.46736685      12.72609113      17.32822236      32.06000001       0.00000000       0.00000000       0.00000000      484        2        1        0        0
S        5.10155211      11.02384298      20.51667606      32.06000001       0.00000000       0.00000000       0.00000000      485        2        1        0        0
S        5.14973967      11.01330458      17.37515169      32.06000001       0.00000000       0.00000000       0.00000000      486        2        1        0        0
S      -13.42007294      26.32291599      20.45032011      32.06000001       0.00000000       0.00000000       0.00000000      487        2        1        0        0
S      -13.41158392      26.32003392      17.30865331      32.06000001       0.00000000       0.00000000       0.00000000      488        2        1        0        0
S      -10.74719062      24.59287836      20.46711936      32.06000001       0.00000000       0.00000000       0.00000000      489        2        1        0        0
S      -10.72948279      24.58707147      17.32571335      32.06000001       0.00000000       0.00000000       0.00000000      490        2        1        0        0
S       -8.07046632      22.84824560      20.48103087      32.06000001       0.00000000       0.00000000       0.00000000      491        2        1        0        0
S       -8.06548969      22.84673633      17.33966909      32.06000001       0.00000000       0.00000000       0.00000000      492        2        1        0        0
S       -5.39304383      21.09933809      20.47437865      32.06000001       0.00000000       0.00000000       0.00000000      493        2        1        0        0
S       -5.40849230      21.10330492      17.33271242      32.06000001       0.00000000       0.00000000       0.00000000      494        2        1        0        0
S       -2.71930006      19.35994328      20.45103990      32.06000001       0.00000000       0.00000000       0.00000000      495        2        1        0        0
S       -2.74305997      19.36319044      17.30871490      32.06000001       0.00000000       0.00000000       0.00000000      496        2        1        0        0
S       -0.05121335      17.63700342      20.43368870      32.06000001       0.00000000       0.00000000       0.00000000      497        2        1        0        0
S       -0.06029532      17.63118699      17.29085288      32.06000001       0.00000000       0.00000000       0.00000000      498        2        1        0        0
S        2.61281061      15.92488642      20.44605639      32.06000001       0.00000000       0.00000000       0.00000000      499        2        1        0        0
S        2.63455322      15.90731203      17.30355179      32.06000001       0.00000000       0.00000000       0.00000000      500        2        1        0        0
S        5.27615755      14.20949944      20.49380449      32.06000001       0.00000000       0.00000000       0.00000000      501        2        1        0        0
S        5.32585692      14.18522055      17.35209340      32.06000001       0.00000000       0.00000000       0.00000000      502        2        1        0        0
S        7.94188244      12.47970723      20.56152658      32.06000001       0.00000000       0.00000000       0.00000000      503        2        1        0        0
S        8.00179760      12.45794045      17.42021758      32.06000001       0.00000000       0.00000000       0.00000000      504        2        1        0        0
S       -7.93224437      26.03222549      20.48954516      32.06000001       0.00000000       0.00000000       0.00000000      505        2        1        0        0
S       -7.90504924      26.06066773      17.34842485      32.06000001       0.00000000       0.00000000       0.00000000      506        2        1        0        0
S       -5.25611863      24.28224825      20.49139707      32.06000001       0.00000000       0.00000000       0.00000000      507        2        1        0        0
S       -5.24745456      24.31845092      17.35020397      32.06000001       0.00000000       0.00000000       0.00000000      508        2        1        0        0
S       -2.57944578      22.53601927      20.47150919      32.06000001       0.00000000       0.00000000       0.00000000      509        2        1        0        0
S       -2.58693193      22.57463404      17.32977186      32.06000001       0.00000000       0.00000000       0.00000000      510        2        1        0        0
S        0.09519019      20.80496793      20.44537241      32.06000001       0.00000000       0.00000000       0.00000000      511        2        1        0        0
S        0.08965378      20.83373340      17.30288074      32.06000001       0.00000000       0.00000000       0.00000000      512        2        1        0        0
S        2.76875366      19.09022346      20.43882635      32.06000001       0.00000000       0.00000000       0.00000000      513        2        1        0        0
S        2.78470074      19.09721424      17.29616463      32.06000001       0.00000000       0.00000000       0.00000000      514        2        1        0        0
S        5.44307603      17.38047245      20.46844206      32.06000001       0.00000000       0.00000000       0.00000000      515        2        1        0        0
S        5.48536883      17.36296984      17.32651600      32.06000001       0.00000000       0.00000000       0.00000000      516        2        1        0        0
S        8.11855191      15.66104807      20.52885051      32.06000001       0.00000000       0.00000000       0.00000000      517        2        1        0        0
S        8.17444488      15.62734736      17.38758628      32.06000001       0.00000000       0.00000000       0.00000000      518        2        1        0        0
S       -2.43336509      25.71703169      20.52382903      32.06000001       0.00000000       0.00000000       0.00000000      519        2        1        0        0
S       -2.42549127      25.77796419      17.38268116      32.06000001       0.00000000       0.00000000       0.00000000      520        2        1        0        0
S        0.24377895      23.97475018      20.49347638      32.06000001       0.00000000       0.00000000       0.00000000      521        2        1        0        0
S        0.24058284      24.03281642      17.35184806      32.06000001       0.00000000       0.00000000       0.00000000      522        2        1        0        0
S        2.92238482      22.25002725      20.46555746      32.06000001       0.00000000       0.00000000       0.00000000      523        2        1        0        0
S        2.92589497      22.28832272      17.32345619      32.06000001       0.00000000       0.00000000       0.00000000      524        2        1        0        0
S        5.60433985      20.53889693      20.46313763      32.06000001       0.00000000       0.00000000       0.00000000      525        2        1        0        0
S        5.62729990      20.54443790      17.32122114      32.06000001       0.00000000       0.00000000       0.00000000      526        2        1        0        0
S        8.28880734      18.82786588      20.49558803      32.06000001       0.00000000       0.00000000       0.00000000      527        2        1        0        0
S        8.32885093      18.80058644      17.35430906      32.06000001       0.00000000       0.00000000       0.00000000      528        2        1        0        0
S       10.97284487      17.10399880      20.55218078      32.06000001       0.00000000       0.00000000       0.00000000      529        2        1        0        0
S       11.01499661      17.05664017      17.41114360      32.06000001       0.00000000       0.00000000       0.00000000      530        2        1        0        0
S        3.08337084      25.41481271      20.52206069      32.06000001       0.00000000       0.00000000       0.00000000      531        2        1        0        0
S        3.07326856      25.47236184      17.38056395      32.06000001       0.00000000       0.00000000       0.00000000      532        2        1        0        0
S        5.76670067      23.69396482      20.48804540      32.06000001       0.00000000       0.00000000       0.00000000      533        2        1        0        0
S        5.76317842      23.72447028      17.34639946      32.06000001       0.00000000       0.00000000       0.00000000      534        2        1        0        0
S        8.45454336      21.98379101      20.48051688      32.06000001       0.00000000       0.00000000       0.00000000      535        2        1        0        0
S        8.46673257      21.97636135      17.33914711      32.06000001       0.00000000       0.00000000       0.00000000      536        2        1        0        0
S       11.14335921      20.27051610      20.50543914      32.06000001       0.00000000       0.00000000       0.00000000      537        2        1        0        0
S       11.16735995      20.22940869      17.36440791      32.06000001       0.00000000       0.00000000       0.00000000      538        2        1        0        0
S        8.62057943      25.13804882      20.49176507      32.06000001       0.00000000       0.00000000       0.00000000      539        2        1        0        0
S        8.60092290      25.15298068      17.35033149      32.06000001       0.00000000       0.00000000       0.00000000      540        2        1        0        0
S       11.30746497      23.42788849      20.47637645      32.06000001       0.00000000       0.00000000       0.00000000      541        2        1        0        0
S       11.30497032      23.40764615      17.33508977      32.06000001       0.00000000       0.00000000       0.00000000      542        2        1        0        0
S       13.99339054      21.71162970      20.49294175      32.06000001       0.00000000       0.00000000       0.00000000      543        2        1        0        0
S       14.00337075      21.66437891      17.35181435      32.06000001       0.00000000       0.00000000       0.00000000      544        2        1        0        0
S       14.14947056      24.87392768      20.45849322      32.06000001       0.00000000       0.00000000       0.00000000      545        2        1        0        0
S       14.14403895      24.85381478      17.31700063      32.06000001       0.00000000       0.00000000       0.00000000      546        2        1        0        0
