42
Lattice="8.43625277162533 0.0 0.0 4.218126385812664 7.3060092129744145 0.0 0.0 0.0 30.0" Properties=species:S:1:pos:R:3:masses:R:1:momenta:R:3:id:I:1:type:I:1:travel:I:3 comment="LAMMPS data file via write_data, version 28 Mar 2023, timestep = 45, units = metal" pbc="T T T"
Mo       9.21533429       1.65734561      12.50042728      95.95000002       0.00000000       0.00000000       0.00000000        1        1       -1        0        0
Mo       3.79388317       0.61420182      12.49702212      95.95000002       0.00000000       0.00000000       0.00000000        2        1        0        0       -1
Mo       3.18712571       3.74203264      12.49555894      95.95000002       0.00000000       0.00000000       0.00000000        3        1        0        0       -1
Mo       6.20562232       2.70062875      12.49475798      95.95000002       0.00000000       0.00000000       0.00000000        4        1        0        0       -1
Mo      11.02229605       6.87390833      12.49650998      95.95000002       0.00000000       0.00000000       0.00000000        5        1       -1        0       -1
Mo       5.59792742       5.83470064      12.49517272      95.95000002       0.00000000       0.00000000       0.00000000        6        1        0        0       -1
Mo       8.61151830       4.79078385      12.49650437      95.95000002       0.00000000       0.00000000       0.00000000        7        1        0        0       -1
W        2.60606820       1.39275749      19.00371455      32.06000001       0.00000000       0.00000000       0.00000000        8        3        0        0        0
W        3.20787422       4.52459998      19.00415501      32.06000001       0.00000000       0.00000000       0.00000000        9        3        0        0        0
W        5.61847894       2.43234551      19.00480394      32.06000001       0.00000000       0.00000000       0.00000000       10        3        0        0        0
W        8.03219291       0.34672339      19.00318183      32.06000001       0.00000000       0.00000000       0.00000000       11        3       -1        1        0
W        6.22583797       5.56640449      19.00484385      32.06000001       0.00000000       0.00000000       0.00000000       12        3        0        0        0
W        8.63207557       3.47629035      19.00343863      32.06000001       0.00000000       0.00000000       0.00000000       13        3        0        0        0
W        9.23564838       6.60950187      18.99975313      32.06000001       0.00000000       0.00000000       0.00000000       14        3        0        0        0
S        2.59016680       2.00063459      14.07074983     183.84000005       0.00000000       0.00000000       0.00000000       15        2        0        0        0
S        2.58554416       2.00315294      10.92733105     183.84000005       0.00000000       0.00000000       0.00000000       16        2        0        0       -1
S        5.60532876       0.96091592      14.06858843     183.84000005       0.00000000       0.00000000       0.00000000       17        2        0        0        0
S        5.60134873       0.96090737      10.92617217     183.84000005       0.00000000       0.00000000       0.00000000       18        2        0        0       -1
S        4.99686486       4.09138546      14.05547963     183.84000005       0.00000000       0.00000000       0.00000000       19        2        0        0        0
S        4.99670249       4.09235034      10.92521224     183.84000005       0.00000000       0.00000000       0.00000000       20        2        0        0       -1
S        8.01256815       3.05558503      14.06880027     183.84000005       0.00000000       0.00000000       0.00000000       21        2        0        0        0
S        8.01277795       3.04930849      10.92699209     183.84000005       0.00000000       0.00000000       0.00000000       22        2        0        0       -1
S        4.38825952       7.22260193      14.06993328     183.84000005       0.00000000       0.00000000       0.00000000       23        2        0        0        0
S        4.39331524       7.22580182      10.92713087     183.84000005       0.00000000       0.00000000       0.00000000       24        2        0        0       -1
S        7.40465177       6.18479608      14.06812392     183.84000005       0.00000000       0.00000000       0.00000000       25        2        0        0        0
S        7.40669534       6.18227373      10.92628163     183.84000005       0.00000000       0.00000000       0.00000000       26        2        0        0       -1
S       10.41774709       5.13308534      14.06949269     183.84000005       0.00000000       0.00000000       0.00000000       27        2        0        0        0
S       10.41918992       5.13510643      10.92624224     183.84000005       0.00000000       0.00000000       0.00000000       28        2        0        0       -1
S        4.41373019       1.04116867      20.58240681     183.84000005       0.00000000       0.00000000       0.00000000       29        2        0        0        0
S        4.40856750       1.04430135      17.42123720     183.84000005       0.00000000       0.00000000       0.00000000       30        2        0        0        0
S        5.01729099       4.17460900      20.58408152     183.84000005       0.00000000       0.00000000       0.00000000       31        2        0        0        0
S        5.01784985       4.17531642      17.43398774     183.84000005       0.00000000       0.00000000       0.00000000       32        2        0        0        0
S        7.42707795       2.08496719      20.58330665     183.84000005       0.00000000       0.00000000       0.00000000       33        2        0        0        0
S        7.42531744       2.08235566      17.42281363     183.84000005       0.00000000       0.00000000       0.00000000       34        2        0        0        0
S        5.62141044       7.30565727      20.58341472     183.84000005       0.00000000       0.00000000       0.00000000       35        2        0        0        0
S        1.40650667       0.00002064      17.42182216     183.84000005       0.00000000       0.00000000       0.00000000       36        2        0        1        0
S        8.03291752       5.21768508      20.58236998     183.84000005       0.00000000       0.00000000       0.00000000       37        2        0        0        0
S        8.03284221       5.21192629      17.42144073     183.84000005       0.00000000       0.00000000       0.00000000       38        2        0        0        0
S        2.00356995       3.13186997      20.58328155     183.84000005       0.00000000       0.00000000       0.00000000       39        2        1        0        0
S        2.00234993       3.13337936      17.42150219     183.84000005       0.00000000       0.00000000       0.00000000       40        2        1        0        0
S       11.04218481       6.26336752      20.58209206     183.84000005       0.00000000       0.00000000       0.00000000       41        2        0        0        0
S       11.04658677       6.26592208      17.41986839     183.84000005       0.00000000       0.00000000       0.00000000       42        2        0        0        0
