366
Lattice="24.88584176426308 0.0 0.0 12.442920882131531 21.55177116241158 0.0 0.0 0.0 30.0" Properties=species:S:1:pos:R:3:masses:R:1:momenta:R:3:id:I:1:type:I:1:travel:I:3 comment="LAMMPS data file via write_data, version 28 Mar 2023, timestep = 53, units = metal" pbc="T T T"
Mo      25.70514453       1.64901836      12.60650716      95.95000002       0.00000000       0.00000000       0.00000000        1        1       -1        0        0
Mo       3.67439400       0.22664090      12.59510604      95.95000002       0.00000000       0.00000000       0.00000000        2        1        0        0        0
Mo       3.47614939       3.40203014      12.58035582      95.95000002       0.00000000       0.00000000       0.00000000        3        1        0        0        0
Mo       6.33717653       1.98466725      12.55104049      95.95000002       0.00000000       0.00000000       0.00000000        4        1        0        0        0
Mo       9.19981045       0.57793269      12.53127106      95.95000002       0.00000000       0.00000000       0.00000000        5        1        0        0        0
Mo      28.15270037       6.58088967      12.56103940      95.95000002       0.00000000       0.00000000       0.00000000        6        1       -1        0        0
Mo       6.12846826       5.15919664      12.52208597      95.95000002       0.00000000       0.00000000       0.00000000        7        1        0        0        0
Mo       8.99202132       3.75068259      12.48640323      95.95000002       0.00000000       0.00000000       0.00000000        8        1        0        0       -1
Mo      11.85484207       2.34912364      12.47940015      95.95000002       0.00000000       0.00000000       0.00000000        9        1        0        0       -1
Mo      14.71161179       0.94611652      12.50561511      95.95000002       0.00000000       0.00000000       0.00000000       10        1        0        0        0
Mo       5.91275770       8.33800554      12.51297633      95.95000002       0.00000000       0.00000000       0.00000000       11        1        0        0        0
Mo       8.77478580       6.92734205      12.46111785      95.95000002       0.00000000       0.00000000       0.00000000       12        1        0        0       -1
Mo      11.63893046       5.52633361      12.43531055      95.95000002       0.00000000       0.00000000       0.00000000       13        1        0        0       -1
Mo      14.50130686       4.12741847      12.44946845      95.95000002       0.00000000       0.00000000       0.00000000       14        1        0        0       -1
Mo      17.35754475       2.72373757      12.49827880      95.95000002       0.00000000       0.00000000       0.00000000       15        1        0        0       -1
Mo      20.20576401       1.31075769      12.55798660      95.95000002       0.00000000       0.00000000       0.00000000       16        1        0        0        0
Mo      30.58569245      11.52006905      12.53290503      95.95000002       0.00000000       0.00000000       0.00000000       17        1       -1        0        0
Mo       8.55611086      10.10716199      12.47173048      95.95000002       0.00000000       0.00000000       0.00000000       18        1        0        0       -1
Mo      11.41772784       8.70501190      12.42761450      95.95000002       0.00000000       0.00000000       0.00000000       19        1        0        0       -1
Mo      14.28168082       7.30732206      12.42154171      95.95000002       0.00000000       0.00000000       0.00000000       20        1        0        0       -1
Mo      17.14390844       5.90700864      12.45757206      95.95000002       0.00000000       0.00000000       0.00000000       21        1        0        0       -1
Mo      20.00131745       4.49775864      12.52110089      95.95000002       0.00000000       0.00000000       0.00000000       22        1        0        0        0
Mo      22.85379697       3.07657207      12.58078558      95.95000002       0.00000000       0.00000000       0.00000000       23        1        0        0        0
Mo       8.34471986      13.29043933      12.51300423      95.95000002       0.00000000       0.00000000       0.00000000       24        1        0        0        0
Mo      11.19947044      11.88505941      12.46116919      95.95000002       0.00000000       0.00000000       0.00000000       25        1        0        0       -1
Mo      14.06082336      10.48612647      12.43541992      95.95000002       0.00000000       0.00000000       0.00000000       26        1        0        0       -1
Mo      16.92445233       9.08693329      12.44958308      95.95000002       0.00000000       0.00000000       0.00000000       27        1        0        0       -1
Mo      19.78662906       7.68020402      12.49793291      95.95000002       0.00000000       0.00000000       0.00000000       28        1        0        0       -1
Mo      22.64601764       6.26071879      12.55487419      95.95000002       0.00000000       0.00000000       0.00000000       29        1        0        0        0
Mo      25.50364718       4.83084568      12.58735064      95.95000002       0.00000000       0.00000000       0.00000000       30        1        0        0        0
Mo      33.03148214      16.47870937      12.55858710      95.95000002       0.00000000       0.00000000       0.00000000       31        1       -1        0        0
Mo      10.99135039      15.06734107      12.52123672      95.95000002       0.00000000       0.00000000       0.00000000       32        1        0        0        0
Mo      13.84662752      13.66381418      12.48680454      95.95000002       0.00000000       0.00000000       0.00000000       33        1        0        0       -1
Mo      16.70830602      12.26336554      12.47958311      95.95000002       0.00000000       0.00000000       0.00000000       34        1        0        0       -1
Mo      19.57117378      10.85832142      12.50591965      95.95000002       0.00000000       0.00000000       0.00000000       35        1        0        0        0
Mo      22.43254344       9.44158071      12.54765462      95.95000002       0.00000000       0.00000000       0.00000000       36        1        0        0        0
Mo      25.29257809       8.01255453      12.57283955      95.95000002       0.00000000       0.00000000       0.00000000       37        1        0        0        0
Mo      10.79595415      18.25308070      12.57630132      95.95000002       0.00000000       0.00000000       0.00000000       38        1        0        0        0
Mo      13.64461198      16.84113171      12.55256575      95.95000002       0.00000000       0.00000000       0.00000000       39        1        0        0        0
Mo      16.50241389      15.43596911      12.53259410      95.95000002       0.00000000       0.00000000       0.00000000       40        1        0        0        0
Mo      19.36428170      14.03124634      12.53769590      95.95000002       0.00000000       0.00000000       0.00000000       41        1        0        0        0
Mo      22.22483844      12.61828105      12.56278307      95.95000002       0.00000000       0.00000000       0.00000000       42        1        0        0        0
Mo      25.08267238      11.19300027      12.57931828      95.95000002       0.00000000       0.00000000       0.00000000       43        1        0        0        0
Mo      27.93975755       9.76196147      12.56176177      95.95000002       0.00000000       0.00000000       0.00000000       44        1        0        0        0
Mo      35.49243882      21.44118123      12.59691217      95.95000002       0.00000000       0.00000000       0.00000000       45        1       -1        0        0
Mo      13.45340000      20.01994425      12.59909156      95.95000002       0.00000000       0.00000000       0.00000000       46        1        0        0        0
Mo      16.30800933      18.60652135      12.57941770      95.95000002       0.00000000       0.00000000       0.00000000       47        1        0        0        0
Mo      19.16859303      17.19962499      12.56800841      95.95000002       0.00000000       0.00000000       0.00000000       48        1        0        0        0
Mo      22.02861456      15.79053006      12.57808752      95.95000002       0.00000000       0.00000000       0.00000000       49        1        0        0        0
Mo      24.88345689      14.37161049      12.59197179      95.95000002       0.00000000       0.00000000       0.00000000       50        1        0        0        0
Mo      27.73417634      12.94448755      12.57999889      95.95000002       0.00000000       0.00000000       0.00000000       51        1        0        0        0
Mo      18.97745069      20.36665944      12.57324002      95.95000002       0.00000000       0.00000000       0.00000000       52        1        0        0        0
Mo      21.83846488      18.95996095      12.56859795      95.95000002       0.00000000       0.00000000       0.00000000       53        1        0        0        0
Mo      24.69363948      17.54871646      12.58189463      95.95000002       0.00000000       0.00000000       0.00000000       54        1        0        0        0
Mo      27.54052085      16.12887096      12.58799974      95.95000002       0.00000000       0.00000000       0.00000000       55        1        0        0        0
Mo      30.38366850      14.70623113      12.56382481      95.95000002       0.00000000       0.00000000       0.00000000       56        1        0        0        0
Mo      24.50168768      20.72488559      12.53824251      95.95000002       0.00000000       0.00000000       0.00000000       57        1        0        0        0
Mo      27.35147247      19.31421848      12.56148736      95.95000002       0.00000000       0.00000000       0.00000000       58        1        0        0        0
Mo      30.19233378      17.89669122      12.57423800      95.95000002       0.00000000       0.00000000       0.00000000       59        1        0        0        0
Mo      30.00163302      21.08795697      12.54759002      95.95000002       0.00000000       0.00000000       0.00000000       60        1        0        0        0
Mo      32.84133413      19.67097669      12.57714737      95.95000002       0.00000000       0.00000000       0.00000000       61        1        0        0        0
Mo       2.77830534       1.53069697      18.91430208      95.95000002       0.00000000       0.00000000       0.00000000       62        1        0        0        0
Mo       2.97958460       4.71385094      18.93265447      95.95000002       0.00000000       0.00000000       0.00000000       63        1        0        0        0
Mo       5.62662025       2.95480869      18.95575873      95.95000002       0.00000000       0.00000000       0.00000000       64        1        0        0        0
Mo       8.27255070       1.18376114      18.96952285      95.95000002       0.00000000       0.00000000       0.00000000       65        1        0        0        0
Mo       5.83628382       6.13816111      18.98288609      95.95000002       0.00000000       0.00000000       0.00000000       66        1        0        0        0
Mo       8.47980030       4.36867481      19.01612564      95.95000002       0.00000000       0.00000000       0.00000000       67        1        0        0        0
Mo      11.12409658       2.59098711      19.01915748      95.95000002       0.00000000       0.00000000       0.00000000       68        1        0        0        0
Mo      13.77333582       0.81371111      18.98978199      95.95000002       0.00000000       0.00000000       0.00000000       69        1        0        0        0
Mo       6.05218236       9.31816665      18.98446173      95.95000002       0.00000000       0.00000000       0.00000000       70        1        0        0        0
Mo       8.69679705       7.54957855      19.03946395      95.95000002       0.00000000       0.00000000       0.00000000       71        1        0        0        0
Mo      11.33944607       5.77167342      19.06486315      95.95000002       0.00000000       0.00000000       0.00000000       72        1        0        0        0
Mo      13.98361058       3.99110056      19.04982326      95.95000002       0.00000000       0.00000000       0.00000000       73        1        0        0        0
Mo      16.63377121       2.21538470      19.00289694      95.95000002       0.00000000       0.00000000       0.00000000       74        1        0        0        0
Mo      19.29362940       0.44899982      18.94986515      95.95000002       0.00000000       0.00000000       0.00000000       75        1        0        0        0
Mo       8.91558555      10.72745005      19.02603994      95.95000002       0.00000000       0.00000000       0.00000000       76        1        0        0        0
Mo      11.56053788       8.95081004      19.07223466      95.95000002       0.00000000       0.00000000       0.00000000       77        1        0        0        0
Mo      14.20293620       7.16949736      19.07848496      95.95000002       0.00000000       0.00000000       0.00000000       78        1        0        0        0
Mo      16.84685520       5.39041928      19.04375057      95.95000002       0.00000000       0.00000000       0.00000000       79        1        0        0        0
Mo      19.49638101       3.62009845      18.98444274      95.95000002       0.00000000       0.00000000       0.00000000       80        1        0        0        0
Mo      22.15385458       1.86052308      18.93025830      95.95000002       0.00000000       0.00000000       0.00000000       81        1        0        0        0
Mo       9.12742252      13.90161120      18.98525761      95.95000002       0.00000000       0.00000000       0.00000000       82        1        0        0        0
Mo      11.77924590      12.12857828      19.03937532      95.95000002       0.00000000       0.00000000       0.00000000       83        1        0        0        0
Mo      14.42396542      10.34901246      19.06476040      95.95000002       0.00000000       0.00000000       0.00000000       84        1        0        0        0
Mo      17.06613982       8.56917947      19.04973079      95.95000002       0.00000000       0.00000000       0.00000000       85        1        0        0        0
Mo      19.70961652       6.79645432      19.00294980      95.95000002       0.00000000       0.00000000       0.00000000       86        1        0        0        0
Mo      22.35759696       5.03559069      18.94877782      95.95000002       0.00000000       0.00000000       0.00000000       87        1        0        0        0
Mo      25.01045978       3.28381447      18.91536537      95.95000002       0.00000000       0.00000000       0.00000000       88        1        0        0        0
Mo      11.98792501      15.30487984      18.98246874      95.95000002       0.00000000       0.00000000       0.00000000       89        1        0        0        0
Mo      14.63839390      13.52972863      19.01599606      95.95000002       0.00000000       0.00000000       0.00000000       90        1        0        0        0
Mo      17.28287161      11.75119495      19.01874544      95.95000002       0.00000000       0.00000000       0.00000000       91        1        0        0        0
Mo      19.92583233       9.97741973      18.99008871      95.95000002       0.00000000       0.00000000       0.00000000       92        1        0        0        0
Mo      22.57023900       8.21509581      18.95069434      95.95000002       0.00000000       0.00000000       0.00000000       93        1        0        0        0
Mo      25.21724013       6.46360774      18.92712765      95.95000002       0.00000000       0.00000000       0.00000000       94        1        0        0        0
Mo      12.18345075      18.48085736      18.93019895      95.95000002       0.00000000       0.00000000       0.00000000       95        1        0        0        0
Mo      14.84001007      16.71247168      18.95624239      95.95000002       0.00000000       0.00000000       0.00000000       96        1        0        0        0
Mo      17.48878894      14.93711354      18.96886865      95.95000002       0.00000000       0.00000000       0.00000000       97        1        0        0        0
Mo      20.13465491      13.16270195      18.95477118      95.95000002       0.00000000       0.00000000       0.00000000       98        1        0        0        0
Mo      22.78126973      11.39811326      18.92908461      95.95000002       0.00000000       0.00000000       0.00000000       99        1        0        0        0
Mo      25.42933671       9.64500833      18.91980514      95.95000002       0.00000000       0.00000000       0.00000000      100        1        0        0        0
Mo      28.07687528       7.89543186      18.94157759      95.95000002       0.00000000       0.00000000       0.00000000      101        1        0        0        0
Mo      24.81542812       0.10580219      18.90778699      95.95000002       0.00000000       0.00000000       0.00000000      102        1       -1        1        0
Mo      15.03059732      19.89751085      18.91699734      95.95000002       0.00000000       0.00000000       0.00000000      103        1        0        0        0
Mo      17.68229326      18.12741358      18.93108377      95.95000002       0.00000000       0.00000000       0.00000000      104        1        0        0        0
Mo      20.33093184      16.35284932      18.92580666      95.95000002       0.00000000       0.00000000       0.00000000      105        1        0        0        0
Mo      22.98128042      14.58429596      18.90557978      95.95000002       0.00000000       0.00000000       0.00000000      106        1        0        0        0
Mo      25.63499538      12.82690343      18.89880642      95.95000002       0.00000000       0.00000000       0.00000000      107        1        0        0        0
Mo      28.28872830      11.07524874      18.92762339      95.95000002       0.00000000       0.00000000       0.00000000      108        1        0        0        0
Mo      17.87190701      21.31874590      18.92867103      95.95000002       0.00000000       0.00000000       0.00000000      109        1        0        0        0
Mo      20.52047584      19.54550066      18.93049860      95.95000002       0.00000000       0.00000000       0.00000000      110        1        0        0        0
Mo      23.17154934      17.77245481      18.91154884      95.95000002       0.00000000       0.00000000       0.00000000      111        1        0        0        0
Mo      25.82910239      16.00824883      18.89372388      95.95000002       0.00000000       0.00000000       0.00000000      112        1        0        0        0
Mo      28.49110506      14.25195742      18.90763868      95.95000002       0.00000000       0.00000000       0.00000000      113        1        0        0        0
Mo      31.15015267      12.49436567      18.95996957      95.95000002       0.00000000       0.00000000       0.00000000      114        1        0        0        0
Mo      23.36353147      20.95932953      18.95677902      95.95000002       0.00000000       0.00000000       0.00000000      115        1        0        0        0
Mo      26.01877082      19.18783351      18.92709272      95.95000002       0.00000000       0.00000000       0.00000000      116        1        0        0        0
Mo      28.68340337      17.42497438      18.91079380      95.95000002       0.00000000       0.00000000       0.00000000      117        1        0        0        0
Mo      31.35143275      15.66574475      18.93219285      95.95000002       0.00000000       0.00000000       0.00000000      118        1        0        0        0
Mo      28.87516377      20.59561074      18.94842715      95.95000002       0.00000000       0.00000000       0.00000000      119        1        0        0        0
Mo      31.54367956      18.83335062      18.92656808      95.95000002       0.00000000       0.00000000       0.00000000      120        1        0        0        0
Mo      34.21302860      17.07217539      18.94216084      95.95000002       0.00000000       0.00000000       0.00000000      121        1        0        0        0
Mo      34.40388698      20.24134941      18.92168269      95.95000002       0.00000000       0.00000000       0.00000000      122        1        0        0        0
S        2.66739135       1.76273778      14.16959862      32.06000001       0.00000000       0.00000000       0.00000000      123        2        0        0        0
S        2.64668730       1.75150306      11.02597163      32.06000001       0.00000000       0.00000000       0.00000000      124        2        0        0       -1
S        5.53191221       0.34820066      14.14656055      32.06000001       0.00000000       0.00000000       0.00000000      125        2        0        0        0
S        5.49762179       0.33200445      11.00415906      32.06000001       0.00000000       0.00000000       0.00000000      126        2        0        0       -1
S        5.33874837       3.52281221      14.12286890      32.06000001       0.00000000       0.00000000       0.00000000      127        2        0        0        0
S        5.29122148       3.49969847      10.98100343      32.06000001       0.00000000       0.00000000       0.00000000      128        2        0        0       -1
S        8.19988015       2.12085754      14.09248545      32.06000001       0.00000000       0.00000000       0.00000000      129        2        0        0        0
S        8.15490905       2.08316880      10.95156263      32.06000001       0.00000000       0.00000000       0.00000000      130        2        0        0       -1
S       11.05239078       0.72548269      14.08571745      32.06000001       0.00000000       0.00000000       0.00000000      131        2        0        0        0
S       11.02784046       0.67403824      10.94484218      32.06000001       0.00000000       0.00000000       0.00000000      132        2        0        0       -1
S        5.12723649       6.69089970      14.10240082      32.06000001       0.00000000       0.00000000       0.00000000      133        2        0        0        0
S        5.07955804       6.68449583      10.96098597      32.06000001       0.00000000       0.00000000       0.00000000      134        2        0        0       -1
S        7.99160308       5.28622789      14.05751909      32.06000001       0.00000000       0.00000000       0.00000000      135        2        0        0        0
S        7.93995574       5.26483339      10.91690858      32.06000001       0.00000000       0.00000000       0.00000000      136        2        0        0       -1
S       10.84548222       3.89357487      14.03351846      32.06000001       0.00000000       0.00000000       0.00000000      137        2        0        0        0
S       10.81458652       3.85434424      10.89312371      32.06000001       0.00000000       0.00000000       0.00000000      138        2        0        0       -1
S       13.69346484       2.50032895      14.04544918      32.06000001       0.00000000       0.00000000       0.00000000      139        2        0        0        0
S       13.69106050       2.44927513      10.90474089      32.06000001       0.00000000       0.00000000       0.00000000      140        2        0        0       -1
S       16.53801670       1.09433420      14.08673225      32.06000001       0.00000000       0.00000000       0.00000000      141        2        0        0        0
S       16.55562654       1.04782601      10.94549387      32.06000001       0.00000000       0.00000000       0.00000000      142        2        0        0       -1
S        7.77222276       8.44857653      14.04940508      32.06000001       0.00000000       0.00000000       0.00000000      143        2        0        0        0
S        7.72279363       8.45900373      10.90862600      32.06000001       0.00000000       0.00000000       0.00000000      144        2        0        0       -1
S       10.62630312       7.05457279      14.00679754      32.06000001       0.00000000       0.00000000       0.00000000      145        2        0        0        0
S       10.59481477       7.04774605      10.86626686      32.06000001       0.00000000       0.00000000       0.00000000      146        2        0        0       -1
S       13.47511599       5.66650319      14.00070384      32.06000001       0.00000000       0.00000000       0.00000000      147        2        0        0        0
S       13.47531802       5.64093064      10.86010998      32.06000001       0.00000000       0.00000000       0.00000000      148        2        0        0       -1
S       16.32217058       4.27338367      14.03505812      32.06000001       0.00000000       0.00000000       0.00000000      149        2        0        0        0
S       16.35173388       4.23540685      10.89451186      32.06000001       0.00000000       0.00000000       0.00000000      150        2        0        0       -1
S       19.17061698       2.86524986      14.09567601      32.06000001       0.00000000       0.00000000       0.00000000      151        2        0        0        0
S       19.21267281       2.82908054      10.95442428      32.06000001       0.00000000       0.00000000       0.00000000      152        2        0        0       -1
S       22.02317752       1.43731026      14.15262403      32.06000001       0.00000000       0.00000000       0.00000000      153        2        0        0        0
S       22.05445122       1.41947484      11.00974305      32.06000001       0.00000000       0.00000000       0.00000000      154        2        0        0       -1
S        7.55306325      11.61722046      14.07484938      32.06000001       0.00000000       0.00000000       0.00000000      155        2        0        0        0
S        7.51169849      11.65515885      10.93388761      32.06000001       0.00000000       0.00000000       0.00000000      156        2        0        0       -1
S       10.40410927      10.21571127      14.01945710      32.06000001       0.00000000       0.00000000       0.00000000      157        2        0        0        0
S       10.37562568      10.24631423      10.87896717      32.06000001       0.00000000       0.00000000       0.00000000      158        2        0        0       -1
S       13.25235553       8.82659888      13.99322300      32.06000001       0.00000000       0.00000000       0.00000000      159        2        0        0        0
S       13.25330912       8.83932900      10.85255967      32.06000001       0.00000000       0.00000000       0.00000000      160        2        0        0       -1
S       16.10043141       7.43887374      14.00838074      32.06000001       0.00000000       0.00000000       0.00000000      161        2        0        0        0
S       16.13404176       7.43132484      10.86789821      32.06000001       0.00000000       0.00000000       0.00000000      162        2        0        0       -1
S       18.95242057       6.04190021      14.05993503      32.06000001       0.00000000       0.00000000       0.00000000      163        2        0        0        0
S       19.00565127       6.01930401      10.91940771      32.06000001       0.00000000       0.00000000       0.00000000      164        2        0        0       -1
S       21.81298141       4.62673377      14.12397296      32.06000001       0.00000000       0.00000000       0.00000000      165        2        0        0        0
S       21.85912171       4.60071029      10.98222104      32.06000001       0.00000000       0.00000000       0.00000000      166        2        0        0       -1
S       24.68229168       3.19452032      14.16686019      32.06000001       0.00000000       0.00000000       0.00000000      167        2        0        0        0
S       24.69641348       3.17623276      11.02343602      32.06000001       0.00000000       0.00000000       0.00000000      168        2        0        0       -1
S       10.18674455      13.38659049      14.06660390      32.06000001       0.00000000       0.00000000       0.00000000      169        2        0        0        0
S       10.16595701      13.44074303      10.92603120      32.06000001       0.00000000       0.00000000       0.00000000      170        2        0        0       -1
S       13.03287942      11.98889969      14.02732142      32.06000001       0.00000000       0.00000000       0.00000000      171        2        0        0        0
S       13.03368735      12.03570002      10.88691935      32.06000001       0.00000000       0.00000000       0.00000000      172        2        0        0       -1
S       15.88061884      10.60015800      14.02091632      32.06000001       0.00000000       0.00000000       0.00000000      173        2        0        0        0
S       15.91160886      10.62753869      10.88035481      32.06000001       0.00000000       0.00000000       0.00000000      174        2        0        0       -1
S       18.73289168       9.20763968      14.05197733      32.06000001       0.00000000       0.00000000       0.00000000      175        2        0        0        0
S       18.78722623       9.21385060      10.91139855      32.06000001       0.00000000       0.00000000       0.00000000      176        2        0        0       -1
S       21.59540680       7.80009681      14.10379895      32.06000001       0.00000000       0.00000000       0.00000000      177        2        0        0        0
S       21.64889474       7.79133755      10.96278763      32.06000001       0.00000000       0.00000000       0.00000000      178        2        0        0       -1
S       24.47078639       6.37421239      14.14493701      32.06000001       0.00000000       0.00000000       0.00000000      179        2        0        0        0
S       24.49337347       6.35983829      11.00278912      32.06000001       0.00000000       0.00000000       0.00000000      180        2        0        0       -1
S       27.35134889       4.94223848      14.15005168      32.06000001       0.00000000       0.00000000       0.00000000      181        2        0        0        0
S       27.33058798       4.92621966      11.00737383      32.06000001       0.00000000       0.00000000       0.00000000      182        2        0        0       -1
S        9.97935267      16.57631402      14.12365194      32.06000001       0.00000000       0.00000000       0.00000000      183        2        0        0        0
S        9.97257722      16.62457085      10.98212814      32.06000001       0.00000000       0.00000000       0.00000000      184        2        0        0       -1
S       12.82321746      15.16205823      14.08966867      32.06000001       0.00000000       0.00000000       0.00000000      185        2        0        0        0
S       12.82451564      15.22139525      10.94863646      32.06000001       0.00000000       0.00000000       0.00000000      186        2        0        0       -1
S       15.67080068      13.76538499      14.06800270      32.06000001       0.00000000       0.00000000       0.00000000      187        2        0        0        0
S       15.69289325      13.81389156      10.92710546      32.06000001       0.00000000       0.00000000       0.00000000      188        2        0        0       -1
S       18.52220069      12.37279370      14.07688637      32.06000001       0.00000000       0.00000000       0.00000000      189        2        0        0        0
S       18.56725161      12.40119724      10.93574927      32.06000001       0.00000000       0.00000000       0.00000000      190        2        0        0       -1
S       21.38200693      10.96887640      14.10998694      32.06000001       0.00000000       0.00000000       0.00000000      191        2        0        0        0
S       21.43296292      10.98064032      10.96863704      32.06000001       0.00000000       0.00000000       0.00000000      192        2        0        0       -1
S       24.25481035       9.54614985      14.13976384      32.06000001       0.00000000       0.00000000       0.00000000      193        2        0        0        0
S       24.28233966       9.55033509      10.99791504      32.06000001       0.00000000       0.00000000       0.00000000      194        2        0        0       -1
S       27.13617248       8.11378261      14.13813193      32.06000001       0.00000000       0.00000000       0.00000000      195        2        0        0        0
S       27.12134523       8.11492281      10.99611103      32.06000001       0.00000000       0.00000000       0.00000000      196        2        0        0       -1
S       12.62698803      18.35184395      14.14977790      32.06000001       0.00000000       0.00000000       0.00000000      197        2        0        0        0
S       12.62990709      18.39318676      11.00706027      32.06000001       0.00000000       0.00000000       0.00000000      198        2        0        0       -1
S       15.47688944      16.94067526      14.12686226      32.06000001       0.00000000       0.00000000       0.00000000      199        2        0        0        0
S       15.48382831      16.98423235      10.98487711      32.06000001       0.00000000       0.00000000       0.00000000      200        2        0        0       -1
S       18.32899277      15.54361826      14.11760601      32.06000001       0.00000000       0.00000000       0.00000000      201        2        0        0        0
S       18.35230407      15.57222620      10.97592938      32.06000001       0.00000000       0.00000000       0.00000000      202        2        0        0       -1
S       21.18520651      14.14252599      14.13254507      32.06000001       0.00000000       0.00000000       0.00000000      203        2        0        0        0
S       21.22014005      14.15592334      10.99056888      32.06000001       0.00000000       0.00000000       0.00000000      204        2        0        0       -1
S       24.05002196      12.72288239      14.15282281      32.06000001       0.00000000       0.00000000       0.00000000      205        2        0        0        0
S       24.07363051      12.73313087      11.01040693      32.06000001       0.00000000       0.00000000       0.00000000      206        2        0        0       -1
S       26.92287436      11.28834916      14.14794095      32.06000001       0.00000000       0.00000000       0.00000000      207        2        0        0        0
S       26.91335199      11.30494539      11.00562628      32.06000001       0.00000000       0.00000000       0.00000000      208        2        0        0       -1
S       29.79493769       9.85895527      14.10690947      32.06000001       0.00000000       0.00000000       0.00000000      209        2        0        0        0
S       29.75360187       9.87816691      10.96535037      32.06000001       0.00000000       0.00000000       0.00000000      210        2        0        0       -1
S       24.88013249       0.00023373      14.17720751      32.06000001       0.00000000       0.00000000       0.00000000      211        2       -1        1        0
S       24.88693893       0.00594577      11.03318495      32.06000001       0.00000000       0.00000000       0.00000000      212        2       -1        1       -1
S       15.29540620      20.12667039      14.16650229      32.06000001       0.00000000       0.00000000       0.00000000      213        2        0        0        0
S       15.28522263      20.14281663      11.02306633      32.06000001       0.00000000       0.00000000       0.00000000      214        2        0        0       -1
S       18.15164058      18.72087457      14.14704262      32.06000001       0.00000000       0.00000000       0.00000000      215        2        0        0        0
S       18.14444741      18.72874416      11.00472866      32.06000001       0.00000000       0.00000000       0.00000000      216        2        0        0       -1
S       21.00663249      17.32184332      14.14528913      32.06000001       0.00000000       0.00000000       0.00000000      217        2        0        0        0
S       21.01276404      17.31524093      11.00315216      32.06000001       0.00000000       0.00000000       0.00000000      218        2        0        0       -1
S       23.86344176      15.90951659      14.15946009      32.06000001       0.00000000       0.00000000       0.00000000      219        2        0        0        0
S       23.87243215      15.90068701      11.01677633      32.06000001       0.00000000       0.00000000       0.00000000      220        2        0        0       -1
S       26.72350466      14.47690364      14.16249326      32.06000001       0.00000000       0.00000000       0.00000000      221        2        0        0        0
S       26.71551932      14.48429716      11.01968004      32.06000001       0.00000000       0.00000000       0.00000000      222        2        0        0       -1
S       29.58337003      13.03926528      14.13189182      32.06000001       0.00000000       0.00000000       0.00000000      223        2        0        0        0
S       29.55159051      13.06802104      10.99001863      32.06000001       0.00000000       0.00000000       0.00000000      224        2        0        0       -1
S       20.83178609      20.50028464      14.12982433      32.06000001       0.00000000       0.00000000       0.00000000      225        2        0        0        0
S       20.80714710      20.47003962      10.98829330      32.06000001       0.00000000       0.00000000       0.00000000      226        2        0        0       -1
S       23.68457308      19.09793227      14.13606351      32.06000001       0.00000000       0.00000000       0.00000000      227        2        0        0        0
S       23.67444598      19.06017003      10.99422029      32.06000001       0.00000000       0.00000000       0.00000000      228        2        0        0       -1
S       26.53516569      17.67687694      14.15187472      32.06000001       0.00000000       0.00000000       0.00000000      229        2        0        0        0
S       26.52711362      17.65301042      11.00943535      32.06000001       0.00000000       0.00000000       0.00000000      230        2        0        0       -1
S       29.38295194      16.23886909      14.14968552      32.06000001       0.00000000       0.00000000       0.00000000      231        2        0        0        0
S       29.36469002      16.24794106      11.00742043      32.06000001       0.00000000       0.00000000       0.00000000      232        2        0        0       -1
S       32.22788437      14.80338867      14.11650585      32.06000001       0.00000000       0.00000000       0.00000000      233        2        0        0        0
S       32.20140315      14.84424002      10.97522930      32.06000001       0.00000000       0.00000000       0.00000000      234        2        0        0       -1
S       26.34282493      20.87231607      14.10621064      32.06000001       0.00000000       0.00000000       0.00000000      235        2        0        0        0
S       26.33675848      20.82178127      10.96471398      32.06000001       0.00000000       0.00000000       0.00000000      236        2        0        0       -1
S       29.18592483      19.44777420      14.13398892      32.06000001       0.00000000       0.00000000       0.00000000      237        2        0        0        0
S       29.18555197      19.42198910      10.99201070      32.06000001       0.00000000       0.00000000       0.00000000      238        2        0        0       -1
S       32.02535872      18.00958328      14.14320516      32.06000001       0.00000000       0.00000000       0.00000000      239        2        0        0        0
S       32.02116739      18.02405400      11.00121608      32.06000001       0.00000000       0.00000000       0.00000000      240        2        0        0       -1
S       31.82339975      21.22076454      14.13338083      32.06000001       0.00000000       0.00000000       0.00000000      241        2        0        0        0
S       31.84463242      21.19998577      10.99133916      32.06000001       0.00000000       0.00000000       0.00000000      242        2        0        0       -1
S       34.66636181      19.78294311      14.15788412      32.06000001       0.00000000       0.00000000       0.00000000      243        2        0        0        0
S       34.67835726      19.79855510      11.01500153      32.06000001       0.00000000       0.00000000       0.00000000      244        2        0        0       -1
S        4.59770316       1.40740984      20.50127648      32.06000001       0.00000000       0.00000000       0.00000000      245        2        0        0        0
S        4.62521642       1.43240351      17.35924766      32.06000001       0.00000000       0.00000000       0.00000000      246        2        0        0        0
S        4.79440140       4.59388288      20.52710017      32.06000001       0.00000000       0.00000000       0.00000000      247        2        0        0        0
S        4.83269161       4.61949389      17.38543625      32.06000001       0.00000000       0.00000000       0.00000000      248        2        0        0        0
S        7.43999886       2.81703789      20.55172113      32.06000001       0.00000000       0.00000000       0.00000000      249        2        0        0        0
S        7.47695577       2.85958263      17.41069380      32.06000001       0.00000000       0.00000000       0.00000000      250        2        0        0        0
S       10.09527096       1.03305674      20.55333040      32.06000001       0.00000000       0.00000000       0.00000000      251        2        0        0        0
S       10.11180794       1.08890818      17.41253183      32.06000001       0.00000000       0.00000000       0.00000000      252        2        0        0        0
S        7.64659775       6.01143856      20.58584499      32.06000001       0.00000000       0.00000000       0.00000000      253        2        0        0        0
S        7.69383106       6.03331239      17.44499126      32.06000001       0.00000000       0.00000000       0.00000000      254        2        0        0        0
S       10.29959504       4.22417013      20.60731256      32.06000001       0.00000000       0.00000000       0.00000000      255        2        0        0        0
S       10.32601110       4.26571590      17.46686436      32.06000001       0.00000000       0.00000000       0.00000000      256        2        0        0        0
S       12.95783263       2.43722929      20.59294334      32.06000001       0.00000000       0.00000000       0.00000000      257        2        0        0        0
S       12.95697334       2.49173613      17.45247529      32.06000001       0.00000000       0.00000000       0.00000000      258        2        0        0        0
S       15.61732764       0.66418969      20.55201757      32.06000001       0.00000000       0.00000000       0.00000000      259        2        0        0        0
S       15.59999243       0.71418810      17.41084163      32.06000001       0.00000000       0.00000000       0.00000000      260        2        0        0        0
S        7.86272151       9.20760259      20.58992906      32.06000001       0.00000000       0.00000000       0.00000000      261        2        0        0        0
S        7.91432806       9.19659767      17.44929165      32.06000001       0.00000000       0.00000000       0.00000000      262        2        0        0        0
S       10.51644409       7.42228369      20.63394843      32.06000001       0.00000000       0.00000000       0.00000000      263        2        0        0        0
S       10.54726342       7.42912489      17.49338444      32.06000001       0.00000000       0.00000000       0.00000000      264        2        0        0        0
S       13.17457768       5.63066273      20.63970963      32.06000001       0.00000000       0.00000000       0.00000000      265        2        0        0        0
S       13.17365224       5.65690820      17.49914356      32.06000001       0.00000000       0.00000000       0.00000000      266        2        0        0        0
S       15.83312339       3.84512249      20.60610802      32.06000001       0.00000000       0.00000000       0.00000000      267        2        0        0        0
S       15.80454185       3.88243789      17.46548577      32.06000001       0.00000000       0.00000000       0.00000000      268        2        0        0        0
S       18.49012420       2.07644802      20.55043686      32.06000001       0.00000000       0.00000000       0.00000000      269        2        0        0        0
S       18.45133929       2.10781616      17.40910227      32.06000001       0.00000000       0.00000000       0.00000000      270        2        0        0        0
S       21.14593205       0.32648910      20.50255215      32.06000001       0.00000000       0.00000000       0.00000000      271        2        0        0        0
S       21.12013248       0.33462244      17.36043043      32.06000001       0.00000000       0.00000000       0.00000000      272        2        0        0        0
S       10.73695813      10.61858765      20.62038820      32.06000001       0.00000000       0.00000000       0.00000000      273        2        0        0        0
S       10.76855322      10.58919903      17.47998737      32.06000001       0.00000000       0.00000000       0.00000000      274        2        0        0        0
S       13.39673170       8.82940706      20.64746043      32.06000001       0.00000000       0.00000000       0.00000000      275        2        0        0        0
S       13.39608140       8.81681829      17.50679380      32.06000001       0.00000000       0.00000000       0.00000000      276        2        0        0        0
S       16.05508635       7.03894461      20.63233521      32.06000001       0.00000000       0.00000000       0.00000000      277        2        0        0        0
S       16.02170494       7.04427169      17.49181763      32.06000001       0.00000000       0.00000000       0.00000000      278        2        0        0        0
S       18.70882803       5.25861486      20.58321055      32.06000001       0.00000000       0.00000000       0.00000000      279        2        0        0        0
S       18.65649473       5.27452013      17.44246147      32.06000001       0.00000000       0.00000000       0.00000000      280        2        0        0        0
S       21.35673985       3.49553142      20.52422616      32.06000001       0.00000000       0.00000000       0.00000000      281        2        0        0        0
S       21.30976377       3.51072184      17.38263782      32.06000001       0.00000000       0.00000000       0.00000000      282        2        0        0        0
S       24.00132520       1.74614000      20.48510722      32.06000001       0.00000000       0.00000000       0.00000000      283        2        0        0        0
S       23.98182648       1.75224768      17.34249370      32.06000001       0.00000000       0.00000000       0.00000000      284        2        0        0        0
S       10.95314876      13.80417760      20.57480473      32.06000001       0.00000000       0.00000000       0.00000000      285        2        0        0        0
S       10.98082806      13.75413273      17.43416912      32.06000001       0.00000000       0.00000000       0.00000000      286        2        0        0        0
S       13.61565342      12.02435404      20.61430861      32.06000001       0.00000000       0.00000000       0.00000000      287        2        0        0        0
S       13.61690311      11.97990318      17.47374503      32.06000001       0.00000000       0.00000000       0.00000000      288        2        0        0        0
S       16.27556001      10.23610149      20.61888068      32.06000001       0.00000000       0.00000000       0.00000000      289        2        0        0        0
S       16.24369314      10.20723861      17.47842469      32.06000001       0.00000000       0.00000000       0.00000000      290        2        0        0        0
S       18.92883294       8.45201915      20.58731207      32.06000001       0.00000000       0.00000000       0.00000000      291        2        0        0        0
S       18.87408785       8.43903106      17.44685481      32.06000001       0.00000000       0.00000000       0.00000000      292        2        0        0        0
S       21.57228638       6.68097026      20.53811648      32.06000001       0.00000000       0.00000000       0.00000000      293        2        0        0        0
S       21.51839648       6.68052162      17.39708875      32.06000001       0.00000000       0.00000000       0.00000000      294        2        0        0        0
S       24.20747533       4.92363018      20.49876856      32.06000001       0.00000000       0.00000000       0.00000000      295        2        0        0        0
S       24.18008487       4.93262340      17.35675646      32.06000001       0.00000000       0.00000000       0.00000000      296        2        0        0        0
S        1.95583624       3.17028762      20.48835217      32.06000001       0.00000000       0.00000000       0.00000000      297        2        1        0        0
S        1.96439034       3.18700085      17.34584052      32.06000001       0.00000000       0.00000000       0.00000000      298        2        1        0        0
S       13.82348429      15.20827730      20.55643646      32.06000001       0.00000000       0.00000000       0.00000000      299        2        0        0        0
S       13.82830700      15.15414584      17.41523867      32.06000001       0.00000000       0.00000000       0.00000000      300        2        0        0        0
S       16.48519741      13.42723582      20.57377330      32.06000001       0.00000000       0.00000000       0.00000000      301        2        0        0        0
S       16.46245351      13.38041412      17.43281777      32.06000001       0.00000000       0.00000000       0.00000000      302        2        0        0        0
S       19.14103863      11.64482774      20.55982886      32.06000001       0.00000000       0.00000000       0.00000000      303        2        0        0        0
S       19.09383036      11.61051411      17.41889662      32.06000001       0.00000000       0.00000000       0.00000000      304        2        0        0        0
S       21.78578379       9.87275711      20.52700956      32.06000001       0.00000000       0.00000000       0.00000000      305        2        0        0        0
S       21.73607306       9.85081510      17.38563142      32.06000001       0.00000000       0.00000000       0.00000000      306        2        0        0        0
S       24.41880101       8.11302141      20.50151332      32.06000001       0.00000000       0.00000000       0.00000000      307        2        0        0        0
S       24.39377038       8.10496136      17.35963115      32.06000001       0.00000000       0.00000000       0.00000000      308        2        0        0        0
S       27.04674557       6.35739893      20.50264088      32.06000001       0.00000000       0.00000000       0.00000000      309        2        0        0        0
S       27.05933848       6.36573053      17.36059350      32.06000001       0.00000000       0.00000000       0.00000000      310        2        0        0        0
S       14.01750433      18.37995468      20.50297286      32.06000001       0.00000000       0.00000000       0.00000000      311        2        0        0        0
S       14.02516194      18.34454696      17.36087888      32.06000001       0.00000000       0.00000000       0.00000000      312        2        0        0        0
S       16.67783998      16.60804865      20.52200986      32.06000001       0.00000000       0.00000000       0.00000000      313        2        0        0        0
S       16.67146600      16.57196428      17.38027919      32.06000001       0.00000000       0.00000000       0.00000000      314        2        0        0        0
S       19.33659148      14.82897651      20.51999281      32.06000001       0.00000000       0.00000000       0.00000000      315        2        0        0        0
S       19.30704244      14.79939591      17.37817602      32.06000001       0.00000000       0.00000000       0.00000000      316        2        0        0        0
S       21.98704584      13.05791020      20.49904505      32.06000001       0.00000000       0.00000000       0.00000000      317        2        0        0        0
S       21.94976551      13.03360866      17.35652145      32.06000001       0.00000000       0.00000000       0.00000000      318        2        0        0        0
S       24.62573205      11.30051477      20.48434171      32.06000001       0.00000000       0.00000000       0.00000000      319        2        0        0        0
S       24.60852251      11.28051599      17.34139461      32.06000001       0.00000000       0.00000000       0.00000000      320        2        0        0        0
S       27.25680261       9.54832819      20.49876387      32.06000001       0.00000000       0.00000000       0.00000000      321        2        0        0        0
S       27.27577219       9.53679978      17.35642537      32.06000001       0.00000000       0.00000000       0.00000000      322        2        0        0        0
S        5.00384923       7.78750066      20.54069297      32.06000001       0.00000000       0.00000000       0.00000000      323        2        1        0        0
S        5.04973892       7.79044737      17.39928247      32.06000001       0.00000000       0.00000000       0.00000000      324        2        1        0        0
S       14.20503094      21.54720278      20.47998726      32.06000001       0.00000000       0.00000000       0.00000000      325        2        0        0        0
S       14.21308889      21.54491792      17.33716027      32.06000001       0.00000000       0.00000000       0.00000000      326        2        0        0        0
S       16.85802494      19.78224978      20.49367191      32.06000001       0.00000000       0.00000000       0.00000000      327        2        0        0        0
S       16.87033332      19.77917908      17.35140641      32.06000001       0.00000000       0.00000000       0.00000000      328        2        0        0        0
S       19.51604651      18.00569329      20.49797543      32.06000001       0.00000000       0.00000000       0.00000000      329        2        0        0        0
S       19.51119551      18.00701747      17.35584076      32.06000001       0.00000000       0.00000000       0.00000000      330        2        0        0        0
S       22.17214109      16.23277748      20.48270156      32.06000001       0.00000000       0.00000000       0.00000000      331        2        0        0        0
S       22.15309283      16.23489715      17.33960700      32.06000001       0.00000000       0.00000000       0.00000000      332        2        0        0        0
S       24.82045507      14.47533261      20.46703336      32.06000001       0.00000000       0.00000000       0.00000000      333        2        0        0        0
S       24.81140486      14.46975139      17.32301940      32.06000001       0.00000000       0.00000000       0.00000000      334        2        0        0        0
S       27.46181158      12.72885377      20.47965199      32.06000001       0.00000000       0.00000000       0.00000000      335        2        0        0        0
S       27.48363093      12.71273658      17.33630325      32.06000001       0.00000000       0.00000000       0.00000000      336        2        0        0        0
S       30.10239309      10.97688668      20.52792790      32.06000001       0.00000000       0.00000000       0.00000000      337        2        0        0        0
S       30.15113077      10.95735100      17.38627713      32.06000001       0.00000000       0.00000000       0.00000000      338        2        0        0        0
S       19.69300616      21.18320366      20.51220965      32.06000001       0.00000000       0.00000000       0.00000000      339        2        0        0        0
S       19.71231013      21.21748622      17.37068887      32.06000001       0.00000000       0.00000000       0.00000000      340        2        0        0        0
S       22.35057438      19.40504593      20.50214211      32.06000001       0.00000000       0.00000000       0.00000000      341        2        0        0        0
S       22.35103794      19.44380993      17.36009392      32.06000001       0.00000000       0.00000000       0.00000000      342        2        0        0        0
S       25.00643492      17.64040608      20.47904220      32.06000001       0.00000000       0.00000000       0.00000000      343        2        0        0        0
S       25.00249662      17.66970205      17.33569754      32.06000001       0.00000000       0.00000000       0.00000000      344        2        0        0        0
S       27.65888184      15.89344766      20.47194627      32.06000001       0.00000000       0.00000000       0.00000000      345        2        0        0        0
S       27.67396646      15.89840991      17.32824615      32.06000001       0.00000000       0.00000000       0.00000000      346        2        0        0        0
S       30.31071778      14.15085190      20.50260542      32.06000001       0.00000000       0.00000000       0.00000000      347        2        0        0        0
S       30.35150212      14.12945486      17.36035331      32.06000001       0.00000000       0.00000000       0.00000000      348        2        0        0        0
S        8.07914633      12.39467736      20.56242610      32.06000001       0.00000000       0.00000000       0.00000000      349        2        1        0        0
S        8.12788552      12.36015920      17.42166368      32.06000001       0.00000000       0.00000000       0.00000000      350        2        1        0        0
S       25.19668922      20.80834618      20.52844029      32.06000001       0.00000000       0.00000000       0.00000000      351        2        0        0        0
S       25.19496657      20.86468375      17.38688600      32.06000001       0.00000000       0.00000000       0.00000000      352        2        0        0        0
S       27.85521725      19.05089963      20.49793957      32.06000001       0.00000000       0.00000000       0.00000000      353        2        0        0        0
S       27.85454419      19.08643785      17.35539478      32.06000001       0.00000000       0.00000000       0.00000000      354        2        0        0        0
S       30.51481277      17.30909192      20.49187899      32.06000001       0.00000000       0.00000000       0.00000000      355        2        0        0        0
S       30.53275703      17.30761892      17.34943790      32.06000001       0.00000000       0.00000000       0.00000000      356        2        0        0        0
S       33.17634066      15.56535744      20.52326320      32.06000001       0.00000000       0.00000000       0.00000000      357        2        0        0        0
S       33.20980006      15.52989398      17.38197954      32.06000001       0.00000000       0.00000000       0.00000000      358        2        0        0        0
S       30.72061458      20.46325207      20.51118767      32.06000001       0.00000000       0.00000000       0.00000000      359        2        0        0        0
S       30.70763416      20.48623228      17.36928028      32.06000001       0.00000000       0.00000000       0.00000000      360        2        0        0        0
S       33.38275913      18.72231891      20.49872414      32.06000001       0.00000000       0.00000000       0.00000000      361        2        0        0        0
S       33.38809410      18.70654430      17.35674240      32.06000001       0.00000000       0.00000000       0.00000000      362        2        0        0        0
S       11.16019587      16.97458041      20.52122148      32.06000001       0.00000000       0.00000000       0.00000000      363        2        1        0        0
S       11.17632192      16.92923919      17.37976515      32.06000001       0.00000000       0.00000000       0.00000000      364        2        1        0        0
S       36.24512649      20.13470833      20.48739466      32.06000001       0.00000000       0.00000000       0.00000000      365        2        0        0        0
S       36.24293760      20.11531823      17.34490424      32.06000001       0.00000000       0.00000000       0.00000000      366        2        0        0        0
