546
Lattice="30.41734194087032 0.0 0.0 15.208670970435154 26.342190836391556 0.0 0.0 0.0 30.0" Properties=species:S:1:pos:R:3:masses:R:1:momenta:R:3:id:I:1:type:I:1:travel:I:3 comment="LAMMPS data file via write_data, version 28 Mar 2023, timestep = 80, units = metal" pbc="T T T"
Mo      31.25726151       1.64072768      12.62287570      95.95000002       0.00000000       0.00000000       0.00000000        1        1       -1        0        0
Mo       3.67928600       0.18172588      12.61213887      95.95000002       0.00000000       0.00000000       0.00000000        2        1        0        0        0
Mo       3.52125532       3.36173600      12.59865065      95.95000002       0.00000000       0.00000000       0.00000000        3        1        0        0        0
Mo       6.36690455       1.90736767      12.57112020      95.95000002       0.00000000       0.00000000       0.00000000        4        1        0        0        0
Mo       9.21505982       0.46464664      12.54521009      95.95000002       0.00000000       0.00000000       0.00000000        5        1        0        0        0
Mo      33.76882140       6.54440470      12.57483949      95.95000002       0.00000000       0.00000000       0.00000000        6        1       -1        0        0
Mo       6.19887839       5.08531642      12.54192753      95.95000002       0.00000000       0.00000000       0.00000000        7        1        0        0        0
Mo       9.04784030       3.63933174      12.50485879      95.95000002       0.00000000       0.00000000       0.00000000        8        1        0        0        0
Mo      11.89738936       2.20245599      12.48531989      95.95000002       0.00000000       0.00000000       0.00000000        9        1        0        0       -1
Mo      14.74390601       0.76758954      12.49344995      95.95000002       0.00000000       0.00000000       0.00000000       10        1        0        0       -1
Mo       6.02128961       8.26713827      12.52205460      95.95000002       0.00000000       0.00000000       0.00000000       11        1        0        0        0
Mo       8.87009220       6.81844139      12.47248138      95.95000002       0.00000000       0.00000000       0.00000000       12        1        0        0       -1
Mo      11.72037783       5.38076879      12.43772115      95.95000002       0.00000000       0.00000000       0.00000000       13        1        0        0       -1
Mo      14.57001257       3.94828563      12.43189152      95.95000002       0.00000000       0.00000000       0.00000000       14        1        0        0       -1
Mo      17.41528144       2.51494682      12.45740591      95.95000002       0.00000000       0.00000000       0.00000000       15        1        0        0       -1
Mo      20.25253738       1.07603900      12.50500333      95.95000002       0.00000000       0.00000000       0.00000000       16        1        0        0        0
Mo      36.25869629      11.45174926      12.52672100      95.95000002       0.00000000       0.00000000       0.00000000       17        1       -1        0        0
Mo       8.68729452      10.00108006      12.46506549      95.95000002       0.00000000       0.00000000       0.00000000       18        1        0        0       -1
Mo      11.53626787       8.56212598      12.41470717      95.95000002       0.00000000       0.00000000       0.00000000       19        1        0        0       -1
Mo      14.38682723       7.13017126      12.39219629      95.95000002       0.00000000       0.00000000       0.00000000       20        1        0        0       -1
Mo      17.23615441       5.69969530      12.40436989      95.95000002       0.00000000       0.00000000       0.00000000       21        1        0        0       -1
Mo      20.08098203       4.26571571      12.44883425      95.95000002       0.00000000       0.00000000       0.00000000       22        1        0        0       -1
Mo      22.91879474       2.82405270      12.51317404      95.95000002       0.00000000       0.00000000       0.00000000       23        1        0        0        0
Mo      25.74971679       1.37231505      12.57566764      95.95000002       0.00000000       0.00000000       0.00000000       24        1        0        0        0
Mo       8.50681914      13.18665212      12.48734541      95.95000002       0.00000000       0.00000000       0.00000000       25        1        0        0       -1
Mo      11.35124268      11.74584285      12.42495631      95.95000002       0.00000000       0.00000000       0.00000000       26        1        0        0       -1
Mo      14.19994498      10.31313901      12.38575047      95.95000002       0.00000000       0.00000000       0.00000000       27        1        0        0       -1
Mo      17.05033125       8.88354511      12.38045276      95.95000002       0.00000000       0.00000000       0.00000000       28        1        0        0       -1
Mo      19.89944739       7.45206170      12.41109262      95.95000002       0.00000000       0.00000000       0.00000000       29        1        0        0       -1
Mo      22.74476545       6.01392520      12.47080490      95.95000002       0.00000000       0.00000000       0.00000000       30        1        0        0       -1
Mo      25.58501599       4.56511792      12.54186822      95.95000002       0.00000000       0.00000000       0.00000000       31        1        0        0        0
Mo      28.42137704       3.10522843      12.59920232      95.95000002       0.00000000       0.00000000       0.00000000       32        1        0        0        0
Mo      38.75270450      16.37632413      12.52835652      95.95000002       0.00000000       0.00000000       0.00000000       33        1       -1        0        0
Mo      11.17165408      14.93218423      12.46567629      95.95000002       0.00000000       0.00000000       0.00000000       34        1        0        0       -1
Mo      14.01522361      13.49707148      12.41494344      95.95000002       0.00000000       0.00000000       0.00000000       35        1        0        0       -1
Mo      16.86370045      12.06665969      12.39220879      95.95000002       0.00000000       0.00000000       0.00000000       36        1        0        0       -1
Mo      19.71379561      10.63600808      12.40452500      95.95000002       0.00000000       0.00000000       0.00000000       37        1        0        0       -1
Mo      22.56275660       9.19990201      12.44919672      95.95000002       0.00000000       0.00000000       0.00000000       38        1        0        0       -1
Mo      25.40909712       7.75339556      12.51255440      95.95000002       0.00000000       0.00000000       0.00000000       39        1        0        0        0
Mo      28.25292647       6.29434534      12.57144741      95.95000002       0.00000000       0.00000000       0.00000000       40        1        0        0        0
Mo      31.09543325       4.82705438      12.60301179      95.95000002       0.00000000       0.00000000       0.00000000       41        1        0        0        0
Mo      11.00261328      18.12267095      12.52192273      95.95000002       0.00000000       0.00000000       0.00000000       42        1        0        0        0
Mo      13.83818118      16.68247828      12.47260406      95.95000002       0.00000000       0.00000000       0.00000000       43        1        0        0       -1
Mo      16.68197362      15.24892321      12.43772727      95.95000002       0.00000000       0.00000000       0.00000000       44        1        0        0       -1
Mo      19.53049178      13.81746538      12.43170881      95.95000002       0.00000000       0.00000000       0.00000000       45        1        0        0       -1
Mo      22.38003446      12.38249141      12.45779741      95.95000002       0.00000000       0.00000000       0.00000000       46        1        0        0       -1
Mo      25.22847791      10.93810094      12.50592295      95.95000002       0.00000000       0.00000000       0.00000000       47        1        0        0        0
Mo      28.07567128       9.48074496      12.55494480      95.95000002       0.00000000       0.00000000       0.00000000       48        1        0        0        0
Mo      30.92224584       8.01304585      12.58179859      95.95000002       0.00000000       0.00000000       0.00000000       49        1        0        0        0
Mo      41.26263749      21.31832059      12.57030008      95.95000002       0.00000000       0.00000000       0.00000000       50        1       -1        0        0
Mo      13.67288354      19.87060827      12.54057447      95.95000002       0.00000000       0.00000000       0.00000000       51        1        0        0        0
Mo      16.51012881      18.43058904      12.50528778      95.95000002       0.00000000       0.00000000       0.00000000       52        1        0        0        0
Mo      19.35521845      16.99588120      12.48516916      95.95000002       0.00000000       0.00000000       0.00000000       53        1        0        0       -1
Mo      22.20370454      15.56094010      12.49279003      95.95000002       0.00000000       0.00000000       0.00000000       54        1        0        0       -1
Mo      25.05192901      14.11890018      12.52451903      95.95000002       0.00000000       0.00000000       0.00000000       55        1        0        0        0
Mo      27.89876514      12.66448107      12.56136962      95.95000002       0.00000000       0.00000000       0.00000000       56        1        0        0        0
Mo      30.74489791      11.19838258      12.57932499      95.95000002       0.00000000       0.00000000       0.00000000       57        1        0        0        0
Mo      33.59133199       9.72891308      12.56440280      95.95000002       0.00000000       0.00000000       0.00000000       58        1        0        0        0
Mo      13.51888913      23.06212523      12.59387711      95.95000002       0.00000000       0.00000000       0.00000000       59        1        0        0        0
Mo      16.35071956      21.61289495      12.57291090      95.95000002       0.00000000       0.00000000       0.00000000       60        1        0        0        0
Mo      19.19159332      20.17166952      12.54740879      95.95000002       0.00000000       0.00000000       0.00000000       61        1        0        0        0
Mo      22.03831026      18.73477806      12.53902915      95.95000002       0.00000000       0.00000000       0.00000000       62        1        0        0        0
Mo      24.88585627      17.29491579      12.55491745      95.95000002       0.00000000       0.00000000       0.00000000       63        1        0        0        0
Mo      27.73100762      15.84491395      12.58194781      95.95000002       0.00000000       0.00000000       0.00000000       64        1        0        0        0
Mo      30.57352514      14.38269980      12.59536364      95.95000002       0.00000000       0.00000000       0.00000000       65        1        0        0        0
Mo      33.41540642      12.91460941      12.57651641      95.95000002       0.00000000       0.00000000       0.00000000       66        1        0        0        0
Mo      43.78637206      26.25537819      12.61340491      95.95000002       0.00000000       0.00000000       0.00000000       67        1       -1        0        0
Mo      16.20019611      24.79707852      12.61620078      95.95000002       0.00000000       0.00000000       0.00000000       68        1        0        0        0
Mo      19.03850836      23.34687565      12.59541584      95.95000002       0.00000000       0.00000000       0.00000000       69        1        0        0        0
Mo      21.88346909      21.90538936      12.57590966      95.95000002       0.00000000       0.00000000       0.00000000       70        1        0        0        0
Mo      24.73074689      20.46649079      12.57635506      95.95000002       0.00000000       0.00000000       0.00000000       71        1        0        0        0
Mo      27.57519643      19.02174542      12.59477820      95.95000002       0.00000000       0.00000000       0.00000000       72        1        0        0        0
Mo      30.41428502      17.56595390      12.61010783      95.95000002       0.00000000       0.00000000       0.00000000       73        1        0        0        0
Mo      33.24950442      16.10186562      12.59864504      95.95000002       0.00000000       0.00000000       0.00000000       74        1        0        0        0
Mo      36.08499070      14.63921978      12.55307956      95.95000002       0.00000000       0.00000000       0.00000000       75        1        0        0        0
Mo      21.73238958      25.07592903      12.58727900      95.95000002       0.00000000       0.00000000       0.00000000       76        1        0        0        0
Mo      24.57990211      23.63597758      12.57343675      95.95000002       0.00000000       0.00000000       0.00000000       77        1        0        0        0
Mo      27.42549733      22.19588086      12.58136974      95.95000002       0.00000000       0.00000000       0.00000000       78        1        0        0        0
Mo      30.26443407      20.74818044      12.60005299      95.95000002       0.00000000       0.00000000       0.00000000       79        1        0        0        0
Mo      33.09560840      19.29118416      12.60579834      95.95000002       0.00000000       0.00000000       0.00000000       80        1        0        0        0
Mo      35.92298207      17.83091737      12.58116010      95.95000002       0.00000000       0.00000000       0.00000000       81        1        0        0        0
Mo      27.27145663      25.36944873      12.54006114      95.95000002       0.00000000       0.00000000       0.00000000       82        1        0        0        0
Mo      30.11364901      23.92939431      12.55699937      95.95000002       0.00000000       0.00000000       0.00000000       83        1        0        0        0
Mo      32.94657901      22.48161613      12.57983810      95.95000002       0.00000000       0.00000000       0.00000000       84        1        0        0        0
Mo      35.77104632      21.02690473      12.58674290      95.95000002       0.00000000       0.00000000       0.00000000       85        1        0        0        0
Mo      38.59310102      19.57163569      12.56572215      95.95000002       0.00000000       0.00000000       0.00000000       86        1        0        0        0
Mo      32.79145960      25.67067505      12.52362325      95.95000002       0.00000000       0.00000000       0.00000000       87        1        0        0        0
Mo      35.62036866      24.22411285      12.55831017      95.95000002       0.00000000       0.00000000       0.00000000       88        1        0        0        0
Mo      38.44173416      22.77144146      12.57756208      95.95000002       0.00000000       0.00000000       0.00000000       89        1        0        0        0
Mo      38.28944262      25.97113287      12.55619883      95.95000002       0.00000000       0.00000000       0.00000000       90        1        0        0        0
Mo      41.11205529      24.51710010      12.58997130      95.95000002       0.00000000       0.00000000       0.00000000       91        1        0        0        0
W        2.77721665       1.54732591      18.90856599      32.06000001       0.00000000       0.00000000       0.00000000       92        3        0        0        0
W        2.93924372       4.73481205      18.92544056      32.06000001       0.00000000       0.00000000       0.00000000       93        3        0        0        0
W        5.61014446       3.00791490      18.94347088      32.06000001       0.00000000       0.00000000       0.00000000       94        3        0        0        0
W        8.27910854       1.26986590      18.96065786      32.06000001       0.00000000       0.00000000       0.00000000       95        3        0        0        0
W        5.77981137       6.19631865      18.96902354      32.06000001       0.00000000       0.00000000       0.00000000       96        3        0        0        0
W        8.44637525       4.46074736      18.99878485      32.06000001       0.00000000       0.00000000       0.00000000       97        3        0        0        0
W       11.11271856       2.71582448      19.01141659      32.06000001       0.00000000       0.00000000       0.00000000       98        3        0        0        0
W       13.78123096       0.96738556      18.99885161      32.06000001       0.00000000       0.00000000       0.00000000       99        3        0        0        0
W        5.95750040       9.38187076      18.97899925      32.06000001       0.00000000       0.00000000       0.00000000      100        3        0        0        0
W        8.62337868       7.64745021      19.02543017      32.06000001       0.00000000       0.00000000       0.00000000      101        3        0        0        0
W       11.28823309       5.90319089      19.05509008      32.06000001       0.00000000       0.00000000       0.00000000      102        3        0        0        0
W       13.95394222       4.15339068      19.05738347      32.06000001       0.00000000       0.00000000       0.00000000      103        3        0        0        0
W       16.62315230       2.40380811      19.03216382      32.06000001       0.00000000       0.00000000       0.00000000      104        3        0        0        0
W       19.29933841       0.65956843      18.98986341      32.06000001       0.00000000       0.00000000       0.00000000      105        3        0        0        0
W        8.80501679      10.83141714      19.02676462      32.06000001       0.00000000       0.00000000       0.00000000      106        3        0        0        0
W       11.47070097       9.08790977      19.07422907      32.06000001       0.00000000       0.00000000       0.00000000      107        3        0        0        0
W       14.13526353       7.33786639      19.09419176      32.06000001       0.00000000       0.00000000       0.00000000      108        3        0        0        0
W       16.80093231       5.58598005      19.08263607      32.06000001       0.00000000       0.00000000       0.00000000      109        3        0        0        0
W       19.47047660       3.83733818      19.04394883      32.06000001       0.00000000       0.00000000       0.00000000      110        3        0        0        0
W       22.14694536       2.09598254      18.99073971      32.06000001       0.00000000       0.00000000       0.00000000      111        3        0        0        0
W       24.83186212       0.36282781      18.94222258      32.06000001       0.00000000       0.00000000       0.00000000      112        3        0        0        0
W        8.98442311      14.01255142      19.00303642      32.06000001       0.00000000       0.00000000       0.00000000      113        3        0        0        0
W       11.65452594      12.27062349      19.06304200      32.06000001       0.00000000       0.00000000       0.00000000      114        3        0        0        0
W       14.32047955      10.52152243      19.09975335      32.06000001       0.00000000       0.00000000       0.00000000      115        3        0        0        0
W       16.98489240       8.76913118      19.10463675      32.06000001       0.00000000       0.00000000       0.00000000      116        3        0        0        0
W       19.65029147       7.01812865      19.07800878      32.06000001       0.00000000       0.00000000       0.00000000      117        3        0        0        0
W       22.31928275       5.27326157      19.02764539      32.06000001       0.00000000       0.00000000       0.00000000      118        3        0        0        0
W       24.99440382       3.53777883      18.96892759      32.06000001       0.00000000       0.00000000       0.00000000      119        3        0        0        0
W       27.67622406       1.81089569      18.92214241      32.06000001       0.00000000       0.00000000       0.00000000      120        3        0        0        0
W       11.83371748      15.45079098      19.02672168      32.06000001       0.00000000       0.00000000       0.00000000      121        3        0        0        0
W       14.50419899      13.70432414      19.07403836      32.06000001       0.00000000       0.00000000       0.00000000      122        3        0        0        0
W       17.17001908      11.95314221      19.09417770      32.06000001       0.00000000       0.00000000       0.00000000      123        3        0        0        0
W       19.83417340      10.20161034      19.08251308      32.06000001       0.00000000       0.00000000       0.00000000      124        3        0        0        0
W       22.49915882       8.45480230      19.04364691      32.06000001       0.00000000       0.00000000       0.00000000      125        3        0        0        0
W       25.16720321       6.71723465      18.99003455      32.06000001       0.00000000       0.00000000       0.00000000      126        3        0        0        0
W       27.84014921       4.99026512      18.93969534      32.06000001       0.00000000       0.00000000       0.00000000      127        3        0        0        0
W       30.51717609       3.26978018      18.91026235      32.06000001       0.00000000       0.00000000       0.00000000      128        3        0        0        0
W       12.00325644      18.62782227      18.97898794      32.06000001       0.00000000       0.00000000       0.00000000      129        3        0        0        0
W       14.68096665      16.88589389      19.02500217      32.06000001       0.00000000       0.00000000       0.00000000      130        3        0        0        0
W       17.35078081      15.13783322      19.05513665      32.06000001       0.00000000       0.00000000       0.00000000      131        3        0        0        0
W       20.01635302      13.38731135      19.05740215      32.06000001       0.00000000       0.00000000       0.00000000      132        3        0        0        0
W       22.68074778      11.63977409      19.03209745      32.06000001       0.00000000       0.00000000       0.00000000      133        3        0        0        0
W       25.34607621       9.90072771      18.99041166      32.06000001       0.00000000       0.00000000       0.00000000      134        3        0        0        0
W       28.01393268       8.17289385      18.94939666      32.06000001       0.00000000       0.00000000       0.00000000      135        3        0        0        0
W       30.68463141       6.45357822      18.92513700      32.06000001       0.00000000       0.00000000       0.00000000      136        3        0        0        0
W       14.84662208      20.06654549      18.96788495      32.06000001       0.00000000       0.00000000       0.00000000      137        3        0        0        0
W       17.52211827      18.32350369      18.99904531      32.06000001       0.00000000       0.00000000       0.00000000      138        3        0        0        0
W       20.19097979      16.57551627      19.01149466      32.06000001       0.00000000       0.00000000       0.00000000      139        3        0        0        0
W       22.85716430      14.82801050      18.99822643      32.06000001       0.00000000       0.00000000       0.00000000      140        3        0        0        0
W       25.52340679      13.08756821      18.96782845      32.06000001       0.00000000       0.00000000       0.00000000      141        3        0        0        0
W       28.19110506      11.35827569      18.93848635      32.06000001       0.00000000       0.00000000       0.00000000      142        3        0        0        0
W       30.86008789       9.63845964      18.92685516      32.06000001       0.00000000       0.00000000       0.00000000      143        3        0        0        0
W       33.52918809       7.92078513      18.93939042      32.06000001       0.00000000       0.00000000       0.00000000      144        3        0        0        0
W       15.00141997      23.24746728      18.92220917      32.06000001       0.00000000       0.00000000       0.00000000      145        3        0        0        0
W       17.68178076      21.51108759      18.94450960      32.06000001       0.00000000       0.00000000       0.00000000      146        3        0        0        0
W       20.35448466      19.76723023      18.96160482      32.06000001       0.00000000       0.00000000       0.00000000      147        3        0        0        0
W       23.02328324      18.02048212      18.95780898      32.06000001       0.00000000       0.00000000       0.00000000      148        3        0        0        0
W       25.69202080      16.27819437      18.93534817      32.06000001       0.00000000       0.00000000       0.00000000      149        3        0        0        0
W       28.36279079      14.54613279      18.91229740      32.06000001       0.00000000       0.00000000       0.00000000      150        3        0        0        0
W       31.03503651      12.82420654      18.90906250      32.06000001       0.00000000       0.00000000       0.00000000      151        3        0        0        0
W       33.70633893      11.10580917      18.93404604      32.06000001       0.00000000       0.00000000       0.00000000      152        3        0        0        0
W       30.36076938       0.08703850      18.90321818      32.06000001       0.00000000       0.00000000       0.00000000      153        3       -1        1        0
W       17.83333649      24.70042692      18.91137127      32.06000001       0.00000000       0.00000000       0.00000000      154        3        0        0        0
W       20.50837473      22.96234546      18.92783393      32.06000001       0.00000000       0.00000000       0.00000000      155        3        0        0        0
W       23.17907082      21.21752152      18.93111806      32.06000001       0.00000000       0.00000000       0.00000000      156        3        0        0        0
W       25.84962032      19.47319638      18.91449975      32.06000001       0.00000000       0.00000000       0.00000000      157        3        0        0        0
W       28.52354646      17.73676272      18.89154314      32.06000001       0.00000000       0.00000000       0.00000000      158        3        0        0        0
W       31.20120163      16.01046005      18.88573373      32.06000001       0.00000000       0.00000000       0.00000000      159        3        0        0        0
W       33.87920505      14.28952516      18.91200552      32.06000001       0.00000000       0.00000000       0.00000000      160        3        0        0        0
W       36.55334220      12.56517450      18.96554338      32.06000001       0.00000000       0.00000000       0.00000000      161        3        0        0        0
W       20.66011035      26.15776858      18.92320370      32.06000001       0.00000000       0.00000000       0.00000000      162        3        0        0        0
W       23.33089458      24.41620395      18.93250994      32.06000001       0.00000000       0.00000000       0.00000000      163        3        0        0        0
W       26.00133353      22.67063560      18.92236532      32.06000001       0.00000000       0.00000000       0.00000000      164        3        0        0        0
W       28.67573064      20.92917663      18.89800317      32.06000001       0.00000000       0.00000000       0.00000000      165        3        0        0        0
W       31.35665072      19.19658692      18.88092184      32.06000001       0.00000000       0.00000000       0.00000000      166        3        0        0        0
W       34.04177526      17.47104491      18.89284513      32.06000001       0.00000000       0.00000000       0.00000000      167        3        0        0        0
W       36.72504087      15.74530943      18.93853331      32.06000001       0.00000000       0.00000000       0.00000000      168        3        0        0        0
W       26.15645009      25.86648589      18.95987819      32.06000001       0.00000000       0.00000000       0.00000000      169        3        0        0        0
W       28.82841287      24.12079413      18.93814228      32.06000001       0.00000000       0.00000000       0.00000000      170        3        0        0        0
W       31.50770216      22.38137461      18.90985732      32.06000001       0.00000000       0.00000000       0.00000000      171        3        0        0        0
W       34.19528095      20.64968548      18.89795565      32.06000001       0.00000000       0.00000000       0.00000000      172        3        0        0        0
W       36.88618211      18.92137616      18.91813031      32.06000001       0.00000000       0.00000000       0.00000000      173        3        0        0        0
W       39.57285310      17.18975893      18.96731127      32.06000001       0.00000000       0.00000000       0.00000000      174        3        0        0        0
W       31.66424022      25.56423817      18.96714359      32.06000001       0.00000000       0.00000000       0.00000000      175        3        0        0        0
W       34.34774764      23.82591279      18.93419322      32.06000001       0.00000000       0.00000000       0.00000000      176        3        0        0        0
W       37.03968131      22.09377306      18.92072407      32.06000001       0.00000000       0.00000000       0.00000000      177        3        0        0        0
W       39.73327049      20.36288915      18.93777094      32.06000001       0.00000000       0.00000000       0.00000000      178        3        0        0        0
W       37.19360378      25.26494200      18.94886057      32.06000001       0.00000000       0.00000000       0.00000000      179        3        0        0        0
W       39.88646960      23.53359063      18.92837465      32.06000001       0.00000000       0.00000000       0.00000000      180        3        0        0        0
W       42.57900186      21.80255486      18.93747810      32.06000001       0.00000000       0.00000000       0.00000000      181        3        0        0        0
W       42.73073162      24.97690953      18.91725515      32.06000001       0.00000000       0.00000000       0.00000000      182        3        0        0        0
S        2.69019369       1.73154884      14.18525758     183.84000005       0.00000000       0.00000000       0.00000000      183        2        0        0        0
S        2.67051745       1.72089388      11.04406881     183.84000005       0.00000000       0.00000000       0.00000000      184        2        0        0       -1
S        5.53966877       0.27820666      14.16280072     183.84000005       0.00000000       0.00000000       0.00000000      185        2        0        0        0
S        5.50468480       0.26686429      11.02225472     183.84000005       0.00000000       0.00000000       0.00000000      186        2        0        0       -1
S        5.38653778       3.45966067      14.14223821     183.84000005       0.00000000       0.00000000       0.00000000      187        2        0        0        0
S        5.33958780       3.43573156      11.00187807     183.84000005       0.00000000       0.00000000       0.00000000      188        2        0        0       -1
S        8.23530727       2.01822626      14.11059934     183.84000005       0.00000000       0.00000000       0.00000000      189        2        0        0        0
S        8.18507875       1.98425352      10.97076500     183.84000005       0.00000000       0.00000000       0.00000000      190        2        0        0       -1
S       11.07712865       0.58793445      14.09304548     183.84000005       0.00000000       0.00000000       0.00000000      191        2        0        0        0
S       11.04130216       0.53997089      10.95348051     183.84000005       0.00000000       0.00000000       0.00000000      192        2        0        0       -1
S        5.21588479       6.63532079      14.11680129     183.84000005       0.00000000       0.00000000       0.00000000      193        2        0        0        0
S        5.16713735       6.61912076      10.97668046     183.84000005       0.00000000       0.00000000       0.00000000      194        2        0        0       -1
S        8.06894939       5.19093851      14.07540894     183.84000005       0.00000000       0.00000000       0.00000000      195        2        0        0        0
S        8.01029087       5.16324742      10.93559827     183.84000005       0.00000000       0.00000000       0.00000000      196        2        0        0       -1
S       10.91309945       3.75988683      14.04389195     183.84000005       0.00000000       0.00000000       0.00000000      197        2        0        0        0
S       10.86573558       3.71746962      10.90426932     183.84000005       0.00000000       0.00000000       0.00000000      198        2        0        0       -1
S       13.75164786       2.33365219      14.03810437     183.84000005       0.00000000       0.00000000       0.00000000      199        2        0        0        0
S       13.72642196       2.27752450      10.89838034     183.84000005       0.00000000       0.00000000       0.00000000      200        2        0        0       -1
S       16.58630580       0.90215141      14.06030239     183.84000005       0.00000000       0.00000000       0.00000000      201        2        0        0        0
S       16.58203935       0.84048938      10.92037863     183.84000005       0.00000000       0.00000000       0.00000000      202        2        0        0       -1
S        7.88909283       8.36041821      14.05493870     183.84000005       0.00000000       0.00000000       0.00000000      203        2        0        0        0
S        7.83034469       8.35504790      10.91500541     183.84000005       0.00000000       0.00000000       0.00000000      204        2        0        0       -1
S       10.73447875       6.92795468      14.00863116     183.84000005       0.00000000       0.00000000       0.00000000      205        2        0        0        0
S       10.68392907       6.90741158      10.86882041     183.84000005       0.00000000       0.00000000       0.00000000      206        2        0        0       -1
S       13.57409789       5.50359027      13.98712644     183.84000005       0.00000000       0.00000000       0.00000000      207        2        0        0        0
S       13.54601724       5.46696210      10.84719339     183.84000005       0.00000000       0.00000000       0.00000000      208        2        0        0       -1
S       16.41010818       4.07940781      13.99806763     183.84000005       0.00000000       0.00000000       0.00000000      209        2        0        0        0
S       16.40867469       4.02979005      10.85808579     183.84000005       0.00000000       0.00000000       0.00000000      210        2        0        0       -1
S       19.24301090       2.64744838      14.03840657     183.84000005       0.00000000       0.00000000       0.00000000      211        2        0        0        0
S       19.26348880       2.59382295      10.89841534     183.84000005       0.00000000       0.00000000       0.00000000      212        2        0        0       -1
S       22.07262744       1.20084693      14.09449490     183.84000005       0.00000000       0.00000000       0.00000000      213        2        0        0        0
S       22.10403586       1.15789831      10.95448753     183.84000005       0.00000000       0.00000000       0.00000000      214        2        0        0       -1
S        7.70528298      11.53118471      14.06188413     183.84000005       0.00000000       0.00000000       0.00000000      215        2        0        0        0
S        7.65050544      11.55314215      10.92186919     183.84000005       0.00000000       0.00000000       0.00000000      216        2        0        0       -1
S       10.54905433      10.09517035      14.00185089     183.84000005       0.00000000       0.00000000       0.00000000      217        2        0        0        0
S       10.49988375      10.10529610      10.86185285     183.84000005       0.00000000       0.00000000       0.00000000      218        2        0        0       -1
S       13.38838267       8.67013473      13.96370074     183.84000005       0.00000000       0.00000000       0.00000000      219        2        0        0        0
S       13.36030347       8.66428417      10.82346967     183.84000005       0.00000000       0.00000000       0.00000000      220        2        0        0       -1
S       16.22525645       7.24904045      13.95841802     183.84000005       0.00000000       0.00000000       0.00000000      221        2        0        0        0
S       16.22539461       7.22652179      10.81811575     183.84000005       0.00000000       0.00000000       0.00000000      222        2        0        0       -1
S       19.06055356       5.82488966      13.98800924     183.84000005       0.00000000       0.00000000       0.00000000      223        2        0        0        0
S       19.08799352       5.78895665      10.84800293     183.84000005       0.00000000       0.00000000       0.00000000      224        2        0        0       -1
S       21.89521005       4.39086538      14.04564373     183.84000005       0.00000000       0.00000000       0.00000000      225        2        0        0        0
S       21.94082666       4.34950392      10.90584288     183.84000005       0.00000000       0.00000000       0.00000000      226        2        0        0       -1
S       24.73081957       2.94087669      14.11401082     183.84000005       0.00000000       0.00000000       0.00000000      227        2        0        0        0
S       24.77840432       2.90619921      10.97392099     183.84000005       0.00000000       0.00000000       0.00000000      228        2        0        0       -1
S       27.56930352       1.47410442      14.16916060     183.84000005       0.00000000       0.00000000       0.00000000      229        2        0        0        0
S       27.60119983       1.45788096      11.02833201     183.84000005       0.00000000       0.00000000       0.00000000      230        2        0        0       -1
S       10.36437991      13.26672705      14.02696968     183.84000005       0.00000000       0.00000000       0.00000000      231        2        0        0        0
S       10.31984990      13.30512969      10.88710455     183.84000005       0.00000000       0.00000000       0.00000000      232        2        0        0       -1
S       13.20106431      11.83731399      13.97487619     183.84000005       0.00000000       0.00000000       0.00000000      233        2        0        0        0
S       13.17464870      11.86479178      10.83477246     183.84000005       0.00000000       0.00000000       0.00000000      234        2        0        0       -1
S       16.03722295      10.41568747      13.95213535     183.84000005       0.00000000       0.00000000       0.00000000      235        2        0        0        0
S       16.03792990      10.42677083      10.81175287     183.84000005       0.00000000       0.00000000       0.00000000      236        2        0        0       -1
S       18.87352141       8.99470193      13.96484731     183.84000005       0.00000000       0.00000000       0.00000000      237        2        0        0        0
S       18.90310156       8.98827473      10.82464829     183.84000005       0.00000000       0.00000000       0.00000000      238        2        0        0       -1
S       21.71110415       7.56755221      14.01071507     183.84000005       0.00000000       0.00000000       0.00000000      239        2        0        0        0
S       21.76317117       7.54636254      10.87098357     183.84000005       0.00000000       0.00000000       0.00000000      240        2        0        0       -1
S       24.55256529       6.12767504      14.07742926     183.84000005       0.00000000       0.00000000       0.00000000      241        2        0        0        0
S       24.61130078       6.09814622      10.93771165     183.84000005       0.00000000       0.00000000       0.00000000      242        2        0        0       -1
S       27.40032870       4.67046819      14.14246563     183.84000005       0.00000000       0.00000000       0.00000000      243        2        0        0        0
S       27.44413419       4.64218038      11.00220876     183.84000005       0.00000000       0.00000000       0.00000000      244        2        0        0       -1
S       30.25358332       3.20025530      14.18217508     183.84000005       0.00000000       0.00000000       0.00000000      245        2        0        0        0
S       30.26584439       3.18103222      11.04110526     183.84000005       0.00000000       0.00000000       0.00000000      246        2        0        0       -1
S       10.18610108      16.44956466      14.07432335     183.84000005       0.00000000       0.00000000       0.00000000      247        2        0        0        0
S       10.15133661      16.50189736      10.93470704     183.84000005       0.00000000       0.00000000       0.00000000      248        2        0        0       -1
S       13.01771526      15.01001842      14.01831249     183.84000005       0.00000000       0.00000000       0.00000000      249        2        0        0        0
S       12.99542098      15.06372695      10.87860097     183.84000005       0.00000000       0.00000000       0.00000000      250        2        0        0       -1
S       15.85161906      13.58344637      13.98137459     183.84000005       0.00000000       0.00000000       0.00000000      251        2        0        0        0
S       15.85223161      13.62614450      10.84137593     183.84000005       0.00000000       0.00000000       0.00000000      252        2        0        0       -1
S       18.68730677      12.16195007      13.97584189     183.84000005       0.00000000       0.00000000       0.00000000      253        2        0        0        0
S       18.71560374      12.18739871      10.83571281     183.84000005       0.00000000       0.00000000       0.00000000      254        2        0        0       -1
S       21.52553085      10.73753800      14.00411301     183.84000005       0.00000000       0.00000000       0.00000000      255        2        0        0        0
S       21.57808885      10.74488038      10.86425420     183.84000005       0.00000000       0.00000000       0.00000000      256        2        0        0       -1
S       24.36905327       9.30283588      14.05759811     183.84000005       0.00000000       0.00000000       0.00000000      257        2        0        0        0
S       24.43217637       9.29485099      10.91799216     183.84000005       0.00000000       0.00000000       0.00000000      258        2        0        0       -1
S       27.22144918       7.85219763      14.11667570     183.84000005       0.00000000       0.00000000       0.00000000      259        2        0        0        0
S       27.27282214       7.83462625      10.97695692     183.84000005       0.00000000       0.00000000       0.00000000      260        2        0        0       -1
S       30.08256161       6.38683819      14.15768442     183.84000005       0.00000000       0.00000000       0.00000000      261        2        0        0        0
S       30.10114606       6.36624175      11.01735089     183.84000005       0.00000000       0.00000000       0.00000000      262        2        0        0       -1
S       32.94608482       4.91782140      14.16495803     183.84000005       0.00000000       0.00000000       0.00000000      263        2        0        0        0
S       32.92537945       4.89722310      11.02425339     183.84000005       0.00000000       0.00000000       0.00000000      264        2        0        0       -1
S       12.84258021      18.19443019      14.08079135     183.84000005       0.00000000       0.00000000       0.00000000      265        2        0        0        0
S       12.82902521      18.25691077      10.94116372     183.84000005       0.00000000       0.00000000       0.00000000      266        2        0        0       -1
S       15.67340415      16.75692880      14.03968492     183.84000005       0.00000000       0.00000000       0.00000000      267        2        0        0        0
S       15.67417300      16.81980745      10.89999947     183.84000005       0.00000000       0.00000000       0.00000000      268        2        0        0       -1
S       18.50782023      15.33080638      14.01887175     183.84000005       0.00000000       0.00000000       0.00000000      269        2        0        0        0
S       18.53138156      15.38092571      10.87896169     183.84000005       0.00000000       0.00000000       0.00000000      270        2        0        0       -1
S       21.34521794      13.90643999      14.02850286     183.84000005       0.00000000       0.00000000       0.00000000      271        2        0        0        0
S       21.39279705      13.93873049      10.88853452     183.84000005       0.00000000       0.00000000       0.00000000      272        2        0        0       -1
S       24.18787139      12.47415803      14.06493580     183.84000005       0.00000000       0.00000000       0.00000000      273        2        0        0        0
S       24.24927942      12.48981184      10.92517834     183.84000005       0.00000000       0.00000000       0.00000000      274        2        0        0       -1
S       27.03977069      11.02666561      14.11101661     183.84000005       0.00000000       0.00000000       0.00000000      275        2        0        0        0
S       27.09409801      11.03027130      10.97145927     183.84000005       0.00000000       0.00000000       0.00000000      276        2        0        0       -1
S       29.90236100       9.56386572      14.14354451     183.84000005       0.00000000       0.00000000       0.00000000      277        2        0        0        0
S       29.92663574       9.56021690      11.00372212     183.84000005       0.00000000       0.00000000       0.00000000      278        2        0        0       -1
S       32.77007542       8.09540997      14.14535377     183.84000005       0.00000000       0.00000000       0.00000000      279        2        0        0        0
S       32.75336309       8.08652228      11.00517853     183.84000005       0.00000000       0.00000000       0.00000000      280        2        0        0       -1
S       12.67775457      21.39471303      14.13964786     183.84000005       0.00000000       0.00000000       0.00000000      281        2        0        0        0
S       12.67792383      21.44229633      10.99958196     183.84000005       0.00000000       0.00000000       0.00000000      282        2        0        0       -1
S       15.50679229      19.94140476      14.10984521     183.84000005       0.00000000       0.00000000       0.00000000      283        2        0        0        0
S       15.50868396      20.00388006      10.96986938     183.84000005       0.00000000       0.00000000       0.00000000      284        2        0        0       -1
S       18.34056786      18.50526827      14.08185527     183.84000005       0.00000000       0.00000000       0.00000000      285        2        0        0        0
S       18.35522580      18.56379835      10.94192560     183.84000005       0.00000000       0.00000000       0.00000000      286        2        0        0       -1
S       21.17732574      17.07803130      14.07481646     183.84000005       0.00000000       0.00000000       0.00000000      287        2        0        0        0
S       21.21237515      17.12155919      10.93479849     183.84000005       0.00000000       0.00000000       0.00000000      288        2        0        0       -1
S       24.01796746      15.64737147      14.09410393     183.84000005       0.00000000       0.00000000       0.00000000      289        2        0        0        0
S       24.06944433      15.67479890      10.95418875     183.84000005       0.00000000       0.00000000       0.00000000      290        2        0        0       -1
S       26.86612252      14.20249373      14.12720021     183.84000005       0.00000000       0.00000000       0.00000000      291        2        0        0        0
S       26.91669518      14.21956204      10.98755664     183.84000005       0.00000000       0.00000000       0.00000000      292        2        0        0       -1
S       29.72434126      12.74054180      14.15087648     183.84000005       0.00000000       0.00000000       0.00000000      293        2        0        0        0
S       29.75095599      12.75387708      11.01115389     183.84000005       0.00000000       0.00000000       0.00000000      294        2        0        0       -1
S       32.58929711      11.27053357      14.14525400     183.84000005       0.00000000       0.00000000       0.00000000      295        2        0        0        0
S       32.57763213      11.28206155      11.00532935     183.84000005       0.00000000       0.00000000       0.00000000      296        2        0        0       -1
S       35.45223139       9.80759658      14.10798679     183.84000005       0.00000000       0.00000000       0.00000000      297        2        0        0        0
S       35.40708274       9.81347273      10.96797625     183.84000005       0.00000000       0.00000000       0.00000000      298        2        0        0       -1
S       15.35230325      23.13895707      14.16727206     183.84000005       0.00000000       0.00000000       0.00000000      299        2        0        0        0
S       15.35617786      23.17838154      11.02652838     183.84000005       0.00000000       0.00000000       0.00000000      300        2        0        0       -1
S       18.18819393      21.68876873      14.14364218     183.84000005       0.00000000       0.00000000       0.00000000      301        2        0        0        0
S       18.19013932      21.73456857      11.00323349     183.84000005       0.00000000       0.00000000       0.00000000      302        2        0        0       -1
S       21.02599136      20.25457817      14.12494861     183.84000005       0.00000000       0.00000000       0.00000000      303        2        0        0        0
S       21.03972328      20.29069723      10.98485147     183.84000005       0.00000000       0.00000000       0.00000000      304        2        0        0       -1
S       23.86553501      18.82455701      14.12792485     183.84000005       0.00000000       0.00000000       0.00000000      305        2        0        0        0
S       23.89589718      18.84533850      10.98797809     183.84000005       0.00000000       0.00000000       0.00000000      306        2        0        0       -1
S       26.70924025      17.38410595      14.14956218     183.84000005       0.00000000       0.00000000       0.00000000      307        2        0        0        0
S       26.74592873      17.39528393      11.00977591     183.84000005       0.00000000       0.00000000       0.00000000      308        2        0        0       -1
S       29.55982788      15.92502080      14.16923140     183.84000005       0.00000000       0.00000000       0.00000000      309        2        0        0        0
S       29.58226045      15.93765828      11.02940797     183.84000005       0.00000000       0.00000000       0.00000000      310        2        0        0       -1
S       32.41611338      14.45288707      14.16320572     183.84000005       0.00000000       0.00000000       0.00000000      311        2        0        0        0
S       32.40753465      14.47369602      11.02335488     183.84000005       0.00000000       0.00000000       0.00000000      312        2        0        0       -1
S       35.27224555      12.98412714      14.12321956     183.84000005       0.00000000       0.00000000       0.00000000      313        2        0        0        0
S       35.23254003      13.00996549      10.98334257     183.84000005       0.00000000       0.00000000       0.00000000      314        2        0        0       -1
S       30.41103056       0.00109936      14.19197105     183.84000005       0.00000000       0.00000000       0.00000000      315        2       -1        1        0
S       30.41814709       0.00640391      11.05059670     183.84000005       0.00000000       0.00000000       0.00000000      316        2       -1        1       -1
S       18.04545940      24.88058833      14.18171236     183.84000005       0.00000000       0.00000000       0.00000000      317        2        0        0        0
S       18.03415707      24.89781726      11.04062869     183.84000005       0.00000000       0.00000000       0.00000000      318        2        0        0       -1
S       20.88735652      23.43630972      14.15854444     183.84000005       0.00000000       0.00000000       0.00000000      319        2        0        0        0
S       20.87488708      23.45002468      11.01811718     183.84000005       0.00000000       0.00000000       0.00000000      320        2        0        0       -1
S       23.72782942      22.00426085      14.14698115     183.84000005       0.00000000       0.00000000       0.00000000      321        2        0        0        0
S       23.72817493      22.00439254      11.00701487     183.84000005       0.00000000       0.00000000       0.00000000      322        2        0        0       -1
S       26.56867980      20.56943795      14.15670669     183.84000005       0.00000000       0.00000000       0.00000000      323        2        0        0        0
S       26.58147103      20.55821723      11.01686345     183.84000005       0.00000000       0.00000000       0.00000000      324        2        0        0       -1
S       29.41193146      19.11818097      14.17546699     183.84000005       0.00000000       0.00000000       0.00000000      325        2        0        0        0
S       29.42273950      19.10881144      11.03555470     183.84000005       0.00000000       0.00000000       0.00000000      326        2        0        0       -1
S       32.25739800      17.64856123      14.17891891     183.84000005       0.00000000       0.00000000       0.00000000      327        2        0        0        0
S       32.24921251      17.65547246      11.03896669     183.84000005       0.00000000       0.00000000       0.00000000      328        2        0        0       -1
S       35.10212271      16.17387136      14.15000023     183.84000005       0.00000000       0.00000000       0.00000000      329        2        0        0        0
S       35.06941560      16.20108552      11.01029457     183.84000005       0.00000000       0.00000000       0.00000000      330        2        0        0       -1
S       37.94348588      14.71100093      14.09287445     183.84000005       0.00000000       0.00000000       0.00000000      331        2        0        0        0
S       37.89621020      14.75022980      10.95309053     183.84000005       0.00000000       0.00000000       0.00000000      332        2        0        0       -1
S       23.59213399      25.18362790      14.13996928     183.84000005       0.00000000       0.00000000       0.00000000      333        2        0        0        0
S       23.56247932      25.16133553      11.00007654     183.84000005       0.00000000       0.00000000       0.00000000      334        2        0        0       -1
S       26.43249894      23.75260862      14.13627477     183.84000005       0.00000000       0.00000000       0.00000000      335        2        0        0        0
S       26.41814878      23.71704365      10.99662940     183.84000005       0.00000000       0.00000000       0.00000000      336        2        0        0       -1
S       29.27145053      22.31232686      14.15186362     183.84000005       0.00000000       0.00000000       0.00000000      337        2        0        0        0
S       29.26697294      22.27342750      11.01218083     183.84000005       0.00000000       0.00000000       0.00000000      338        2        0        0       -1
S       32.10892185      20.85332916      14.16863709     183.84000005       0.00000000       0.00000000       0.00000000      339        2        0        0        0
S       32.10037112      20.82928910      11.02879175     183.84000005       0.00000000       0.00000000       0.00000000      340        2        0        0       -1
S       34.94311390      19.37966968      14.16428915     183.84000005       0.00000000       0.00000000       0.00000000      341        2        0        0        0
S       34.92070561      19.38498303      11.02448299     183.84000005       0.00000000       0.00000000       0.00000000      342        2        0        0       -1
S       37.77373067      17.90711942      14.12961105     183.84000005       0.00000000       0.00000000       0.00000000      343        2        0        0        0
S       37.73958495      17.94211122      10.99001390     183.84000005       0.00000000       0.00000000       0.00000000      344        2        0        0       -1
S       29.12363388      25.49893849      14.10023998     183.84000005       0.00000000       0.00000000       0.00000000      345        2        0        0        0
S       29.10609763      25.44147937      10.96060464     183.84000005       0.00000000       0.00000000       0.00000000      346        2        0        0       -1
S       31.95799379      24.05491976      14.12471204     183.84000005       0.00000000       0.00000000       0.00000000      347        2        0        0        0
S       31.95078757      24.00264844      10.98495278     183.84000005       0.00000000       0.00000000       0.00000000      348        2        0        0       -1
S       34.78744992      22.59284693      14.14707381     183.84000005       0.00000000       0.00000000       0.00000000      349        2        0        0        0
S       34.77950004      22.56526423      11.00719966     183.84000005       0.00000000       0.00000000       0.00000000      350        2        0        0       -1
S       37.61159463      21.11937653      14.14859130     183.84000005       0.00000000       0.00000000       0.00000000      351        2        0        0        0
S       37.59745656      21.12887841      11.00878032     183.84000005       0.00000000       0.00000000       0.00000000      352        2        0        0       -1
S       40.43409683      19.64934741      14.12327352     183.84000005       0.00000000       0.00000000       0.00000000      353        2        0        0        0
S       40.41631988      19.69299420      10.98364124     183.84000005       0.00000000       0.00000000       0.00000000      354        2        0        0       -1
S       34.62502141      25.79883048      14.09907343     183.84000005       0.00000000       0.00000000       0.00000000      355        2        0        0        0
S       34.63294258      25.74757737      10.95908435     183.84000005       0.00000000       0.00000000       0.00000000      356        2        0        0       -1
S       37.44982224      24.33635018      14.13531492     183.84000005       0.00000000       0.00000000       0.00000000      357        2        0        0        0
S       37.45965303      24.31354295      10.99529333     183.84000005       0.00000000       0.00000000       0.00000000      358        2        0        0       -1
S       40.27146222      22.86362988      14.15115920     183.84000005       0.00000000       0.00000000       0.00000000      359        2        0        0        0
S       40.27662662      22.87883505      11.01105576     183.84000005       0.00000000       0.00000000       0.00000000      360        2        0        0       -1
S       40.10889187      26.07956593      14.14570879     183.84000005       0.00000000       0.00000000       0.00000000      361        2        0        0        0
S       40.13776294      26.06241138      11.00535502     183.84000005       0.00000000       0.00000000       0.00000000      362        2        0        0       -1
S       42.93737351      24.60639037      14.17224351     183.84000005       0.00000000       0.00000000       0.00000000      363        2        0        0        0
S       42.95385210      24.62156052      11.03147101     183.84000005       0.00000000       0.00000000       0.00000000      364        2        0        0       -1
S        4.60082374       1.44921161      20.50211420     183.84000005       0.00000000       0.00000000       0.00000000      365        2        0        0        0
S        4.62609400       1.46886739      17.34286008     183.84000005       0.00000000       0.00000000       0.00000000      366        2        0        0        0
S        4.75950582       4.63787319      20.52412595     183.84000005       0.00000000       0.00000000       0.00000000      367        2        0        0        0
S        4.79216545       4.66281246      17.36490640     183.84000005       0.00000000       0.00000000       0.00000000      368        2        0        0        0
S        7.42618658       2.89729514      20.54669099     183.84000005       0.00000000       0.00000000       0.00000000      369        2        0        0        0
S        7.46328415       2.93360854      17.38766945     183.84000005       0.00000000       0.00000000       0.00000000      370        2        0        0        0
S       10.10027587       1.14681228      20.55689706     183.84000005       0.00000000       0.00000000       0.00000000      371        2        0        0        0
S       10.12446877       1.19449367      17.39814398     183.84000005       0.00000000       0.00000000       0.00000000      372        2        0        0        0
S        7.59277740       6.09234896      20.57807874     183.84000005       0.00000000       0.00000000       0.00000000      373        2        0        0        0
S        7.63883364       6.11822501      17.41892752     183.84000005       0.00000000       0.00000000       0.00000000      374        2        0        0        0
S       10.26336743       4.34121939      20.60284959     183.84000005       0.00000000       0.00000000       0.00000000      375        2        0        0        0
S       10.29923182       4.38225567      17.44401893     183.84000005       0.00000000       0.00000000       0.00000000      376        2        0        0        0
S       12.93927991       2.58507106      20.60364258     183.84000005       0.00000000       0.00000000       0.00000000      377        2        0        0        0
S       12.95558761       2.63943216      17.44506159     183.84000005       0.00000000       0.00000000       0.00000000      378        2        0        0        0
S       15.61757979       0.83310160      20.57981001     183.84000005       0.00000000       0.00000000       0.00000000      379        2        0        0        0
S       15.61613717       0.89346830      17.42112290     183.84000005       0.00000000       0.00000000       0.00000000      380        2        0        0        0
S        7.76935355       9.28992279      20.59128343     183.84000005       0.00000000       0.00000000       0.00000000      381        2        0        0        0
S        7.82099247       9.29237791      17.43228067     183.84000005       0.00000000       0.00000000       0.00000000      382        2        0        0        0
S       10.43893576       7.53953520      20.63363084     183.84000005       0.00000000       0.00000000       0.00000000      383        2        0        0        0
S       10.48126259       7.55783570      17.47479197     183.84000005       0.00000000       0.00000000       0.00000000      384        2        0        0        0
S       13.11366235       5.78160220      20.65134323     183.84000005       0.00000000       0.00000000       0.00000000      385        2        0        0        0
S       13.13561562       5.81613810      17.49266578     183.84000005       0.00000000       0.00000000       0.00000000      386        2        0        0        0
S       15.79100008       4.02337183      20.63951681     183.84000005       0.00000000       0.00000000       0.00000000      387        2        0        0        0
S       15.79025727       4.07059561      17.48094192     183.84000005       0.00000000       0.00000000       0.00000000      388        2        0        0        0
S       18.46994610       2.27312744      20.60319460     183.84000005       0.00000000       0.00000000       0.00000000      389        2        0        0        0
S       18.45199947       2.32377716      17.44439460     183.84000005       0.00000000       0.00000000       0.00000000      390        2        0        0        0
S       21.15123069       0.53724046      20.55628165     183.84000005       0.00000000       0.00000000       0.00000000      391        2        0        0        0
S       21.12753130       0.57687976      17.39716750     183.84000005       0.00000000       0.00000000       0.00000000      392        2        0        0        0
S       10.62059305      10.73760306      20.63677597     183.84000005       0.00000000       0.00000000       0.00000000      393        2        0        0        0
S       10.66626008      10.72774642      17.47809743     183.84000005       0.00000000       0.00000000       0.00000000      394        2        0        0        0
S       13.29612703       8.98092358      20.67238728     183.84000005       0.00000000       0.00000000       0.00000000      395        2        0        0        0
S       13.32085708       8.98626035      17.51357967     183.84000005       0.00000000       0.00000000       0.00000000      396        2        0        0        0
S       15.97323468       7.22037969      20.67691176     183.84000005       0.00000000       0.00000000       0.00000000      397        2        0        0        0
S       15.97249882       7.24111257      17.51809666     183.84000005       0.00000000       0.00000000       0.00000000      398        2        0        0        0
S       18.65073446       5.46311970      20.65067781     183.84000005       0.00000000       0.00000000       0.00000000      399        2        0        0        0
S       18.62694621       5.49503509      17.49191346     183.84000005       0.00000000       0.00000000       0.00000000      400        2        0        0        0
S       21.32850016       3.71612856      20.60194335     183.84000005       0.00000000       0.00000000       0.00000000      401        2        0        0        0
S       21.29017316       3.75032506      17.44290707     183.84000005       0.00000000       0.00000000       0.00000000      402        2        0        0        0
S       24.00696351       1.98393783      20.54649664     183.84000005       0.00000000       0.00000000       0.00000000      403        2        0        0        0
S       23.96797796       2.00831437      17.38726994     183.84000005       0.00000000       0.00000000       0.00000000      404        2        0        0        0
S       26.68637184       0.26489304      20.50448350     183.84000005       0.00000000       0.00000000       0.00000000      405        2        0        0        0
S       26.66164278       0.26925772      17.34515950     183.84000005       0.00000000       0.00000000       0.00000000      406        2        0        0        0
S       10.80202066      13.92993445      20.61228332     183.84000005       0.00000000       0.00000000       0.00000000      407        2        0        0        0
S       10.84769439      13.89737248      17.45374710     183.84000005       0.00000000       0.00000000       0.00000000      408        2        0        0        0
S       13.48063320      12.17858244      20.66164899     183.84000005       0.00000000       0.00000000       0.00000000      409        2        0        0        0
S       13.50667812      12.15473449      17.50296559     183.84000005       0.00000000       0.00000000       0.00000000      410        2        0        0        0
S       16.15904370      10.41955250      20.68275374     183.84000005       0.00000000       0.00000000       0.00000000      411        2        0        0        0
S       16.15870329      10.40968731      17.52388423     183.84000005       0.00000000       0.00000000       0.00000000      412        2        0        0        0
S       18.83621817       8.65994136      20.67134872     183.84000005       0.00000000       0.00000000       0.00000000      413        2        0        0        0
S       18.80977676       8.66403005      17.51256372     183.84000005       0.00000000       0.00000000       0.00000000      414        2        0        0        0
S       21.51140291       6.90644951      20.63172615     183.84000005       0.00000000       0.00000000       0.00000000      415        2        0        0        0
S       21.46574940       6.92082518      17.47295414     183.84000005       0.00000000       0.00000000       0.00000000      416        2        0        0        0
S       24.18416607       5.16480790      20.57571462     183.84000005       0.00000000       0.00000000       0.00000000      417        2        0        0        0
S       24.13227964       5.18300107      17.41667170     183.84000005       0.00000000       0.00000000       0.00000000      418        2        0        0        0
S       26.85488504       3.43725120      20.52153871     183.84000005       0.00000000       0.00000000       0.00000000      419        2        0        0        0
S       26.81377094       3.45186652      17.36239315     183.84000005       0.00000000       0.00000000       0.00000000      420        2        0        0        0
S       29.52490217       1.71905914      20.48817711     183.84000005       0.00000000       0.00000000       0.00000000      421        2        0        0        0
S       29.50823531       1.72485502      17.32870078     183.84000005       0.00000000       0.00000000       0.00000000      422        2        0        0        0
S       13.66186791      15.37021595      20.62361402     183.84000005       0.00000000       0.00000000       0.00000000      423        2        0        0        0
S       13.68699851      15.32529784      17.46495529     183.84000005       0.00000000       0.00000000       0.00000000      424        2        0        0        0
S       16.34289945      13.61659644      20.65708555     183.84000005       0.00000000       0.00000000       0.00000000      425        2        0        0        0
S       16.34375128      13.57999926      17.49831744     183.84000005       0.00000000       0.00000000       0.00000000      426        2        0        0        0
S       19.02134893      11.85836713      20.66072777     183.84000005       0.00000000       0.00000000       0.00000000      427        2        0        0        0
S       18.99523795      11.83448778      17.50201892     183.84000005       0.00000000       0.00000000       0.00000000      428        2        0        0        0
S       21.69602903      10.10300368      20.63473566     183.84000005       0.00000000       0.00000000       0.00000000      429        2        0        0        0
S       21.64831625      10.09147925      17.47617131     183.84000005       0.00000000       0.00000000       0.00000000      430        2        0        0        0
S       24.36559104       8.35663014      20.58866189     183.84000005       0.00000000       0.00000000       0.00000000      431        2        0        0        0
S       24.30912295       8.35531982      17.42994652     183.84000005       0.00000000       0.00000000       0.00000000      432        2        0        0        0
S       27.02980648       6.62261682      20.53850994     183.84000005       0.00000000       0.00000000       0.00000000      433        2        0        0        0
S       26.98200004       6.62936163      17.37960001     183.84000005       0.00000000       0.00000000       0.00000000      434        2        0        0        0
S       29.69063383       4.89921661      20.50217630     183.84000005       0.00000000       0.00000000       0.00000000      435        2        0        0        0
S       29.66756664       4.91157653      17.34293532     183.84000005       0.00000000       0.00000000       0.00000000      436        2        0        0        0
S        1.93458582       3.17826592      20.49126767     183.84000005       0.00000000       0.00000000       0.00000000      437        2        1        0        0
S        1.94157186       3.19415107      17.33182597     183.84000005       0.00000000       0.00000000       0.00000000      438        2        1        0        0
S       13.83559979      18.55242883      20.57062261     183.84000005       0.00000000       0.00000000       0.00000000      439        2        0        0        0
S       13.85569006      18.50078951      17.41174181     183.84000005       0.00000000       0.00000000       0.00000000      440        2        0        0        0
S       16.51931846      16.80786397      20.60767715     183.84000005       0.00000000       0.00000000       0.00000000      441        2        0        0        0
S       16.52233284      16.75564231      17.44871450     183.84000005       0.00000000       0.00000000       0.00000000      442        2        0        0        0
S       19.19995919      15.05399173      20.62312032     183.84000005       0.00000000       0.00000000       0.00000000      443        2        0        0        0
S       19.17802028      15.01033040      17.46428035     183.84000005       0.00000000       0.00000000       0.00000000      444        2        0        0        0
S       21.87631471      13.29959262      20.61058533     183.84000005       0.00000000       0.00000000       0.00000000      445        2        0        0        0
S       21.83151900      13.26672785      17.45197543     183.84000005       0.00000000       0.00000000       0.00000000      446        2        0        0        0
S       24.54610251      11.55240188      20.57708429     183.84000005       0.00000000       0.00000000       0.00000000      447        2        0        0        0
S       24.49074907      11.52953720      17.41844298     183.84000005       0.00000000       0.00000000       0.00000000      448        2        0        0        0
S       27.20812574       9.81636278      20.53845636     183.84000005       0.00000000       0.00000000       0.00000000      449        2        0        0        0
S       27.16062020       9.80406535      17.37967757     183.84000005       0.00000000       0.00000000       0.00000000      450        2        0        0        0
S       29.86403693       8.09006345      20.51174265     183.84000005       0.00000000       0.00000000       0.00000000      451        2        0        0        0
S       29.84119219       8.09020236      17.35267258     183.84000005       0.00000000       0.00000000       0.00000000      452        2        0        0        0
S       32.51831954       6.36693153      20.50760503     183.84000005       0.00000000       0.00000000       0.00000000      453        2        0        0        0
S       32.52727777       6.38003822      17.34830957     183.84000005       0.00000000       0.00000000       0.00000000      454        2        0        0        0
S       16.68422929      19.99104774      20.54968465     183.84000005       0.00000000       0.00000000       0.00000000      455        2        0        0        0
S       16.68987285      19.94045053      17.39052376     183.84000005       0.00000000       0.00000000       0.00000000      456        2        0        0        0
S       19.36633163      18.24399622      20.57091633     183.84000005       0.00000000       0.00000000       0.00000000      457        2        0        0        0
S       19.35362581      18.19624353      17.41175152     183.84000005       0.00000000       0.00000000       0.00000000      458        2        0        0        0
S       22.04524393      16.49196844      20.56940038     183.84000005       0.00000000       0.00000000       0.00000000      459        2        0        0        0
S       22.00995806      16.45208668      17.41044134     183.84000005       0.00000000       0.00000000       0.00000000      460        2        0        0        0
S       24.71813865      14.74512795      20.54656378     183.84000005       0.00000000       0.00000000       0.00000000      461        2        0        0        0
S       24.66962098      14.71229929      17.38761428     183.84000005       0.00000000       0.00000000       0.00000000      462        2        0        0        0
S       27.38259322      13.00962046      20.51798142     183.84000005       0.00000000       0.00000000       0.00000000      463        2        0        0        0
S       27.33983306      12.98306630      17.35889321     183.84000005       0.00000000       0.00000000       0.00000000      464        2        0        0        0
S       30.03930890      11.28421015      20.50269238     183.84000005       0.00000000       0.00000000       0.00000000      465        2        0        0        0
S       30.02073712      11.26668162      17.34346197     183.84000005       0.00000000       0.00000000       0.00000000      466        2        0        0        0
S       32.69230975       9.56154714      20.51160830     183.84000005       0.00000000       0.00000000       0.00000000      467        2        0        0        0
S       32.70572539       9.55709330      17.35236121     183.84000005       0.00000000       0.00000000       0.00000000      468        2        0        0        0
S        4.93025177       7.83264951      20.54164632     183.84000005       0.00000000       0.00000000       0.00000000      469        2        1        0        0
S        4.96872815       7.84321970      17.38243694     183.84000005       0.00000000       0.00000000       0.00000000      470        2        1        0        0
S       16.83802120      23.16705310      20.50312294     183.84000005       0.00000000       0.00000000       0.00000000      471        2        0        0        0
S       16.84530798      23.13641205      17.34382824     183.84000005       0.00000000       0.00000000       0.00000000      472        2        0        0        0
S       19.51872803      21.42802594      20.52292902     183.84000005       0.00000000       0.00000000       0.00000000      473        2        0        0        0
S       19.51941615      21.39546498      17.36366841     183.84000005       0.00000000       0.00000000       0.00000000      474        2        0        0        0
S       22.19899095      19.67933502      20.52902901     183.84000005       0.00000000       0.00000000       0.00000000      475        2        0        0        0
S       22.18055613      19.65182280      17.36983572     183.84000005       0.00000000       0.00000000       0.00000000      476        2        0        0        0
S       24.87576005      17.93209957      20.51430329     183.84000005       0.00000000       0.00000000       0.00000000      477        2        0        0        0
S       24.84093163      17.90932334      17.35497623     183.84000005       0.00000000       0.00000000       0.00000000      478        2        0        0        0
S       27.54565574      16.19597611      20.49060232     183.84000005       0.00000000       0.00000000       0.00000000      479        2        0        0        0
S       27.51148522      16.17402270      17.33096464     183.84000005       0.00000000       0.00000000       0.00000000      480        2        0        0        0
S       30.20804436      14.47227395      20.47948398     183.84000005       0.00000000       0.00000000       0.00000000      481        2        0        0        0
S       30.19499596      14.44986187      17.31967754     183.84000005       0.00000000       0.00000000       0.00000000      482        2        0        0        0
S       32.86581105      12.75326292      20.49612908     183.84000005       0.00000000       0.00000000       0.00000000      483        2        0        0        0
S       32.88403531      12.73400467      17.33659195     183.84000005       0.00000000       0.00000000       0.00000000      484        2        0        0        0
S       35.52382409      11.02794704      20.53877952     183.84000005       0.00000000       0.00000000       0.00000000      485        2        0        0        0
S       35.56720227      11.01726658      17.37965683     183.84000005       0.00000000       0.00000000       0.00000000      486        2        0        0        0
S       16.98768983      26.34106652      20.48378834     183.84000005       0.00000000       0.00000000       0.00000000      487        2        0        0        0
S       16.99490912      26.33869165      17.32422288     183.84000005       0.00000000       0.00000000       0.00000000      488        2        0        0        0
S       19.66266459      24.60882657      20.49777445     183.84000005       0.00000000       0.00000000       0.00000000      489        2        0        0        0
S       19.67721263      24.60431748      17.33842380     183.84000005       0.00000000       0.00000000       0.00000000      490        2        0        0        0
S       22.34110094      22.86401093      20.50835050     183.84000005       0.00000000       0.00000000       0.00000000      491        2        0        0        0
S       22.34394108      22.86350743      17.34913437     183.84000005       0.00000000       0.00000000       0.00000000      492        2        0        0        0
S       25.01995047      21.11560892      20.50051998     183.84000005       0.00000000       0.00000000       0.00000000      493        2        0        0        0
S       25.00482865      21.11981030      17.34115510     183.84000005       0.00000000       0.00000000       0.00000000      494        2        0        0        0
S       27.69523938      19.37564237      20.47844803     183.84000005       0.00000000       0.00000000       0.00000000      495        2        0        0        0
S       27.67332695      19.37880997      17.31856905     183.84000005       0.00000000       0.00000000       0.00000000      496        2        0        0        0
S       30.36530905      17.65011437      20.46254360     183.84000005       0.00000000       0.00000000       0.00000000      497        2        0        0        0
S       30.35706330      17.64484746      17.30224075     183.84000005       0.00000000       0.00000000       0.00000000      498        2        0        0        0
S       33.03172184      15.93410289      20.47378199     183.84000005       0.00000000       0.00000000       0.00000000      499        2        0        0        0
S       33.05138898      15.91800476      17.31377216     183.84000005       0.00000000       0.00000000       0.00000000      500        2        0        0        0
S       35.69761181      14.21532843      20.51718510     183.84000005       0.00000000       0.00000000       0.00000000      501        2        0        0        0
S       35.74261611      14.19293938      17.35791390     183.84000005       0.00000000       0.00000000       0.00000000      502        2        0        0        0
S        7.94847107      12.48382675      20.57890579     183.84000005       0.00000000       0.00000000       0.00000000      503        2        1        0        0
S        8.00283317      12.46359546      17.42011243     183.84000005       0.00000000       0.00000000       0.00000000      504        2        1        0        0
S       22.48261298      26.04966414      20.51674160     183.84000005       0.00000000       0.00000000       0.00000000      505        2        0        0        0
S       22.50531490      26.07565376      17.35770740     183.84000005       0.00000000       0.00000000       0.00000000      506        2        0        0        0
S       25.16030357      24.30011954      20.51652897     183.84000005       0.00000000       0.00000000       0.00000000      507        2        0        0        0
S       25.16660573      24.33331770      17.35755558     183.84000005       0.00000000       0.00000000       0.00000000      508        2        0        0        0
S       27.83833609      22.55409320      20.49724102     183.84000005       0.00000000       0.00000000       0.00000000      509        2        0        0        0
S       27.83082501      22.58927525      17.33786339     183.84000005       0.00000000       0.00000000       0.00000000      510        2        0        0        0
S       30.51435893      20.82149629      20.47314752     183.84000005       0.00000000       0.00000000       0.00000000      511        2        0        0        0
S       30.50927574      20.84757647      17.31314905     183.84000005       0.00000000       0.00000000       0.00000000      512        2        0        0        0
S       33.18923004      19.10322783      20.46723767     183.84000005       0.00000000       0.00000000       0.00000000      513        2        0        0        0
S       33.20380668      19.10965116      17.30707885     183.84000005       0.00000000       0.00000000       0.00000000      514        2        0        0        0
S       35.86473304      17.38948600      20.49414855     183.84000005       0.00000000       0.00000000       0.00000000      515        2        0        0        0
S       35.90327135      17.37386107      17.33464508     183.84000005       0.00000000       0.00000000       0.00000000      516        2        0        0        0
S       38.54148831      15.66736632      20.54909123     183.84000005       0.00000000       0.00000000       0.00000000      517        2        0        0        0
S       38.59257369      15.63704915      17.39024638     183.84000005       0.00000000       0.00000000       0.00000000      518        2        0        0        0
S       27.98666364      25.73706374      20.54492267     183.84000005       0.00000000       0.00000000       0.00000000      519        2        0        0        0
S       27.99285535      25.79255801      17.38613263     183.84000005       0.00000000       0.00000000       0.00000000      520        2        0        0        0
S       30.66513628      23.99447120      20.51682224     183.84000005       0.00000000       0.00000000       0.00000000      521        2        0        0        0
S       30.66212921      24.04721672      17.35761589     183.84000005       0.00000000       0.00000000       0.00000000      522        2        0        0        0
S       33.34467990      22.26745694      20.49160018     183.84000005       0.00000000       0.00000000       0.00000000      523        2        0        0        0
S       33.34830947      22.30233054      17.33194796     183.84000005       0.00000000       0.00000000       0.00000000      524        2        0        0        0
S       36.02693573      20.55252085      20.48976218     183.84000005       0.00000000       0.00000000       0.00000000      525        2        0        0        0
S       36.04841521      20.55804788      17.33020478     183.84000005       0.00000000       0.00000000       0.00000000      526        2        0        0        0
S       38.71149859      18.83783158      20.51952634     183.84000005       0.00000000       0.00000000       0.00000000      527        2        0        0        0
S       38.74859527      18.81396299      17.36054831     183.84000005       0.00000000       0.00000000       0.00000000      528        2        0        0        0
S       10.97877399      17.11182527      20.57110467     183.84000005       0.00000000       0.00000000       0.00000000      529        2        1        0        0
S       11.01781629      17.06980819      17.41244031     183.84000005       0.00000000       0.00000000       0.00000000      530        2        1        0        0
S       33.50651514      25.43616058      20.54310832     183.84000005       0.00000000       0.00000000       0.00000000      531        2        0        0        0
S       33.49802980      25.48856665      17.38405811     183.84000005       0.00000000       0.00000000       0.00000000      532        2        0        0        0
S       36.19019941      23.71266943      20.51293227     183.84000005       0.00000000       0.00000000       0.00000000      533        2        0        0        0
S       36.18820202      23.74080837      17.35363312     183.84000005       0.00000000       0.00000000       0.00000000      534        2        0        0        0
S       38.87766379      21.99871295      20.50690945     183.84000005       0.00000000       0.00000000       0.00000000      535        2        0        0        0
S       38.89002883      21.99299752      17.34774415     183.84000005       0.00000000       0.00000000       0.00000000      536        2        0        0        0
S       41.56626782      20.28202893      20.53002883     183.84000005       0.00000000       0.00000000       0.00000000      537        2        0        0        0
S       41.58912707      20.24623831      17.37116620     183.84000005       0.00000000       0.00000000       0.00000000      538        2        0        0        0
S       39.04435563      25.15834360      20.51808698     183.84000005       0.00000000       0.00000000       0.00000000      539        2        0        0        0
S       39.02826175      25.17249718      17.35884102     183.84000005       0.00000000       0.00000000       0.00000000      540        2        0        0        0
S       41.73104124      23.44432203      20.50518399     183.84000005       0.00000000       0.00000000       0.00000000      541        2        0        0        0
S       41.73022293      23.42725195      17.34596823     183.84000005       0.00000000       0.00000000       0.00000000      542        2        0        0        0
S       13.99997431      21.72476989      20.52047014     183.84000005       0.00000000       0.00000000       0.00000000      543        2        1        0        0
S       14.00970871      21.68368044      17.36139960     183.84000005       0.00000000       0.00000000       0.00000000      544        2        1        0        0
S       44.57507382      24.89154811      20.49070331     183.84000005       0.00000000       0.00000000       0.00000000      545        2        0        0        0
S       44.57090883      24.87429769      17.33127822     183.84000005       0.00000000       0.00000000       0.00000000      546        2        0        0        0
