LAMMPS data file via write_data, version 28 Mar 2023, timestep = 42, units = metal

42 atoms
3 atom types

0 8.43625277162533 xlo xhi
0 7.3060092129744145 ylo yhi
0 30 zlo zhi
4.218126385812664 0 0 xy xz yz

Masses

1 95.95
2 183.84
3 32.06

Atoms # atomic

42 2 9.582255090076826 6.334658047422188 4.920988095240332 0 0 0
40 2 8.986149179803311 3.1967843477668003 4.921024945618874 0 0 0
38 2 6.566681506377908 5.281972771098091 4.921035355765311 0 0 0
36 2 8.378351217891955 0.06717115723250865 4.933680397749653 -1 1 0
34 2 5.9691913417812845 2.159269357637575 4.921639070970584 0 0 0
32 2 3.5530064957751173 4.240690651858181 4.92163843317155 0 0 0
30 2 2.958522897665743 1.1074494607626242 4.921667163162519 0 0 0
8 3 4.764254010997918 0.7647423896732936 6.503463787039925 0 0 0
9 3 5.363142002969626 3.894421245646617 6.503480622904249 0 0 0
10 3 7.776200801471003 1.809201302868725 6.504259615531246 0 0 0
11 3 5.969964496476275 7.023604965711535 6.504266690807836 0 0 0
12 3 8.378369718138034 4.937809958626991 6.499706304263065 0 0 0
13 3 2.3533304779034636 2.848239621385061 6.503472137249809 1 0 0
14 3 11.38891083746568 5.980643312389946 6.5042418988012125 0 0 0
15 2 2.351963118914372 2.158141733069462 1.5688879613642108 0 0 0
17 2 5.362580032690941 1.105191639001587 1.5689206610059006 0 0 0
19 2 4.769153379430575 4.238887388363243 1.5689225671914147 0 0 0
21 2 7.771242285142664 3.1948842286299586 1.5698755581883495 0 0 0
23 2 8.379381734993569 0.06536933913261182 1.5557605293708803 -1 1 0
25 2 7.175517074970768 6.333309294392339 1.5698813695359863 0 0 0
27 2 10.191322034674208 5.280035303361867 1.5699146280043916 0 0 0
7 1 8.379367849647544 4.9360755533085525 0.0006846273855120778 0 0 0
29 2 2.9561690663490694 1.1097757977093792 8.083367294488333 0 0 0
31 2 3.55616876373251 4.241587889357994 8.083368351412892 0 0 0
33 2 5.96837122163018 2.1560468978797864 8.083369305299795 0 0 0
35 2 8.378349050699851 0.06714373882113073 8.08371118110322 -1 1 0
37 2 6.571766287838498 5.2842777462636406 8.082037072353575 0 0 0
39 2 8.981623596214204 3.200012557647555 8.08203152529796 0 0 0
41 2 9.581721163143635 6.329126340364336 8.08202013154072 0 0 0
16 2 2.35317878063404 2.1546735680412414 28.426117602875202 0 0 -1
18 2 5.364967669298293 1.107946452378729 28.42612372451487 0 0 -1
20 2 4.76555571060341 4.239577569746136 28.426119653559606 0 0 -1
22 2 7.7760499960759955 3.198478486919705 28.427462104144844 0 0 -1
24 2 8.379364615894394 0.06538477277702098 28.425654489544925 -1 1 -1
26 2 7.1762212985463325 6.32735864911748 28.427459389638095 0 0 -1
28 2 10.18582484787579 5.282395452250752 28.42746419572924 0 0 -1
5 1 10.787593013516997 7.0216500438070995 29.995552773663015 -1 0 -1
2 1 3.5569234384061015 0.7630388143124547 29.996552191503476 0 0 -1
3 1 2.9584904239838252 3.8929499977125728 29.996555651305954 0 0 -1
1 1 8.981407584161376 1.8076892611807454 29.995535185755568 -1 0 -1
4 1 5.968286699897898 2.8462354223356368 29.996548827768077 0 0 -1
6 1 5.3690927151243075 5.9788505278185315 29.995536928177398 0 0 -1

Velocities

42 0 0 0
40 0 0 0
38 0 0 0
36 0 0 0
34 0 0 0
32 0 0 0
30 0 0 0
8 0 0 0
9 0 0 0
10 0 0 0
11 0 0 0
12 0 0 0
13 0 0 0
14 0 0 0
15 0 0 0
17 0 0 0
19 0 0 0
21 0 0 0
23 0 0 0
25 0 0 0
27 0 0 0
7 0 0 0
29 0 0 0
31 0 0 0
33 0 0 0
35 0 0 0
37 0 0 0
39 0 0 0
41 0 0 0
16 0 0 0
18 0 0 0
20 0 0 0
22 0 0 0
24 0 0 0
26 0 0 0
28 0 0 0
5 0 0 0
2 0 0 0
3 0 0 0
1 0 0 0
4 0 0 0
6 0 0 0
