4326
Lattice="85.61861459493416 0.0 0.0 -42.80930729746706 74.14789527604209 0.0 0.0 0.0 28.26298049003122" Properties=species:S:1:pos:R:3:masses:R:1:momenta:R:3:id:I:1:type:I:1:travel:I:3 comment="LAMMPS data file via write_data, version 28 Mar 2023, timestep = 1131, units = metal" pbc="T T T"
Mo       0.87020019       1.61674550      10.25920973      95.95000002       0.00000000       0.00000000       0.00000000        1        1        0        0        0
Mo       3.68025966       0.11886438      10.28782097      95.95000002       0.00000000       0.00000000       0.00000000        2        1        0        0        0
Mo       0.76452875       4.79910433      10.32105703      95.95000002       0.00000000       0.00000000       0.00000000        3        1        0        0        0
Mo       3.57452108       3.30342494      10.31577266      95.95000002       0.00000000       0.00000000       0.00000000        4        1        0        0        0
Mo       6.38220104       1.80528343      10.37644945      95.95000002       0.00000000       0.00000000       0.00000000        5        1        0        0        0
Mo       9.18613368       0.30287393      10.49794592      95.95000002       0.00000000       0.00000000       0.00000000        6        1        0        0        0
Mo       3.47178032       6.48514272      10.40893642      95.95000002       0.00000000       0.00000000       0.00000000        7        1        0        0        0
Mo       6.27957395       4.98911911      10.43565857      95.95000002       0.00000000       0.00000000       0.00000000        8        1        0        0        0
Mo       9.08474502       3.48891567      10.52357801      95.95000002       0.00000000       0.00000000       0.00000000        9        1        0        0        0
Mo      11.88627056       1.98244381      10.66494471      95.95000002       0.00000000       0.00000000       0.00000000       10        1        0        0        0
Mo      14.68427585       0.46749553      10.84620355      95.95000002       0.00000000       0.00000000       0.00000000       11        1        0        0        0
Mo       6.18044493       8.16937839      10.55490542      95.95000002       0.00000000       0.00000000       0.00000000       12        1        0        0        0
Mo       8.98610504       6.67120287      10.60846833      95.95000002       0.00000000       0.00000000       0.00000000       13        1        0        0        0
Mo      11.78914622       5.16702458      10.71590194      95.95000002       0.00000000       0.00000000       0.00000000       14        1        0        0        0
Mo      14.58898187       3.65458320      10.86726784      95.95000002       0.00000000       0.00000000       0.00000000       15        1        0        0        0
Mo      17.38621021       2.13174609      11.04728346      95.95000002       0.00000000       0.00000000       0.00000000       16        1        0        0        0
Mo      20.18234508       0.59702558      11.23787973      95.95000002       0.00000000       0.00000000       0.00000000       17        1        0        0        0
Mo       6.08667345      11.34620465      10.72381001      95.95000002       0.00000000       0.00000000       0.00000000       18        1        0        0        0
Mo       8.89181101       9.84934319      10.74536855      95.95000002       0.00000000       0.00000000       0.00000000       19        1        0        0        0
Mo      11.69589936       8.34722463      10.81767254      95.95000002       0.00000000       0.00000000       0.00000000       20        1        0        0        0
Mo      14.49761761       6.83736942      10.93472114      95.95000002       0.00000000       0.00000000       0.00000000       21        1        0        0        0
Mo      17.29670980       5.31746557      11.08515510      95.95000002       0.00000000       0.00000000       0.00000000       22        1        0        0        0
Mo      20.09400654       3.78568298      11.25336200      95.95000002       0.00000000       0.00000000       0.00000000       23        1        0        0        0
Mo      22.89098830       2.24132520      11.42312743      95.95000002       0.00000000       0.00000000       0.00000000       24        1        0        0        0
Mo      25.68921061       0.68531321      11.58172931      95.95000002       0.00000000       0.00000000       0.00000000       25        1        0        0        0
Mo       8.80388181      13.02379620      10.92171606      95.95000002       0.00000000       0.00000000       0.00000000       26        1        0        0        0
Mo      11.60818470      11.52300175      10.96121604      95.95000002       0.00000000       0.00000000       0.00000000       27        1        0        0        0
Mo      14.41147011      10.01552246      11.04269289      95.95000002       0.00000000       0.00000000       0.00000000       28        1        0        0        0
Mo      17.21260996       8.49870592      11.15919616      95.95000002       0.00000000       0.00000000       0.00000000       29        1        0        0        0
Mo      20.01154049       6.97030978      11.29887665      95.95000002       0.00000000       0.00000000       0.00000000       30        1        0        0        0
Mo      22.80912475       5.42906388      11.44728718      95.95000002       0.00000000       0.00000000       0.00000000       31        1        0        0        0
Mo      25.60672710       3.87527845      11.59128848      95.95000002       0.00000000       0.00000000       0.00000000       32        1        0        0        0
Mo      28.40581412       2.31091361      11.72189559      95.95000002       0.00000000       0.00000000       0.00000000       33        1        0        0        0
Mo      31.20758120       0.73892778      11.83465785      95.95000002       0.00000000       0.00000000       0.00000000       34        1        0        0        0
Mo       8.72441649      16.19591896      11.12083998      95.95000002       0.00000000       0.00000000       0.00000000       35        1        0        0        0
Mo      11.52786645      14.69514129      11.13331569      95.95000002       0.00000000       0.00000000       0.00000000       36        1        0        0        0
Mo      14.33194095      13.18934567      11.18180840      95.95000002       0.00000000       0.00000000       0.00000000       37        1        0        0        0
Mo      17.13483434      11.67543114      11.26350384      95.95000002       0.00000000       0.00000000       0.00000000       38        1        0        0        0
Mo      19.93559260      10.15063834      11.37093198      95.95000002       0.00000000       0.00000000       0.00000000       39        1        0        0        0
Mo      22.73427195       8.61308830      11.49279230      95.95000002       0.00000000       0.00000000       0.00000000       40        1        0        0        0
Mo      25.53171225       7.06241220      11.61701625      95.95000002       0.00000000       0.00000000       0.00000000       41        1        0        0        0
Mo      28.32924158       5.49999971      11.73390619      95.95000002       0.00000000       0.00000000       0.00000000       42        1        0        0        0
Mo      31.12836445       3.92861696      11.83748407      95.95000002       0.00000000       0.00000000       0.00000000       43        1        0        0        0
Mo      33.93037064       2.35146637      11.92479639      95.95000002       0.00000000       0.00000000       0.00000000       44        1        0        0        0
Mo      36.73599971       0.77133719      11.99439770      95.95000002       0.00000000       0.00000000       0.00000000       45        1        0        0        0
Mo      11.45655785      17.86506464      11.31837235      95.95000002       0.00000000       0.00000000       0.00000000       46        1        0        0        0
Mo      14.26039861      16.35977951      11.33980330      95.95000002       0.00000000       0.00000000       0.00000000       47        1        0        0        0
Mo      17.06428691      14.84812704      11.38962909      95.95000002       0.00000000       0.00000000       0.00000000       48        1        0        0        0
Mo      19.86658718      13.32678324      11.46451857      95.95000002       0.00000000       0.00000000       0.00000000       49        1        0        0        0
Mo      22.66656020      11.79321837      11.55700080      95.95000002       0.00000000       0.00000000       0.00000000       50        1        0        0        0
Mo      25.46436539      10.24634927      11.65734657      95.95000002       0.00000000       0.00000000       0.00000000       51        1        0        0        0
Mo      28.26088085       8.68688305      11.75641019      95.95000002       0.00000000       0.00000000       0.00000000       52        1        0        0        0
Mo      31.05750005       7.11713715      11.84749032      95.95000002       0.00000000       0.00000000       0.00000000       53        1        0        0        0
Mo      33.85582506       5.54028820      11.92642938      95.95000002       0.00000000       0.00000000       0.00000000       54        1        0        0        0
Mo      36.65724528       3.95945389      11.99057783      95.95000002       0.00000000       0.00000000       0.00000000       55        1        0        0        0
Mo      39.46259815       2.37713181      12.03787602      95.95000002       0.00000000       0.00000000       0.00000000       56        1        0        0        0
Mo      42.27198924       0.79507770      12.06642262      95.95000002       0.00000000       0.00000000       0.00000000       57        1        0        0        0
Mo      11.39510130      21.03427847      11.50114547      95.95000002       0.00000000       0.00000000       0.00000000       58        1        0        0        0
Mo      14.19780852      19.52812420      11.50320010      95.95000002       0.00000000       0.00000000       0.00000000       59        1        0        0        0
Mo      17.00174051      18.01772564      11.52708760      95.95000002       0.00000000       0.00000000       0.00000000       60        1        0        0        0
Mo      19.80490261      16.49927543      11.57263529      95.95000002       0.00000000       0.00000000       0.00000000       61        1        0        0        0
Mo      22.60594717      14.96960357      11.63606543      95.95000002       0.00000000       0.00000000       0.00000000       62        1        0        0        0
Mo      25.40437867      13.42691030      11.71062555      95.95000002       0.00000000       0.00000000       0.00000000       63        1        0        0        0
Mo      28.20049387      11.87118050      11.78878731      95.95000002       0.00000000       0.00000000       0.00000000       64        1        0        0        0
Mo      30.99527491      10.30412311      11.86416272      95.95000002       0.00000000       0.00000000       0.00000000       65        1        0        0        0
Mo      33.79022240       8.72862108      11.93209586      95.95000002       0.00000000       0.00000000       0.00000000       66        1        0        0        0
Mo      36.58701926       7.14788096      11.98907743      95.95000002       0.00000000       0.00000000       0.00000000       67        1        0        0        0
Mo      39.38711635       5.56474533      12.03199650      95.95000002       0.00000000       0.00000000       0.00000000       68        1        0        0        0
Mo      42.19141582       3.98139956      12.05790978      95.95000002       0.00000000       0.00000000       0.00000000       69        1        0        0        0
Mo      45.00007729       2.39939295      12.06412004      95.95000002       0.00000000       0.00000000       0.00000000       70        1        0        0        0
Mo      47.81247912       0.81983403      12.04825275      95.95000002       0.00000000       0.00000000       0.00000000       71        1        0        0        0
Mo      14.14439174      22.69561616      11.65942645      95.95000002       0.00000000       0.00000000       0.00000000       72        1        0        0        0
Mo      16.94756212      21.18534342      11.66471368      95.95000002       0.00000000       0.00000000       0.00000000       73        1        0        0        0
Mo      19.75079170      19.66894770      11.68664358      95.95000002       0.00000000       0.00000000       0.00000000       74        1        0        0        0
Mo      22.55238994      18.14272042      11.72432914      95.95000002       0.00000000       0.00000000       0.00000000       75        1        0        0        0
Mo      25.35136079      16.60419658      11.77394993      95.95000002       0.00000000       0.00000000       0.00000000       76        1        0        0        0
Mo      28.14745670      15.05265320      11.83012398      95.95000002       0.00000000       0.00000000       0.00000000       77        1        0        0        0
Mo      30.94113945      13.48913570      11.88760523      95.95000002       0.00000000       0.00000000       0.00000000       78        1        0        0        0
Mo      33.73351845      11.91604735      11.94207558      95.95000002       0.00000000       0.00000000       0.00000000       79        1        0        0        0
Mo      36.52617655      10.33643762      11.98984357      95.95000002       0.00000000       0.00000000       0.00000000       80        1        0        0        0
Mo      39.32082609       8.75328808      12.02719510      95.95000002       0.00000000       0.00000000       0.00000000       81        1        0        0        0
Mo      42.11893701       7.16909871      12.05020665      95.95000002       0.00000000       0.00000000       0.00000000       82        1        0        0        0
Mo      44.92143742       5.58579464      12.05506826      95.95000002       0.00000000       0.00000000       0.00000000       83        1        0        0        0
Mo      47.72851685       4.00480355      12.03846630      95.95000002       0.00000000       0.00000000       0.00000000       84        1        0        0        0
Mo      50.53959025       2.42723832      11.99773666      95.95000002       0.00000000       0.00000000       0.00000000       85        1        0        0        0
Mo      53.35342804       0.85415577      11.93087267      95.95000002       0.00000000       0.00000000       0.00000000       86        1        0        0        0
Mo      14.09952854      25.86309902      11.79846592      95.95000002       0.00000000       0.00000000       0.00000000       87        1        0        0        0
Mo      16.90150124      24.35197043      11.79230561      95.95000002       0.00000000       0.00000000       0.00000000       88        1        0        0        0
Mo      19.70417368      22.83671349      11.79740602      95.95000002       0.00000000       0.00000000       0.00000000       89        1        0        0        0
Mo      22.50576095      21.31325476      11.81467883      95.95000002       0.00000000       0.00000000       0.00000000       90        1        0        0        0
Mo      25.30496816      19.77857146      11.84265740      95.95000002       0.00000000       0.00000000       0.00000000       91        1        0        0        0
Mo      28.10113798      18.23130188      11.87810180      95.95000002       0.00000000       0.00000000       0.00000000       92        1        0        0        0
Mo      30.89425323      16.67184544      11.91730459      95.95000002       0.00000000       0.00000000       0.00000000       93        1        0        0        0
Mo      33.68494226      15.10205494      11.95688562      95.95000002       0.00000000       0.00000000       0.00000000       94        1        0        0        0
Mo      36.47442083      13.52463796      11.99364719      95.95000002       0.00000000       0.00000000       0.00000000       95        1        0        0        0
Mo      39.26429806      11.94249736      12.02395170      95.95000002       0.00000000       0.00000000       0.00000000       96        1        0        0        0
Mo      42.05626668      10.35827156      12.04342317      95.95000002       0.00000000       0.00000000       0.00000000       97        1        0        0        0
Mo      44.85177535       8.77414838      12.04730388      95.95000002       0.00000000       0.00000000       0.00000000       98        1        0        0        0
Mo      47.65174743       7.19186925      12.03110278      95.95000002       0.00000000       0.00000000       0.00000000       99        1        0        0        0
Mo      50.45640104       5.61282567      11.99109738      95.95000002       0.00000000       0.00000000       0.00000000      100        1        0        0        0
Mo      53.26519139       4.03820744      11.92453056      95.95000002       0.00000000       0.00000000       0.00000000      101        1        0        0        0
Mo      56.07693860       2.46922421      11.82968195      95.95000002       0.00000000       0.00000000       0.00000000      102        1        0        0        0
Mo      58.89022766       0.90732449      11.70627992      95.95000002       0.00000000       0.00000000       0.00000000      103        1        0        0        0
Mo      16.86264609      27.51826750      11.90185389      95.95000002       0.00000000       0.00000000       0.00000000      104        1        0        0        0
Mo      19.66447752      26.00334522      11.89662221      95.95000002       0.00000000       0.00000000       0.00000000      105        1        0        0        0
Mo      22.46566707      24.48192056      11.89957176      95.95000002       0.00000000       0.00000000       0.00000000      106        1        0        0        0
Mo      25.26480158      22.95055784      11.91076763      95.95000002       0.00000000       0.00000000       0.00000000      107        1        0        0        0
Mo      28.06096936      21.40735785      11.92871690      95.95000002       0.00000000       0.00000000       0.00000000      108        1        0        0        0
Mo      30.85380111      19.85214472      11.95123950      95.95000002       0.00000000       0.00000000       0.00000000      109        1        0        0        0
Mo      33.64349073      18.28622870      11.97614226      95.95000002       0.00000000       0.00000000       0.00000000      110        1        0        0        0
Mo      36.43080844      16.71189618      12.00113284      95.95000002       0.00000000       0.00000000       0.00000000      111        1        0        0        0
Mo      39.21702216      15.13181271      12.02321801      95.95000002       0.00000000       0.00000000       0.00000000      112        1        0        0        0
Mo      42.00371536      13.54856752      12.03825336      95.95000002       0.00000000       0.00000000       0.00000000      113        1        0        0        0
Mo      44.79252504      11.96444523      12.04110494      95.95000002       0.00000000       0.00000000       0.00000000      114        1        0        0        0
Mo      47.58485290      10.38139329      12.02635590      95.95000002       0.00000000       0.00000000       0.00000000      115        1        0        0        0
Mo      50.38160856       8.80105862      11.98906167      95.95000002       0.00000000       0.00000000       0.00000000      116        1        0        0        0
Mo      53.18303791       7.22487180      11.92530359      95.95000002       0.00000000       0.00000000       0.00000000      117        1        0        0        0
Mo      55.98864544       5.65415933      11.83244994      95.95000002       0.00000000       0.00000000       0.00000000      118        1        0        0        0
Mo      58.79733284       4.09030180      11.70936165      95.95000002       0.00000000       0.00000000       0.00000000      119        1        0        0        0
Mo      61.60779696       2.53483885      11.55700787      95.95000002       0.00000000       0.00000000       0.00000000      120        1        0        0        0
Mo      64.41907866       0.98929484      11.37975903      95.95000002       0.00000000       0.00000000       0.00000000      121        1        0        0        0
Mo      16.82956102      30.68453005      11.98805772      95.95000002       0.00000000       0.00000000       0.00000000      122        1        0        0        0
Mo      19.63061610      29.16934092      11.97777766      95.95000002       0.00000000       0.00000000       0.00000000      123        1        0        0        0
Mo      22.43131362      27.64929794      11.97213805      95.95000002       0.00000000       0.00000000       0.00000000      124        1        0        0        0
Mo      25.23023043      26.12068816      11.97192213      95.95000002       0.00000000       0.00000000       0.00000000      125        1        0        0        0
Mo      28.02633097      24.58118811      11.97679349      95.95000002       0.00000000       0.00000000       0.00000000      126        1        0        0        0
Mo      30.81902327      23.03013780      11.98581583      95.95000002       0.00000000       0.00000000       0.00000000      127        1        0        0        0
Mo      33.60818333      21.46836500      11.99792720      95.95000002       0.00000000       0.00000000       0.00000000      128        1        0        0        0
Mo      36.39418233      19.89773176      12.01185686      95.95000002       0.00000000       0.00000000       0.00000000      129        1        0        0        0
Mo      39.17788486      18.32059228      12.02553023      95.95000002       0.00000000       0.00000000       0.00000000      130        1        0        0        0
Mo      41.96056173      16.73935225      12.03552980      95.95000002       0.00000000       0.00000000       0.00000000      131        1        0        0        0
Mo      44.74373733      15.15624057      12.03702079      95.95000002       0.00000000       0.00000000       0.00000000      132        1        0        0        0
Mo      47.52896967      13.57325191      12.02426000      95.95000002       0.00000000       0.00000000       0.00000000      133        1        0        0        0
Mo      50.31760526      11.99217292      11.99141050      95.95000002       0.00000000       0.00000000       0.00000000      134        1        0        0        0
Mo      53.11054491      10.41464090      11.93332113      95.95000002       0.00000000       0.00000000       0.00000000      135        1        0        0        0
Mo      55.90805992       8.84219137      11.84609610      95.95000002       0.00000000       0.00000000       0.00000000      136        1        0        0        0
Mo      58.70972975       7.27632756      11.72746140      95.95000002       0.00000000       0.00000000       0.00000000      137        1        0        0        0
Mo      61.51458310       5.71858095      11.57721456      95.95000002       0.00000000       0.00000000       0.00000000      138        1        0        0        0
Mo      64.32149390       4.17046275      11.39814357      95.95000002       0.00000000       0.00000000       0.00000000      139        1        0        0        0
Mo      67.12972805       2.63312066      11.19739340      95.95000002       0.00000000       0.00000000       0.00000000      140        1        0        0        0
Mo      69.93927382       1.10670962      10.98754986      95.95000002       0.00000000       0.00000000       0.00000000      141        1        0        0        0
Mo      19.60110309      32.33490971      12.03655966      95.95000002       0.00000000       0.00000000       0.00000000      142        1        0        0        0
Mo      22.40150951      30.81574898      12.02694378      95.95000002       0.00000000       0.00000000       0.00000000      143        1        0        0        0
Mo      25.20029728      29.28938704      12.02029472      95.95000002       0.00000000       0.00000000       0.00000000      144        1        0        0        0
Mo      27.99639410      27.75317818      12.01681617      95.95000002       0.00000000       0.00000000       0.00000000      145        1        0        0        0
Mo      30.78909040      26.20606808      12.01638812      95.95000002       0.00000000       0.00000000       0.00000000      146        1        0        0        0
Mo      33.57805632      24.64847439      12.01884773      95.95000002       0.00000000       0.00000000       0.00000000      147        1        0        0        0
Mo      36.36337198      23.08187988      12.02383614      95.95000002       0.00000000       0.00000000       0.00000000      148        1        0        0        0
Mo      39.14554435      21.50831924      12.03021694      95.95000002       0.00000000       0.00000000       0.00000000      149        1        0        0        0
Mo      41.92548362      19.92995404      12.03547451      95.95000002       0.00000000       0.00000000       0.00000000      150        1        0        0        0
Mo      44.70442901      18.34885179      12.03550387      95.95000002       0.00000000       0.00000000       0.00000000      151        1        0        0        0
Mo      47.48382717      16.76692147      12.02487151      95.95000002       0.00000000       0.00000000       0.00000000      152        1        0        0        0
Mo      50.26515456      15.18594453      11.99748389      95.95000002       0.00000000       0.00000000       0.00000000      153        1        0        0        0
Mo      53.04970359      13.60763923      11.94736988      95.95000002       0.00000000       0.00000000       0.00000000      154        1        0        0        0
Mo      55.83836967      12.03370206      11.86941366      95.95000002       0.00000000       0.00000000       0.00000000      155        1        0        0        0
Mo      58.63147076      10.46581742      11.75995686      95.95000002       0.00000000       0.00000000       0.00000000      156        1        0        0        0
Mo      61.42869924       8.90566886      11.61735880      95.95000002       0.00000000       0.00000000       0.00000000      157        1        0        0        0
Mo      64.22926421       7.35487996      11.44280141      95.95000002       0.00000000       0.00000000       0.00000000      158        1        0        0        0
Mo      67.03230618       5.81477537      11.24150574      95.95000002       0.00000000       0.00000000       0.00000000      159        1        0        0        0
Mo      69.83743037       4.28590624      11.02397408      95.95000002       0.00000000       0.00000000       0.00000000      160        1        0        0        0
Mo      72.64491079       2.76750972      10.80635591      95.95000002       0.00000000       0.00000000       0.00000000      161        1        0        0        0
Mo      75.45518142       1.25733953      10.60879668      95.95000002       0.00000000       0.00000000       0.00000000      162        1        0        0        0
Mo      19.57419357      35.50005473      12.07083142      95.95000002       0.00000000       0.00000000       0.00000000      163        1        0        0        0
Mo      22.37473335      33.98141926      12.06032768      95.95000002       0.00000000       0.00000000       0.00000000      164        1        0        0        0
Mo      25.17372329      32.45692104      12.05120125      95.95000002       0.00000000       0.00000000       0.00000000      165        1        0        0        0
Mo      27.97006342      30.92364752      12.04367989      95.95000002       0.00000000       0.00000000       0.00000000      166        1        0        0        0
Mo      30.76299328      29.38021935      12.03798910      95.95000002       0.00000000       0.00000000       0.00000000      167        1        0        0        0
Mo      33.55207562      27.82671534      12.03454563      95.95000002       0.00000000       0.00000000       0.00000000      168        1        0        0        0
Mo      36.33720214      26.26429659      12.03368918      95.95000002       0.00000000       0.00000000       0.00000000      169        1        0        0        0
Mo      39.11861499      24.69471058      12.03506912      95.95000002       0.00000000       0.00000000       0.00000000      170        1        0        0        0
Mo      41.89690758      23.11986699      12.03701399      95.95000002       0.00000000       0.00000000       0.00000000      171        1        0        0        0
Mo      44.67300333      21.54162064      12.03624774      95.95000002       0.00000000       0.00000000       0.00000000      172        1        0        0        0
Mo      47.44809883      19.96171624      12.02800856      95.95000002       0.00000000       0.00000000       0.00000000      173        1        0        0        0
Mo      50.22355890      18.38181836      12.00652847      95.95000002       0.00000000       0.00000000       0.00000000      174        1        0        0        0
Mo      53.00077897      16.80358829      11.96567566      95.95000002       0.00000000       0.00000000       0.00000000      175        1        0        0        0
Mo      55.78100867      15.22875342      11.89962020      95.95000002       0.00000000       0.00000000       0.00000000      176        1        0        0        0
Mo      58.56515260      13.65910926      11.80351025      95.95000002       0.00000000       0.00000000       0.00000000      177        1        0        0        0
Mo      61.35360335      12.09651353      11.67417061      95.95000002       0.00000000       0.00000000       0.00000000      178        1        0        0        0
Mo      64.14620207      10.54280193      11.51093944      95.95000002       0.00000000       0.00000000       0.00000000      179        1        0        0        0
Mo      66.94240810       8.99957317      11.31687910      95.95000002       0.00000000       0.00000000       0.00000000      180        1        0        0        0
Mo      69.74172657       7.46776785      11.10017197      95.95000002       0.00000000       0.00000000       0.00000000      181        1        0        0        0
Mo      72.54415589       5.94716189      10.87490412      95.95000002       0.00000000       0.00000000       0.00000000      182        1        0        0        0
Mo      75.35013375       4.43605169      10.66020608      95.95000002       0.00000000       0.00000000       0.00000000      183        1        0        0        0
Mo      78.15972525       2.93156704      10.47697387      95.95000002       0.00000000       0.00000000       0.00000000      184        1        0        0        0
Mo      80.97196063       1.43078534      10.34309371      95.95000002       0.00000000       0.00000000       0.00000000      185        1        0        0        0
Mo      22.34924903      37.14629887      12.07037119      95.95000002       0.00000000       0.00000000       0.00000000      186        1        0        0        0
Mo      25.14894594      35.62339550      12.06133489      95.95000002       0.00000000       0.00000000       0.00000000      187        1        0        0        0
Mo      27.94596248      34.09280335      12.05313646      95.95000002       0.00000000       0.00000000       0.00000000      188        1        0        0        0
Mo      30.73949277      32.55284727      12.04591458      95.95000002       0.00000000       0.00000000       0.00000000      189        1        0        0        0
Mo      33.52904713      31.00331977      12.04030516      95.95000002       0.00000000       0.00000000       0.00000000      190        1        0        0        0
Mo      36.31441684      29.44511405      12.03708691      95.95000002       0.00000000       0.00000000       0.00000000      191        1        0        0        0
Mo      39.09567537      27.87973107      12.03649273      95.95000002       0.00000000       0.00000000       0.00000000      192        1        0        0        0
Mo      41.87318495      26.30885414      12.03751361      95.95000002       0.00000000       0.00000000       0.00000000      193        1        0        0        0
Mo      44.64759478      24.73411472      12.03757599      95.95000002       0.00000000       0.00000000       0.00000000      194        1        0        0        0
Mo      47.41983348      23.15705525      12.03263007      95.95000002       0.00000000       0.00000000       0.00000000      195        1        0        0        0
Mo      50.19105023      21.57916478      12.01750768      95.95000002       0.00000000       0.00000000       0.00000000      196        1        0        0        0
Mo      52.96253290      20.00195917      11.98643006      95.95000002       0.00000000       0.00000000       0.00000000      197        1        0        0        0
Mo      55.73560790      18.42707102      11.93352398      95.95000002       0.00000000       0.00000000       0.00000000      198        1        0        0        0
Mo      58.51149020      16.85628124      11.85335195      95.95000002       0.00000000       0.00000000       0.00000000      199        1        0        0        0
Mo      61.29110285      15.29151905      11.74157466      95.95000002       0.00000000       0.00000000       0.00000000      200        1        0        0        0
Mo      64.07493925      13.73479844      11.59579473      95.95000002       0.00000000       0.00000000       0.00000000      201        1        0        0        0
Mo      66.86303647      12.18802314      11.41674412      95.95000002       0.00000000       0.00000000       0.00000000      202        1        0        0        0
Mo      69.65517181      10.65259856      11.20984043      95.95000002       0.00000000       0.00000000       0.00000000      203        1        0        0        0
Mo      72.45126163       9.12888986      10.98647379      95.95000002       0.00000000       0.00000000       0.00000000      204        1        0        0        0
Mo      75.25162400       7.61581381      10.76386932      95.95000002       0.00000000       0.00000000       0.00000000      205        1        0        0        0
Mo      78.05656366       6.11088373      10.56269205      95.95000002       0.00000000       0.00000000       0.00000000      206        1        0        0        0
Mo      80.86553038       4.61102586      10.40264385      95.95000002       0.00000000       0.00000000       0.00000000      207        1        0        0        0
Mo      83.67697899       3.11362257      10.29853950      95.95000002       0.00000000       0.00000000       0.00000000      208        1        0        0        0
Mo      22.32318377      40.31030838      12.05671760      95.95000002       0.00000000       0.00000000       0.00000000      209        1        0        0        0
Mo      25.12419899      38.78880345      12.04875550      95.95000002       0.00000000       0.00000000       0.00000000      210        1        0        0        0
Mo      27.92245588      37.26073649      12.04196192      95.95000002       0.00000000       0.00000000       0.00000000      211        1        0        0        0
Mo      30.71708856      35.72413763      12.03604483      95.95000002       0.00000000       0.00000000       0.00000000      212        1        0        0        0
Mo      33.50755735      34.17852678      12.03148906      95.95000002       0.00000000       0.00000000       0.00000000      213        1        0        0        0
Mo      36.29360500      32.62456616      12.02924369      95.95000002       0.00000000       0.00000000       0.00000000      214        1        0        0        0
Mo      39.07521524      31.06354804      12.02990382      95.95000002       0.00000000       0.00000000       0.00000000      215        1        0        0        0
Mo      41.85260713      29.49695421      12.03292025      95.95000002       0.00000000       0.00000000       0.00000000      216        1        0        0        0
Mo      44.62623701      27.92620933      12.03621269      95.95000002       0.00000000       0.00000000       0.00000000      217        1        0        0        0
Mo      47.39680626      26.35264252      12.03626306      95.95000002       0.00000000       0.00000000       0.00000000      218        1        0        0        0
Mo      50.16524663      24.77754293      12.02847450      95.95000002       0.00000000       0.00000000       0.00000000      219        1        0        0        0
Mo      52.93266234      23.20224725      12.00759921      95.95000002       0.00000000       0.00000000       0.00000000      220        1        0        0        0
Mo      55.70027509      21.62822533      11.96815975      95.95000002       0.00000000       0.00000000       0.00000000      221        1        0        0        0
Mo      58.46934645      20.05713983      11.90480150      95.95000002       0.00000000       0.00000000       0.00000000      222        1        0        0        0
Mo      61.24105642      18.49086080      11.81273534      95.95000002       0.00000000       0.00000000       0.00000000      223        1        0        0        0
Mo      64.01635768      16.93144993      11.68841653      95.95000002       0.00000000       0.00000000       0.00000000      224        1        0        0        0
Mo      66.79586690      15.38101305      11.53059579      95.95000002       0.00000000       0.00000000       0.00000000      225        1        0        0        0
Mo      69.57985794      13.84137395      11.34186287      95.95000002       0.00000000       0.00000000       0.00000000      226        1        0        0        0
Mo      72.36846468      12.31354936      11.13030727      95.95000002       0.00000000       0.00000000       0.00000000      227        1        0        0        0
Mo      75.16197691      10.79720825      10.91024040      95.95000002       0.00000000       0.00000000       0.00000000      228        1        0        0        0
Mo      77.96081308       9.29048152      10.70080696      95.95000002       0.00000000       0.00000000       0.00000000      229        1        0        0        0
Mo      80.76485880       7.79043678      10.52231952      95.95000002       0.00000000       0.00000000       0.00000000      230        1        0        0        0
Mo      -2.04565946       6.29411449      10.39187887      95.95000002       0.00000000       0.00000000       0.00000000      231        1        0        0        0
Mo      25.09757307      41.95308970      12.01277354      95.95000002       0.00000000       0.00000000       0.00000000      232        1        0        0        0
Mo      27.89770830      40.42746026      12.00796258      95.95000002       0.00000000       0.00000000       0.00000000      233        1        0        0        0
Mo      30.69403667      38.89419874      12.00497432      95.95000002       0.00000000       0.00000000       0.00000000      234        1        0        0        0
Mo      33.48595102      37.35253924      12.00381164      95.95000002       0.00000000       0.00000000       0.00000000      235        1        0        0        0
Mo      36.27315278      35.80291601      12.00529048      95.95000002       0.00000000       0.00000000       0.00000000      236        1        0        0        0
Mo      39.05558345      34.24643979      12.01015639      95.95000002       0.00000000       0.00000000       0.00000000      237        1        0        0        0
Mo      41.83338875      32.68441205      12.01813509      95.95000002       0.00000000       0.00000000       0.00000000      238        1        0        0        0
Mo      44.60691524      31.11806183      12.02743554      95.95000002       0.00000000       0.00000000       0.00000000      239        1        0        0        0
Mo      47.37671330      29.54850944      12.03483110      95.95000002       0.00000000       0.00000000       0.00000000      240        1        0        0        0
Mo      50.14353919      27.97684016      12.03606057      95.95000002       0.00000000       0.00000000       0.00000000      241        1        0        0        0
Mo      52.90832450      26.40420211      12.02630125      95.95000002       0.00000000       0.00000000       0.00000000      242        1        0        0        0
Mo      55.67213422      24.83188833      12.00055133      95.95000002       0.00000000       0.00000000       0.00000000      243        1        0        0        0
Mo      58.43613000      23.26139845      11.95390640      95.95000002       0.00000000       0.00000000       0.00000000      244        1        0        0        0
Mo      61.20150660      21.69446724      11.88178421      95.95000002       0.00000000       0.00000000       0.00000000      245        1        0        0        0
Mo      63.96940578      20.13306952      11.78031762      95.95000002       0.00000000       0.00000000       0.00000000      246        1        0        0        0
Mo      66.74081957      18.57934049      11.64711231      95.95000002       0.00000000       0.00000000       0.00000000      247        1        0        0        0
Mo      69.51650877      17.03535448      11.48253384      95.95000002       0.00000000       0.00000000       0.00000000      248        1        0        0        0
Mo      72.29700422      15.50266634      11.29142946      95.95000002       0.00000000       0.00000000       0.00000000      249        1        0        0        0
Mo      75.08277713      13.98174173      11.08449002      95.95000002       0.00000000       0.00000000       0.00000000      250        1        0        0        0
Mo      77.87434495      12.47154696      10.87799951      95.95000002       0.00000000       0.00000000       0.00000000      251        1        0        0        0
Mo      -4.94665139      10.96967170      10.69127211      95.95000002       0.00000000       0.00000000       0.00000000      252        1        0        0        0
Mo      -2.14360194       9.47310923      10.54252893      95.95000002       0.00000000       0.00000000       0.00000000      253        1        0        0        0
Mo       0.66327737       7.97907106      10.44560377      95.95000002       0.00000000       0.00000000       0.00000000      254        1        0        0        0
Mo      25.06707306      45.11621792      11.95386004      95.95000002       0.00000000       0.00000000       0.00000000      255        1        0        0        0
Mo      27.86972026      43.59294749      11.94991767      95.95000002       0.00000000       0.00000000       0.00000000      256        1        0        0        0
Mo      30.66838021      42.06307185      11.95003165      95.95000002       0.00000000       0.00000000       0.00000000      257        1        0        0        0
Mo      33.46233063      40.52549469      11.95344500      95.95000002       0.00000000       0.00000000       0.00000000      258        1        0        0        0
Mo      36.25121191      38.98040043      11.96052643      95.95000002       0.00000000       0.00000000       0.00000000      259        1        0        0        0
Mo      39.03493956      37.42871465      11.97193318      95.95000002       0.00000000       0.00000000       0.00000000      260        1        0        0        0
Mo      41.81362998      35.87157250      11.98749509      95.95000002       0.00000000       0.00000000       0.00000000      261        1        0        0        0
Mo      44.58757859      34.31001196      12.00554651      95.95000002       0.00000000       0.00000000       0.00000000      262        1        0        0        0
Mo      47.35726167      32.74494659      12.02292585      95.95000002       0.00000000       0.00000000       0.00000000      263        1        0        0        0
Mo      50.12332730      31.17725554      12.03542951      95.95000002       0.00000000       0.00000000       0.00000000      264        1        0        0        0
Mo      52.88658081      29.60789715      12.03838600      95.95000002       0.00000000       0.00000000       0.00000000      265        1        0        0        0
Mo      55.64795330      28.03799657      12.02708844      95.95000002       0.00000000       0.00000000       0.00000000      266        1        0        0        0
Mo      58.40847360      26.46889480      11.99708190      95.95000002       0.00000000       0.00000000       0.00000000      267        1        0        0        0
Mo      61.16923914      24.90217433      11.94429028      95.95000002       0.00000000       0.00000000       0.00000000      268        1        0        0        0
Mo      63.93137951      23.33966061      11.86516699      95.95000002       0.00000000       0.00000000       0.00000000      269        1        0        0        0
Mo      66.69600925      21.78338847      11.75710715      95.95000002       0.00000000       0.00000000       0.00000000      270        1        0        0        0
Mo      69.46416562      20.23546819      11.61931460      95.95000002       0.00000000       0.00000000       0.00000000      271        1        0        0        0
Mo      72.23675556      18.69776170      11.45421310      95.95000002       0.00000000       0.00000000       0.00000000      272        1        0        0        0
Mo      75.01455989      17.17137379      11.26901895      95.95000002       0.00000000       0.00000000       0.00000000      273        1        0        0        0
Mo      -7.82032921      15.65614134      11.07637631      95.95000002       0.00000000       0.00000000       0.00000000      274        1        0        0        0
Mo      -5.03015375      14.15047156      10.89303573      95.95000002       0.00000000       0.00000000       0.00000000      275        1        0        0        0
Mo      -2.23359357      12.65176284      10.73660592      95.95000002       0.00000000       0.00000000       0.00000000      276        1        0        0        0
Mo       0.56833337      11.15713877      10.62202003      95.95000002       0.00000000       0.00000000       0.00000000      277        1        0        0        0
Mo       3.37377649       9.66387127      10.55963093      95.95000002       0.00000000       0.00000000       0.00000000      278        1        0        0        0
Mo      27.83637417      46.75717604      11.86769471      95.95000002       0.00000000       0.00000000       0.00000000      279        1        0        0        0
Mo      30.63797261      45.23074056      11.86936901      95.95000002       0.00000000       0.00000000       0.00000000      280        1        0        0        0
Mo      33.43457341      43.69744606      11.87713179      95.95000002       0.00000000       0.00000000       0.00000000      281        1        0        0        0
Mo      36.22570474      42.15717305      11.89059759      95.95000002       0.00000000       0.00000000       0.00000000      282        1        0        0        0
Mo      39.01123841      40.61062491      11.91005234      95.95000002       0.00000000       0.00000000       0.00000000      283        1        0        0        0
Mo      41.79128449      39.05876222      11.93524491      95.95000002       0.00000000       0.00000000       0.00000000      284        1        0        0        0
Mo      44.56612801      37.50243705      11.96447241      95.95000002       0.00000000       0.00000000       0.00000000      285        1        0        0        0
Mo      47.33621539      35.94234589      11.99445170      95.95000002       0.00000000       0.00000000       0.00000000      286        1        0        0        0
Mo      50.10215391      34.37915139      12.02077875      95.95000002       0.00000000       0.00000000       0.00000000      287        1        0        0        0
Mo      52.86468423      32.81362289      12.03861753      95.95000002       0.00000000       0.00000000       0.00000000      288        1        0        0        0
Mo      55.62464994      31.24672054      12.04326869      95.95000002       0.00000000       0.00000000       0.00000000      289        1        0        0        0
Mo      58.38297700      29.67965075      12.03049751      95.95000002       0.00000000       0.00000000       0.00000000      290        1        0        0        0
Mo      61.14065249      28.11386622      11.99668031      95.95000002       0.00000000       0.00000000       0.00000000      291        1        0        0        0
Mo      63.89871525      26.55104710      11.93884068      95.95000002       0.00000000       0.00000000       0.00000000      292        1        0        0        0
Mo      66.65824417      24.99308018      11.85478030      95.95000002       0.00000000       0.00000000       0.00000000      293        1        0        0        0
Mo      69.42034008      23.44197643      11.74354674      95.95000002       0.00000000       0.00000000       0.00000000      294        1        0        0        0
Mo      72.18609384      21.89966382      11.60635669      95.95000002       0.00000000       0.00000000       0.00000000      295        1        0        0        0
Mo     -10.66206882      20.36761570      11.44789508      95.95000002       0.00000000       0.00000000       0.00000000      296        1        0        0        0
Mo      -7.88596332      18.84636527      11.27732596      95.95000002       0.00000000       0.00000000       0.00000000      297        1        0        0        0
Mo      -5.10342825      17.33518421      11.10799707      95.95000002       0.00000000       0.00000000       0.00000000      298        1        0        0        0
Mo      -2.31410425      15.83218948      10.95533074      95.95000002       0.00000000       0.00000000       0.00000000      299        1        0        0        0
Mo       0.48163128      14.33485507      10.83372500      95.95000002       0.00000000       0.00000000       0.00000000      300        1        0        0        0
Mo       3.28253386      12.84045411      10.75423200      95.95000002       0.00000000       0.00000000       0.00000000      301        1        0        0        0
Mo      27.79555242      49.92019839      11.76268179      95.95000002       0.00000000       0.00000000       0.00000000      302        1        0        0        0
Mo      30.60055579      48.39716737      11.76237943      95.95000002       0.00000000       0.00000000       0.00000000      303        1        0        0        0
Mo      33.40037887      46.86834967      11.77254827      95.95000002       0.00000000       0.00000000       0.00000000      304        1        0        0        0
Mo      36.19435724      45.33324227      11.79183920      95.95000002       0.00000000       0.00000000       0.00000000      305        1        0        0        0
Mo      38.98226930      43.79226622      11.81985632      95.95000002       0.00000000       0.00000000       0.00000000      306        1        0        0        0
Mo      41.76419752      42.24616139      11.85601102      95.95000002       0.00000000       0.00000000       0.00000000      307        1        0        0        0
Mo      44.54043275      40.69557977      11.89838248      95.95000002       0.00000000       0.00000000       0.00000000      308        1        0        0        0
Mo      47.31142978      39.14099577      11.94337220      95.95000002       0.00000000       0.00000000       0.00000000      309        1        0        0        0
Mo      50.07778920      37.58283490      11.98614178      95.95000002       0.00000000       0.00000000       0.00000000      310        1        0        0        0
Mo      52.84023936      36.02166112      12.02139426      95.95000002       0.00000000       0.00000000       0.00000000      311        1        0        0        0
Mo      55.59959443      34.45827307      12.04410538      95.95000002       0.00000000       0.00000000       0.00000000      312        1        0        0        0
Mo      58.35672271      32.89375130      12.04997028      95.95000002       0.00000000       0.00000000       0.00000000      313        1        0        0        0
Mo      61.11253241      31.32945209      12.03558547      95.95000002       0.00000000       0.00000000       0.00000000      314        1        0        0        0
Mo      63.86797170      29.76695226      11.99847526      95.95000002       0.00000000       0.00000000       0.00000000      315        1        0        0        0
Mo      66.62403486      28.20800577      11.93706101      95.95000002       0.00000000       0.00000000       0.00000000      316        1        0        0        0
Mo      69.38177503      26.65448937      11.85081461      95.95000002       0.00000000       0.00000000       0.00000000      317        1        0        0        0
Mo     -13.47631406      25.10826150      11.74075908      95.95000002       0.00000000       0.00000000       0.00000000      318        1        0        0        0
Mo     -10.71185911      23.57090848      11.61028932      95.95000002       0.00000000       0.00000000       0.00000000      319        1        0        0        0
Mo      -7.94234767      22.04338444      11.46603242      95.95000002       0.00000000       0.00000000       0.00000000      320        1        0        0        0
Mo      -5.16678418      20.52566499      11.31805394      95.95000002       0.00000000       0.00000000       0.00000000      321        1        0        0        0
Mo      -2.38449137      19.01665284      11.17877160      95.95000002       0.00000000       0.00000000       0.00000000      322        1        0        0        0
Mo       0.40465968      17.51443524      11.06068963      95.95000002       0.00000000       0.00000000       0.00000000      323        1        0        0        0
Mo       3.20008637      16.01666294      10.97417345      95.95000002       0.00000000       0.00000000       0.00000000      324        1        0        0        0
Mo       6.00046362      14.52072149      10.92645678      95.95000002       0.00000000       0.00000000       0.00000000      325        1        0        0        0
Mo      30.55394601      51.56237427      11.63053359      95.95000002       0.00000000       0.00000000       0.00000000      326        1        0        0        0
Mo      33.35740935      50.03808729      11.63910788      95.95000002       0.00000000       0.00000000       0.00000000      327        1        0        0        0
Mo      36.15480913      48.50843862      11.66198724      95.95000002       0.00000000       0.00000000       0.00000000      328        1        0        0        0
Mo      38.94573539      46.97347665      11.69784804      95.95000002       0.00000000       0.00000000       0.00000000      329        1        0        0        0
Mo      41.73018503      45.43365342      11.74543402      95.95000002       0.00000000       0.00000000       0.00000000      330        1        0        0        0
Mo      44.50842734      43.88937831      11.80234341      95.95000002       0.00000000       0.00000000       0.00000000      331        1        0        0        0
Mo      47.28092428      42.34088028      11.86443501      95.95000002       0.00000000       0.00000000       0.00000000      332        1        0        0        0
Mo      50.04829818      40.78832826      11.92618002      95.95000002       0.00000000       0.00000000       0.00000000      333        1        0        0        0
Mo      52.81129641      39.23204579      11.98153607      95.95000002       0.00000000       0.00000000       0.00000000      334        1        0        0        0
Mo      55.57074590      37.67265880      12.02483257      95.95000002       0.00000000       0.00000000       0.00000000      335        1        0        0        0
Mo      58.32750804      36.11112436      12.05138120      95.95000002       0.00000000       0.00000000       0.00000000      336        1        0        0        0
Mo      61.08245775      34.54872025      12.05773120      95.95000002       0.00000000       0.00000000       0.00000000      337        1        0        0        0
Mo      63.83648025      32.98696205      12.04169027      95.95000002       0.00000000       0.00000000       0.00000000      338        1        0        0        0
Mo      66.59049518      31.42752483      12.00223421      95.95000002       0.00000000       0.00000000       0.00000000      339        1        0        0        0
Mo     -16.27313403      29.87217327      11.93944391      95.95000002       0.00000000       0.00000000       0.00000000      340        1        0        0        0
Mo     -13.51612196      28.32266591      11.85468816      95.95000002       0.00000000       0.00000000       0.00000000      341        1        0        0        0
Mo     -10.75595500      26.78057371      11.75102444      95.95000002       0.00000000       0.00000000       0.00000000      342        1        0        0        0
Mo      -7.99146012      25.24703153      11.63369241      95.95000002       0.00000000       0.00000000       0.00000000      343        1        0        0        0
Mo      -5.22152168      23.72246496      11.51032209      95.95000002       0.00000000       0.00000000       0.00000000      344        1        0        0        0
Mo      -2.44524189      22.20644104      11.39041818      95.95000002       0.00000000       0.00000000       0.00000000      345        1        0        0        0
Mo       0.33787485      20.69772607      11.28394406      95.95000002       0.00000000       0.00000000       0.00000000      346        1        0        0        0
Mo       3.12776965      19.19454559      11.19959063      95.95000002       0.00000000       0.00000000       0.00000000      347        1        0        0        0
Mo       5.92374102      17.69477279      11.14379533      95.95000002       0.00000000       0.00000000       0.00000000      348        1        0        0        0
Mo      30.49635723      54.72658317      11.47855618      95.95000002       0.00000000       0.00000000       0.00000000      349        1        0        0        0
Mo      33.30358461      53.20658162      11.47929296      95.95000002       0.00000000       0.00000000       0.00000000      350        1        0        0        0
Mo      36.10483920      51.68245791      11.50142381      95.95000002       0.00000000       0.00000000       0.00000000      351        1        0        0        0
Mo      38.89943250      50.15381468      11.54273417      95.95000002       0.00000000       0.00000000       0.00000000      352        1        0        0        0
Mo      41.68716683      48.62073633      11.60101973      95.95000002       0.00000000       0.00000000       0.00000000      353        1        0        0        0
Mo      44.46820471      47.08332480      11.67304303      95.95000002       0.00000000       0.00000000       0.00000000      354        1        0        0        0
Mo      47.24297299      45.54151664      11.75380894      95.95000002       0.00000000       0.00000000       0.00000000      355        1        0        0        0
Mo      50.01210427      43.99518219      11.83679553      95.95000002       0.00000000       0.00000000       0.00000000      356        1        0        0        0
Mo      52.77638285      42.44436124      11.91489435      95.95000002       0.00000000       0.00000000       0.00000000      357        1        0        0        0
Mo      55.53668127      40.88946450      11.98147146      95.95000002       0.00000000       0.00000000       0.00000000      358        1        0        0        0
Mo      58.29389244      39.33132156      12.03114048      95.95000002       0.00000000       0.00000000       0.00000000      359        1        0        0        0
Mo      61.04889691      37.77114217      12.06012908      95.95000002       0.00000000       0.00000000       0.00000000      360        1        0        0        0
Mo      63.80255747      36.21040600      12.06629047      95.95000002       0.00000000       0.00000000       0.00000000      361        1        0        0        0
Mo     -19.06286756      34.65075808      12.04895984      95.95000002       0.00000000       0.00000000       0.00000000      362        1        0        0        0
Mo     -16.30923397      33.09391295      12.00877693      95.95000002       0.00000000       0.00000000       0.00000000      363        1        0        0        0
Mo     -13.55416754      31.54154682      11.94761660      95.95000002       0.00000000       0.00000000       0.00000000      364        1        0        0        0
Mo     -10.79659474      29.99519215      11.86869489      95.95000002       0.00000000       0.00000000       0.00000000      365        1        0        0        0
Mo      -8.03538013      28.45604743      11.77672113      95.95000002       0.00000000       0.00000000       0.00000000      366        1        0        0        0
Mo      -5.26938666      26.92478497      11.67789425      95.95000002       0.00000000       0.00000000       0.00000000      367        1        0        0        0
Mo      -2.49761056      25.40143177      11.57953787      95.95000002       0.00000000       0.00000000       0.00000000      368        1        0        0        0
Mo       0.28067455      23.88535861      11.48921765      95.95000002       0.00000000       0.00000000       0.00000000      369        1        0        0        0
Mo       3.06577601      22.37541470      11.41359431      95.95000002       0.00000000       0.00000000       0.00000000      370        1        0        0        0
Mo       5.85746944      20.87009055      11.35768785      95.95000002       0.00000000       0.00000000       0.00000000      371        1        0        0        0
Mo       8.65490205      19.36746622      11.32503600      95.95000002       0.00000000       0.00000000       0.00000000      372        1        0        0        0
Mo      33.23751190      56.37402945      11.30015208      95.95000002       0.00000000       0.00000000       0.00000000      373        1        0        0        0
Mo      36.04276618      54.85507160      11.31487484      95.95000002       0.00000000       0.00000000       0.00000000      374        1        0        0        0
Mo      38.84155275      53.33270100      11.35698557      95.95000002       0.00000000       0.00000000       0.00000000      375        1        0        0        0
Mo      41.63336495      51.80658842      11.42336972      95.95000002       0.00000000       0.00000000       0.00000000      376        1        0        0        0
Mo      44.41813308      50.27646195      11.50968062      95.95000002       0.00000000       0.00000000       0.00000000      377        1        0        0        0
Mo      47.19614653      48.74189183      11.60970797      95.95000002       0.00000000       0.00000000       0.00000000      378        1        0        0        0
Mo      49.96799189      47.20237675      11.71556084      95.95000002       0.00000000       0.00000000       0.00000000      379        1        0        0        0
Mo      52.73447500      45.65760997      11.81867756      95.95000002       0.00000000       0.00000000       0.00000000      380        1        0        0        0
Mo      55.49652259      44.10772147      11.91109538      95.95000002       0.00000000       0.00000000       0.00000000      381        1        0        0        0
Mo      58.25508930      42.55337968      11.98640553      95.95000002       0.00000000       0.00000000       0.00000000      382        1        0        0        0
Mo      61.01109254      40.99572502      12.04021805      95.95000002       0.00000000       0.00000000       0.00000000      383        1        0        0        0
Mo     -21.85320885      39.43622711      12.07019249      95.95000002       0.00000000       0.00000000       0.00000000      384        1        0        0        0
Mo     -19.09973362      37.87653253      12.07581281      95.95000002       0.00000000       0.00000000       0.00000000      385        1        0        0        0
Mo     -16.34621990      36.31835768      12.05811067      95.95000002       0.00000000       0.00000000       0.00000000      386        1        0        0        0
Mo     -13.59173343      34.76335684      12.01943552      95.95000002       0.00000000       0.00000000       0.00000000      387        1        0        0        0
Mo     -10.83525836      33.21304033      11.96332479      95.95000002       0.00000000       0.00000000       0.00000000      388        1        0        0        0
Mo      -8.07571695      31.66864306      11.89441387      95.95000002       0.00000000       0.00000000       0.00000000      389        1        0        0        0
Mo      -5.31200787      30.13099158      11.81824071      95.95000002       0.00000000       0.00000000       0.00000000      390        1        0        0        0
Mo      -2.54310306      28.60042078      11.74081595      95.95000002       0.00000000       0.00000000       0.00000000      391        1        0        0        0
Mo       0.23182929      27.07676442      11.66796198      95.95000002       0.00000000       0.00000000       0.00000000      392        1        0        0        0
Mo       3.01331259      25.55943983      11.60455031      95.95000002       0.00000000       0.00000000       0.00000000      393        1        0        0        0
Mo       5.80143584      24.04755165      11.55406642      95.95000002       0.00000000       0.00000000       0.00000000      394        1        0        0        0
Mo       8.59573411      22.53981096      11.51889677      95.95000002       0.00000000       0.00000000       0.00000000      395        1        0        0        0
Mo      33.15890999      59.54116018      11.11390689      95.95000002       0.00000000       0.00000000       0.00000000      396        1        0        0        0
Mo      35.96787582      58.02651889      11.11275967      95.95000002       0.00000000       0.00000000       0.00000000      397        1        0        0        0
Mo      38.77106236      56.50982541      11.14852165      95.95000002       0.00000000       0.00000000       0.00000000      398        1        0        0        0
Mo      41.56757750      54.99040742      11.21778981      95.95000002       0.00000000       0.00000000       0.00000000      399        1        0        0        0
Mo      44.35699580      53.46761614      11.31524149      95.95000002       0.00000000       0.00000000       0.00000000      400        1        0        0        0
Mo      47.13933336      51.94060015      11.43325731      95.95000002       0.00000000       0.00000000       0.00000000      401        1        0        0        0
Mo      49.91502427      50.40839342      11.56222396      95.95000002       0.00000000       0.00000000       0.00000000      402        1        0        0        0
Mo      52.68483579      48.87023350      11.69169465      95.95000002       0.00000000       0.00000000       0.00000000      403        1        0        0        0
Mo      55.44972909      47.32588200      11.81192638      95.95000002       0.00000000       0.00000000       0.00000000      404        1        0        0        0
Mo      58.21072076      45.77577999      11.91509625      95.95000002       0.00000000       0.00000000       0.00000000      405        1        0        0        0
Mo     -24.64983388      44.22097620      11.99587234      95.95000002       0.00000000       0.00000000       0.00000000      406        1        0        0        0
Mo     -21.89380772      42.66293863      12.05144320      95.95000002       0.00000000       0.00000000       0.00000000      407        1        0        0        0
Mo     -19.13896269      41.10334845      12.08121025      95.95000002       0.00000000       0.00000000       0.00000000      408        1        0        0        0
Mo     -16.38444367      39.54395422      12.08639940      95.95000002       0.00000000       0.00000000       0.00000000      409        1        0        0        0
Mo     -13.62934663      37.98644780      12.06970160      95.95000002       0.00000000       0.00000000       0.00000000      410        1        0        0        0
Mo     -10.87270235      36.43235909      12.03497690      95.95000002       0.00000000       0.00000000       0.00000000      411        1        0        0        0
Mo      -8.11347885      34.88297761      11.98698681      95.95000002       0.00000000       0.00000000       0.00000000      412        1        0        0        0
Mo      -5.35062168      33.33925558      11.93105735      95.95000002       0.00000000       0.00000000       0.00000000      413        1        0        0        0
Mo      -2.58311915      31.80176226      11.87257983      95.95000002       0.00000000       0.00000000       0.00000000      414        1        0        0        0
Mo       0.18989207      30.27069423      11.81636684      95.95000002       0.00000000       0.00000000       0.00000000      415        1        0        0        0
Mo       2.96902593      28.74593434      11.76607243      95.95000002       0.00000000       0.00000000       0.00000000      416        1        0        0        0
Mo       5.75454545      27.22712036      11.72394769      95.95000002       0.00000000       0.00000000       0.00000000      417        1        0        0        0
Mo       8.54623983      25.71355020      11.69123734      95.95000002       0.00000000       0.00000000       0.00000000      418        1        0        0        0
Mo      11.34332044      24.20384938      11.66909960      95.95000002       0.00000000       0.00000000       0.00000000      419        1        0        0        0
Mo      35.88073368      61.19777596      10.91095850      95.95000002       0.00000000       0.00000000       0.00000000      420        1        0        0        0
Mo      38.68804102      59.68564660      10.93144569      95.95000002       0.00000000       0.00000000       0.00000000      421        1        0        0        0
Mo      41.48947435      58.17200077      10.99561416      95.95000002       0.00000000       0.00000000       0.00000000      422        1        0        0        0
Mo      44.28417797      56.65595897      11.09794180      95.95000002       0.00000000       0.00000000       0.00000000      423        1        0        0        0
Mo      47.07177728      55.13630297      11.22974803      95.95000002       0.00000000       0.00000000       0.00000000      424        1        0        0        0
Mo      49.85242771      53.61155578      11.37964042      95.95000002       0.00000000       0.00000000       0.00000000      425        1        0        0        0
Mo      52.62676700      52.08037648      11.53495654      95.95000002       0.00000000       0.00000000       0.00000000      426        1        0        0        0
Mo      55.39574297      50.54202642      11.68370032      95.95000002       0.00000000       0.00000000       0.00000000      427        1        0        0        0
Mo     -27.45821870      48.99661426      11.81613967      95.95000002       0.00000000       0.00000000       0.00000000      428        1        0        0        0
Mo     -24.69688788      47.44504046      11.92558515      95.95000002       0.00000000       0.00000000       0.00000000      429        1        0        0        0
Mo     -21.93796997      45.88875405      12.00841024      95.95000002       0.00000000       0.00000000       0.00000000      430        1        0        0        0
Mo     -19.18061761      44.32948880      12.06365031      95.95000002       0.00000000       0.00000000       0.00000000      431        1        0        0        0
Mo     -16.42398961      42.76905427      12.09248414      95.95000002       0.00000000       0.00000000       0.00000000      432        1        0        0        0
Mo     -13.66720276      41.20920472      12.09776108      95.95000002       0.00000000       0.00000000       0.00000000      433        1        0        0        0
Mo     -10.90930564      39.65153800      12.08357171      95.95000002       0.00000000       0.00000000       0.00000000      434        1        0        0        0
Mo      -8.14929467      38.09743013      12.05485812      95.95000002       0.00000000       0.00000000       0.00000000      435        1        0        0        0
Mo      -5.38614666      36.54796621      12.01697709      95.95000002       0.00000000       0.00000000       0.00000000      436        1        0        0        0
Mo      -2.61886966      35.00392431      11.97513557      95.95000002       0.00000000       0.00000000       0.00000000      437        1        0        0        0
Mo       0.15340100      33.46580118      11.93373535      95.95000002       0.00000000       0.00000000       0.00000000      438        1        0        0        0
Mo       2.93131237      31.93387021      11.89581637      95.95000002       0.00000000       0.00000000       0.00000000      439        1        0        0        0
Mo       5.71520446      30.40821595      11.86289149      95.95000002       0.00000000       0.00000000       0.00000000      440        1        0        0        0
Mo       8.50500966      28.88862554      11.83537739      95.95000002       0.00000000       0.00000000       0.00000000      441        1        0        0        0
Mo      11.30015790      27.37423734      11.81354214      95.95000002       0.00000000       0.00000000       0.00000000      442        1        0        0        0
Mo      35.78322934      64.37024710      10.72831105      95.95000002       0.00000000       0.00000000       0.00000000      443        1        0        0        0
Mo      38.59386819      62.86145735      10.72466163      95.95000002       0.00000000       0.00000000       0.00000000      444        1        0        0        0
Mo      41.39983270      61.35220679      10.77404227      95.95000002       0.00000000       0.00000000       0.00000000      445        1        0        0        0
Mo      44.19988885      59.84164127      10.87199372      95.95000002       0.00000000       0.00000000       0.00000000      446        1        0        0        0
Mo      46.99322360      58.32841957      11.00986207      95.95000002       0.00000000       0.00000000       0.00000000      447        1        0        0        0
Mo      49.77961663      56.81067063      11.17510936      95.95000002       0.00000000       0.00000000       0.00000000      448        1        0        0        0
Mo      52.55948674      55.28643734      11.35292363      95.95000002       0.00000000       0.00000000       0.00000000      449        1        0        0        0
Mo     -30.28491289      53.75433161      11.52871485      95.95000002       0.00000000       0.00000000       0.00000000      450        1        0        0        0
Mo     -27.51532924      52.21398477      11.69032695      95.95000002       0.00000000       0.00000000       0.00000000      451        1        0        0        0
Mo     -24.74940761      50.66604620      11.82919298      95.95000002       0.00000000       0.00000000       0.00000000      452        1        0        0        0
Mo     -21.98628603      49.11189270      11.94042293      95.95000002       0.00000000       0.00000000       0.00000000      453        1        0        0        0
Mo     -19.22516904      47.55328989      12.02231710      95.95000002       0.00000000       0.00000000       0.00000000      454        1        0        0        0
Mo     -16.46525547      45.99211713      12.07570373      95.95000002       0.00000000       0.00000000       0.00000000      455        1        0        0        0
Mo     -13.70569124      44.43021360      12.10333255      95.95000002       0.00000000       0.00000000       0.00000000      456        1        0        0        0
Mo     -10.94554660      42.86926628      12.10935875      95.95000002       0.00000000       0.00000000       0.00000000      457        1        0        0        0
Mo      -8.18381506      41.31075741      12.09885782      95.95000002       0.00000000       0.00000000       0.00000000      458        1        0        0        0
Mo      -5.41946903      39.75592374      12.07730939      95.95000002       0.00000000       0.00000000       0.00000000      459        1        0        0        0
Mo      -2.65152010      38.20575260      12.04999553      95.95000002       0.00000000       0.00000000       0.00000000      460        1        0        0        0
Mo       0.12090713      36.66101315      12.02131268      95.95000002       0.00000000       0.00000000       0.00000000      461        1        0        0        0
Mo       2.89847975      35.12231326      11.99419168      95.95000002       0.00000000       0.00000000       0.00000000      462        1        0        0        0
Mo       5.68158049      33.59012285      11.96991035      95.95000002       0.00000000       0.00000000       0.00000000      463        1        0        0        0
Mo       8.47022341      32.06464129      11.94849704      95.95000002       0.00000000       0.00000000       0.00000000      464        1        0        0        0
Mo      11.26397288      30.54543297      11.92962275      95.95000002       0.00000000       0.00000000       0.00000000      465        1        0        0        0
Mo      14.06190766      29.03095112      11.91358691      95.95000002       0.00000000       0.00000000       0.00000000      466        1        0        0        0
Mo      38.49112059      66.03861185      10.54823323      95.95000002       0.00000000       0.00000000       0.00000000      467        1        0        0        0
Mo      41.30066723      64.53252482      10.57367162      95.95000002       0.00000000       0.00000000       0.00000000      468        1        0        0        0
Mo      44.10541950      63.02590441      10.65663605      95.95000002       0.00000000       0.00000000       0.00000000      469        1        0        0        0
Mo      46.90424260      61.51758733      10.78996491      95.95000002       0.00000000       0.00000000       0.00000000      470        1        0        0        0
Mo      49.69652492      60.00565508      10.96142742      95.95000002       0.00000000       0.00000000       0.00000000      471        1        0        0        0
Mo     -33.13623579      58.48770772      11.15491868      95.95000002       0.00000000       0.00000000       0.00000000      472        1        0        0        0
Mo     -30.35606014      56.96166393      11.35334443      95.95000002       0.00000000       0.00000000       0.00000000      473        1        0        0        0
Mo     -27.58057010      55.42651993      11.54173368      95.95000002       0.00000000       0.00000000       0.00000000      474        1        0        0        0
Mo     -24.80886503      53.88253339      11.70910190      95.95000002       0.00000000       0.00000000       0.00000000      475        1        0        0        0
Mo     -22.04021128      52.33091392      11.84879292      95.95000002       0.00000000       0.00000000       0.00000000      476        1        0        0        0
Mo     -19.27396240      50.77340267      11.95792628      95.95000002       0.00000000       0.00000000       0.00000000      477        1        0        0        0
Mo     -16.50944952      49.21192897      12.03659779      95.95000002       0.00000000       0.00000000       0.00000000      478        1        0        0        0
Mo     -13.74590662      47.64840273      12.08712603      95.95000002       0.00000000       0.00000000       0.00000000      479        1        0        0        0
Mo     -10.98244685      46.08460673      12.11345395      95.95000002       0.00000000       0.00000000       0.00000000      480        1        0        0        0
Mo      -8.21807321      44.52213857      12.12063117      95.95000002       0.00000000       0.00000000       0.00000000      481        1        0        0        0
Mo      -5.45173001      42.96238768      12.11423827      95.95000002       0.00000000       0.00000000       0.00000000      482        1        0        0        0
Mo      -2.68238657      41.40654801      12.09974043      95.95000002       0.00000000       0.00000000       0.00000000      483        1        0        0        0
Mo       0.09088115      39.85565621      12.08177815      95.95000002       0.00000000       0.00000000       0.00000000      484        1        0        0        0
Mo       2.86878773      38.31062691      12.06354676      95.95000002       0.00000000       0.00000000       0.00000000      485        1        0        0        0
Mo       5.65176508      36.77227298      12.04652328      95.95000002       0.00000000       0.00000000       0.00000000      486        1        0        0        0
Mo       8.43989052      35.24115108      12.03077643      95.95000002       0.00000000       0.00000000       0.00000000      487        1        0        0        0
Mo      11.23282485      33.71718734      12.01576782      95.95000002       0.00000000       0.00000000       0.00000000      488        1        0        0        0
Mo      14.02978442      32.19919027      12.00127582      95.95000002       0.00000000       0.00000000       0.00000000      489        1        0        0        0
Mo      38.38294648      69.21759339      10.41908721      95.95000002       0.00000000       0.00000000       0.00000000      490        1        0        0        0
Mo      41.19492949      67.71399665      10.41410212      95.95000002       0.00000000       0.00000000       0.00000000      491        1        0        0        0
Mo      44.00325206      66.21022459      10.47277932      95.95000002       0.00000000       0.00000000       0.00000000      492        1        0        0        0
Mo      46.80659779      64.70531648      10.59036750      95.95000002       0.00000000       0.00000000       0.00000000      493        1        0        0        0
Mo     -36.01449227      63.19761998      10.75656248      95.95000002       0.00000000       0.00000000       0.00000000      494        1        0        0        0
Mo     -33.22297101      61.68469459      10.95568592      95.95000002       0.00000000       0.00000000       0.00000000      495        1        0        0        0
Mo     -30.43687126      60.16397867      11.16908048      95.95000002       0.00000000       0.00000000       0.00000000      496        1        0        0        0
Mo     -27.65520327      58.63377591      11.37899491      95.95000002       0.00000000       0.00000000       0.00000000      497        1        0        0        0
Mo     -24.87707541      57.09380485      11.57159480      95.95000002       0.00000000       0.00000000       0.00000000      498        1        0        0        0
Mo     -22.10189416      55.54499161      11.73796206      95.95000002       0.00000000       0.00000000       0.00000000      499        1        0        0        0
Mo     -19.32925892      53.98897681      11.87362474      95.95000002       0.00000000       0.00000000       0.00000000      500        1        0        0        0
Mo     -16.55876964      52.42769468      11.97755682      95.95000002       0.00000000       0.00000000       0.00000000      501        1        0        0        0
Mo     -13.78988529      50.86308920      12.05127137      95.95000002       0.00000000       0.00000000       0.00000000      502        1        0        0        0
Mo     -11.02186207      49.29700636      12.09813693      95.95000002       0.00000000       0.00000000       0.00000000      503        1        0        0        0
Mo      -8.25376888      47.73114108      12.12286027      95.95000002       0.00000000       0.00000000       0.00000000      504        1        0        0        0
Mo      -5.48454152      46.16702088      12.13094338      95.95000002       0.00000000       0.00000000       0.00000000      505        1        0        0        0
Mo      -2.71308153      44.60603176      12.12800499      95.95000002       0.00000000       0.00000000       0.00000000      506        1        0        0        0
Mo       0.06163094      43.04946111      12.11903462      95.95000002       0.00000000       0.00000000       0.00000000      507        1        0        0        0
Mo       2.84042157      41.49852315      12.10772165      95.95000002       0.00000000       0.00000000       0.00000000      508        1        0        0        0
Mo       5.62381859      39.95435133      12.09608476      95.95000002       0.00000000       0.00000000       0.00000000      509        1        0        0        0
Mo       8.41198619      38.41783173      12.08461870      95.95000002       0.00000000       0.00000000       0.00000000      510        1        0        0        0
Mo      11.20467540      36.88922278      12.07296867      95.95000002       0.00000000       0.00000000       0.00000000      511        1        0        0        0
Mo      14.00120291      35.36765109      12.06076468      95.95000002       0.00000000       0.00000000       0.00000000      512        1        0        0        0
Mo      16.80048349      33.85077314      12.04827523      95.95000002       0.00000000       0.00000000       0.00000000      513        1        0        0        0
Mo      41.08569672      70.89658764      10.31009509      95.95000002       0.00000000       0.00000000       0.00000000      514        1        0        0        0
Mo      43.89642286      69.39519972      10.33827903      95.95000002       0.00000000       0.00000000       0.00000000      515        1        0        0        0
Mo     -38.91552420      67.89281723      10.43107182      95.95000002       0.00000000       0.00000000       0.00000000      516        1        0        0        0
Mo     -36.11393153      66.38805383      10.58082157      95.95000002       0.00000000       0.00000000       0.00000000      517        1        0        0        0
Mo     -33.31776339      64.87874392      10.77395358      95.95000002       0.00000000       0.00000000       0.00000000      518        1        0        0        0
Mo     -30.52658894      63.36222544      10.99203321      95.95000002       0.00000000       0.00000000       0.00000000      519        1        0        0        0
Mo     -27.73937816      61.83628378      11.21540051      95.95000002       0.00000000       0.00000000       0.00000000      520        1        0        0        0
Mo     -24.95511725      60.30003947      11.42733377      95.95000002       0.00000000       0.00000000       0.00000000      521        1        0        0        0
Mo     -22.17322186      58.75403587      11.61625310      95.95000002       0.00000000       0.00000000       0.00000000      522        1        0        0        0
Mo     -19.39351403      57.19974760      11.77573323      95.95000002       0.00000000       0.00000000       0.00000000      523        1        0        0        0
Mo     -16.61595999      55.63906440      11.90338030      95.95000002       0.00000000       0.00000000       0.00000000      524        1        0        0        0
Mo     -13.84040333      54.07393122      11.99961871      95.95000002       0.00000000       0.00000000       0.00000000      525        1        0        0        0
Mo     -11.06642616      52.50619864      12.06688277      95.95000002       0.00000000       0.00000000       0.00000000      526        1        0        0        0
Mo      -8.29330681      50.93760323      12.10912894      95.95000002       0.00000000       0.00000000       0.00000000      527        1        0        0        0
Mo      -5.52007050      49.36976323      12.13139948      95.95000002       0.00000000       0.00000000       0.00000000      528        1        0        0        0
Mo      -2.74559174      47.80421638      12.13922851      95.95000002       0.00000000       0.00000000       0.00000000      529        1        0        0        0
Mo       0.03126753      46.24246760      12.13789002      95.95000002       0.00000000       0.00000000       0.00000000      530        1        0        0        0
Mo       2.81150344      44.68601408      12.13165220      95.95000002       0.00000000       0.00000000       0.00000000      531        1        0        0        0
Mo       5.59581794      43.13630279      12.12328731      95.95000002       0.00000000       0.00000000       0.00000000      532        1        0        0        0
Mo       8.38452552      41.59455093      12.11404736      95.95000002       0.00000000       0.00000000       0.00000000      533        1        0        0        0
Mo      11.17749720      40.06134852      12.10414456      95.95000002       0.00000000       0.00000000       0.00000000      534        1        0        0        0
Mo      13.97415529      38.53614097      12.09346505      95.95000002       0.00000000       0.00000000       0.00000000      535        1        0        0        0
Mo      16.77350077      37.01687207      12.08215367      95.95000002       0.00000000       0.00000000       0.00000000      536        1        0        0        0
Mo      40.97576990      74.07945835      10.27050291      95.95000002       0.00000000       0.00000000       0.00000000      537        1        0        0        0
Mo     -41.83089413      72.58035837      10.26509778      95.95000002       0.00000000       0.00000000       0.00000000      538        1        0        0        0
Mo     -39.02199332      71.08022184      10.32727800      95.95000002       0.00000000       0.00000000       0.00000000      539        1        0        0        0
Mo     -36.21746825      69.57773026      10.45202281      95.95000002       0.00000000       0.00000000       0.00000000      540        1        0        0        0
Mo     -33.41786715      68.07102873      10.62852298      95.95000002       0.00000000       0.00000000       0.00000000      541        1        0        0        0
Mo     -30.62289476      66.55764390      10.84020996      95.95000002       0.00000000       0.00000000       0.00000000      542        1        0        0        0
Mo     -27.83147280      65.03512347      11.06709244      95.95000002       0.00000000       0.00000000       0.00000000      543        1        0        0        0
Mo     -25.04230899      63.50206833      11.29023227      95.95000002       0.00000000       0.00000000       0.00000000      544        1        0        0        0
Mo     -22.25458315      61.95860077      11.49532449      95.95000002       0.00000000       0.00000000       0.00000000      545        1        0        0        0
Mo     -19.46813384      60.40599889      11.67371579      95.95000002       0.00000000       0.00000000       0.00000000      546        1        0        0        0
Mo     -16.68322306      58.84610117      11.82148858      95.95000002       0.00000000       0.00000000       0.00000000      547        1        0        0        0
Mo     -13.90015781      57.28084966      11.93792064      95.95000002       0.00000000       0.00000000       0.00000000      548        1        0        0        0
Mo     -11.11901178      55.71206698      12.02434799      95.95000002       0.00000000       0.00000000       0.00000000      549        1        0        0        0
Mo      -8.33948998      54.14145240      12.08362889      95.95000002       0.00000000       0.00000000       0.00000000      550        1        0        0        0
Mo      -5.56089813      52.57063166      12.11987626      95.95000002       0.00000000       0.00000000       0.00000000      551        1        0        0        0
Mo      -2.78222224      51.00121378      12.13807794      95.95000002       0.00000000       0.00000000       0.00000000      552        1        0        0        0
Mo      -0.00227652      49.43485504      12.14347575      95.95000002       0.00000000       0.00000000       0.00000000      553        1        0        0        0
Mo       2.78011249      47.87329388      12.14079872      95.95000002       0.00000000       0.00000000       0.00000000      554        1        0        0        0
Mo       5.56589243      46.31828206      12.13362638      95.95000002       0.00000000       0.00000000       0.00000000      555        1        0        0        0
Mo       8.35561731      44.77137573      12.12418748      95.95000002       0.00000000       0.00000000       0.00000000      556        1        0        0        0
Mo      11.14935659      43.23352877      12.11361270      95.95000002       0.00000000       0.00000000       0.00000000      557        1        0        0        0
Mo      13.94667146      41.70454539      12.10246572      95.95000002       0.00000000       0.00000000       0.00000000      558        1        0        0        0
Mo      16.74665374      40.18268443      12.09120463      95.95000002       0.00000000       0.00000000       0.00000000      559        1        0        0        0
Mo      19.54801171      38.66467529      12.08035938      95.95000002       0.00000000       0.00000000       0.00000000      560        1        0        0        0
Mo     -36.32250540      72.76640707      10.38201902      95.95000002       0.00000000       0.00000000       0.00000000      561        1        0        0        0
Mo     -33.52041112      71.26186622      10.53379631      95.95000002       0.00000000       0.00000000       0.00000000      562        1        0        0        0
Mo     -30.72272935      69.75093822      10.72924570      95.95000002       0.00000000       0.00000000       0.00000000      563        1        0        0        0
Mo     -27.92846536      68.23118463      10.94954841      95.95000002       0.00000000       0.00000000       0.00000000      564        1        0        0        0
Mo     -25.13606008      66.70082711      11.17470686      95.95000002       0.00000000       0.00000000       0.00000000      565        1        0        0        0
Mo     -22.34422217      65.15954543      11.38808328      95.95000002       0.00000000       0.00000000       0.00000000      566        1        0        0        0
Mo     -19.55246284      63.60839576      11.57874460      95.95000002       0.00000000       0.00000000       0.00000000      567        1        0        0        0
Mo     -16.76105060      62.04921050      11.74116552      95.95000002       0.00000000       0.00000000       0.00000000      568        1        0        0        0
Mo     -13.97063307      60.48399279      11.87355578      95.95000002       0.00000000       0.00000000       0.00000000      569        1        0        0        0
Mo     -11.18181023      58.91457210      11.97625484      95.95000002       0.00000000       0.00000000       0.00000000      570        1        0        0        0
Mo      -8.39486301      57.34257829      12.05095134      95.95000002       0.00000000       0.00000000       0.00000000      571        1        0        0        0
Mo      -5.60961377      55.76954731      12.10048987      95.95000002       0.00000000       0.00000000       0.00000000      572        1        0        0        0
Mo      -2.82540135      54.19704072      12.12878285      95.95000002       0.00000000       0.00000000       0.00000000      573        1        0        0        0
Mo      -0.04117541      52.62675854      12.14049112      95.95000002       0.00000000       0.00000000       0.00000000      574        1        0        0        0
Mo       2.74431028      51.06058664      12.14039729      95.95000002       0.00000000       0.00000000       0.00000000      575        1        0        0        0
Mo       5.53224765      49.50054338      12.13271135      95.95000002       0.00000000       0.00000000       0.00000000      576        1        0        0        0
Mo       8.32350743      47.94852775      12.12067332      95.95000002       0.00000000       0.00000000       0.00000000      577        1        0        0        0
Mo      11.11845970      46.40590047      12.10658147      95.95000002       0.00000000       0.00000000       0.00000000      578        1        0        0        0
Mo      13.91689038      44.87289539      12.09207536      95.95000002       0.00000000       0.00000000       0.00000000      579        1        0        0        0
Mo      16.71802447      43.34815048      12.07841051      95.95000002       0.00000000       0.00000000       0.00000000      580        1        0        0        0
Mo      19.52062632      41.82866526      12.06649875      95.95000002       0.00000000       0.00000000       0.00000000      581        1        0        0        0
Mo     -30.82341683      72.94205107      10.66932366      95.95000002       0.00000000       0.00000000       0.00000000      582        1        0        0        0
Mo     -28.02715661      71.42472175      10.87400611      95.95000002       0.00000000       0.00000000       0.00000000      583        1        0        0        0
Mo     -25.23281349      69.89680121      11.09222835      95.95000002       0.00000000       0.00000000       0.00000000      584        1        0        0        0
Mo     -22.43866925      68.35752950      11.30569284      95.95000002       0.00000000       0.00000000       0.00000000      585        1        0        0        0
Mo     -19.64365477      66.80765995      11.50126566      95.95000002       0.00000000       0.00000000       0.00000000      586        1        0        0        0
Mo     -16.84764151      65.24900818      11.67175924      95.95000002       0.00000000       0.00000000       0.00000000      587        1        0        0        0
Mo     -14.05124089      63.68373654      11.81442662      95.95000002       0.00000000       0.00000000       0.00000000      588        1        0        0        0
Mo     -11.25537431      62.11381073      11.92889549      95.95000002       0.00000000       0.00000000       0.00000000      589        1        0        0        0
Mo      -8.46087445      60.54085492      12.01590902      95.95000002       0.00000000       0.00000000       0.00000000      590        1        0        0        0
Mo      -5.66820120      58.96628530      12.07702576      95.95000002       0.00000000       0.00000000       0.00000000      591        1        0        0        0
Mo      -2.87728841      57.39150875      12.11474944      95.95000002       0.00000000       0.00000000       0.00000000      592        1        0        0        0
Mo      -0.08751245      55.81811342      12.13257553      95.95000002       0.00000000       0.00000000       0.00000000      593        1        0        0        0
Mo       2.70221345      54.24798981      12.13471002      95.95000002       0.00000000       0.00000000       0.00000000      594        1        0        0        0
Mo       5.49319094      52.68331038      12.12550527      95.95000002       0.00000000       0.00000000       0.00000000      595        1        0        0        0
Mo       8.28660575      51.12629314      12.10897123      95.95000002       0.00000000       0.00000000       0.00000000      596        1        0        0        0
Mo      11.08320581      49.57873571      12.08859926      95.95000002       0.00000000       0.00000000       0.00000000      597        1        0        0        0
Mo      13.88311985      48.04138008      12.06739735      95.95000002       0.00000000       0.00000000       0.00000000      598        1        0        0        0
Mo      16.68581139      46.51335177      12.04788986      95.95000002       0.00000000       0.00000000       0.00000000      599        1        0        0        0
Mo      19.49014761      44.99201116      12.03193328      95.95000002       0.00000000       0.00000000       0.00000000      600        1        0        0        0
Mo      22.29460117      43.47337921      12.02036618      95.95000002       0.00000000       0.00000000       0.00000000      601        1        0        0        0
Mo     -25.32929817      73.08990623      11.04917886      95.95000002       0.00000000       0.00000000       0.00000000      602        1        0        0        0
Mo     -22.53400884      71.55273736      11.25495302      95.95000002       0.00000000       0.00000000       0.00000000      603        1        0        0        0
Mo     -19.73758775      70.00422948      11.44841331      95.95000002       0.00000000       0.00000000       0.00000000      604        1        0        0        0
Mo     -16.93926167      68.44607736      11.62047854      95.95000002       0.00000000       0.00000000       0.00000000      605        1        0        0        0
Mo     -14.13917017      66.88062455      11.76733387      95.95000002       0.00000000       0.00000000       0.00000000      606        1        0        0        0
Mo     -11.33811453      65.31010937      11.88814400      95.95000002       0.00000000       0.00000000       0.00000000      607        1        0        0        0
Mo      -8.53717407      63.73631627      11.98313886      95.95000002       0.00000000       0.00000000       0.00000000      608        1        0        0        0
Mo      -5.73735371      62.16062770      12.05290746      95.95000002       0.00000000       0.00000000       0.00000000      609        1        0        0        0
Mo      -2.93927085      60.58427751      12.09856932      95.95000002       0.00000000       0.00000000       0.00000000      610        1        0        0        0
Mo      -0.14297295      59.00861870      12.12211469      95.95000002       0.00000000       0.00000000       0.00000000      611        1        0        0        0
Mo       2.65213482      57.43536263      12.12654660      95.95000002       0.00000000       0.00000000       0.00000000      612        1        0        0        0
Mo       5.44717786      55.86665771      12.11565877      95.95000002       0.00000000       0.00000000       0.00000000      613        1        0        0        0
Mo       8.24349403      54.30492387      12.09365973      95.95000002       0.00000000       0.00000000       0.00000000      614        1        0        0        0
Mo      11.04221595      52.75237736      12.06492463      95.95000002       0.00000000       0.00000000       0.00000000      615        1        0        0        0
Mo      13.84390944      51.21033778      12.03385232      95.95000002       0.00000000       0.00000000       0.00000000      616        1        0        0        0
Mo      16.64840322      49.67854244      12.00458238      95.95000002       0.00000000       0.00000000       0.00000000      617        1        0        0        0
Mo      19.45478868      48.15484859      11.98049454      95.95000002       0.00000000       0.00000000       0.00000000      618        1        0        0        0
Mo      22.26158278      46.63553777      11.96356351      95.95000002       0.00000000       0.00000000       0.00000000      619        1        0        0        0
Mo     -19.83017986      73.19816659      11.42271046      95.95000002       0.00000000       0.00000000       0.00000000      620        1        0        0        0
Mo     -17.03141592      71.64078124      11.59064526      95.95000002       0.00000000       0.00000000       0.00000000      621        1        0        0        0
Mo     -14.23010062      70.07520000      11.73632216      95.95000002       0.00000000       0.00000000       0.00000000      622        1        0        0        0
Mo     -11.42647085      68.50399839      11.85825146      95.95000002       0.00000000       0.00000000       0.00000000      623        1        0        0        0
Mo      -8.62137111      66.92928502      11.95645410      95.95000002       0.00000000       0.00000000       0.00000000      624        1        0        0        0
Mo      -5.81596514      65.35259313      12.03107608      95.95000002       0.00000000       0.00000000       0.00000000      625        1        0        0        0
Mo      -3.01139026      63.77508215      12.08223484      95.95000002       0.00000000       0.00000000       0.00000000      626        1        0        0        0
Mo      -0.20841128      62.19786717      12.11047862      95.95000002       0.00000000       0.00000000       0.00000000      627        1        0        0        0
Mo       2.59282378      60.62234646      12.11726365      95.95000002       0.00000000       0.00000000       0.00000000      628        1        0        0        0
Mo       5.39289382      59.05043080      12.10516883      95.95000002       0.00000000       0.00000000       0.00000000      629        1        0        0        0
Mo       8.19295483      57.48452842      12.07782783      95.95000002       0.00000000       0.00000000       0.00000000      630        1        0        0        0
Mo      10.99434303      55.92715544      12.03982931      95.95000002       0.00000000       0.00000000       0.00000000      631        1        0        0        0
Mo      13.79807582      54.38021313      11.99657531      95.95000002       0.00000000       0.00000000       0.00000000      632        1        0        0        0
Mo      16.60446495      52.84415601      11.95385423      95.95000002       0.00000000       0.00000000       0.00000000      633        1        0        0        0
Mo      19.41297815      51.31750424      11.91699936      95.95000002       0.00000000       0.00000000       0.00000000      634        1        0        0        0
Mo      22.22230889      49.79696404      11.88984247      95.95000002       0.00000000       0.00000000       0.00000000      635        1        0        0        0
Mo      25.03069059      48.27823785      11.87377453      95.95000002       0.00000000       0.00000000       0.00000000      636        1        0        0        0
Mo     -14.31944104      73.26786900      11.72186778      95.95000002       0.00000000       0.00000000       0.00000000      637        1        0        0        0
Mo     -11.51581940      71.69606827      11.84079689      95.95000002       0.00000000       0.00000000       0.00000000      638        1        0        0        0
Mo      -8.70942553      70.12034320      11.93806995      95.95000002       0.00000000       0.00000000       0.00000000      639        1        0        0        0
Mo      -5.90107202      68.54255259      12.01368019      95.95000002       0.00000000       0.00000000       0.00000000      640        1        0        0        0
Mo      -3.09196436      66.96397337      12.06730705      95.95000002       0.00000000       0.00000000       0.00000000      641        1        0        0        0
Mo      -0.28335078      65.38560510      12.09849199      95.95000002       0.00000000       0.00000000       0.00000000      642        1        0        0        0
Mo       2.52386702      63.80853348      12.10723377      95.95000002       0.00000000       0.00000000       0.00000000      643        1        0        0        0
Mo       5.32946538      62.23428889      12.09455656      95.95000002       0.00000000       0.00000000       0.00000000      644        1        0        0        0
Mo       8.13400998      60.66501063      12.06284500      95.95000002       0.00000000       0.00000000       0.00000000      645        1        0        0        0
Mo      10.93866840      59.10327838      12.01604176      95.95000002       0.00000000       0.00000000       0.00000000      646        1        0        0        0
Mo      13.74472182      57.55145628      11.95975131      95.95000002       0.00000000       0.00000000       0.00000000      647        1        0        0        0
Mo      16.55299743      56.01075833      11.90094929      95.95000002       0.00000000       0.00000000       0.00000000      648        1        0        0        0
Mo      19.36348155      54.48051622      11.84697792      95.95000002       0.00000000       0.00000000       0.00000000      649        1        0        0        0
Mo      22.17522518      52.95805846      11.80407626      95.95000002       0.00000000       0.00000000       0.00000000      650        1        0        0        0
Mo      24.98655394      51.43936620      11.77588176      95.95000002       0.00000000       0.00000000       0.00000000      651        1        0        0        0
Mo      -8.79665871      73.31017378      11.92805623      95.95000002       0.00000000       0.00000000       0.00000000      652        1        0        0        0
Mo      -5.98838061      71.73117456      12.00163529      95.95000002       0.00000000       0.00000000       0.00000000      653        1        0        0        0
Mo      -3.17764891      70.15140996      12.05485684      95.95000002       0.00000000       0.00000000       0.00000000      654        1        0        0        0
Mo      -0.36569212      68.57195661      12.08681096      95.95000002       0.00000000       0.00000000       0.00000000      655        1        0        0        0
Mo       2.44614174      66.99372716      12.09651209      95.95000002       0.00000000       0.00000000       0.00000000      656        1        0        0        0
Mo       5.25684097      65.41787553      12.08354401      95.95000002       0.00000000       0.00000000       0.00000000      657        1        0        0        0
Mo       8.06612040      63.84610699      12.04871656      95.95000002       0.00000000       0.00000000       0.00000000      658        1        0        0        0
Mo      10.87453434      62.28076465      11.99462256      95.95000002       0.00000000       0.00000000       0.00000000      659        1        0        0        0
Mo      13.68322994      60.72441777      11.92609381      95.95000002       0.00000000       0.00000000       0.00000000      660        1        0        0        0
Mo      16.49336612      59.17894711      11.85033778      95.95000002       0.00000000       0.00000000       0.00000000      661        1        0        0        0
Mo      19.30549757      57.64458350      11.77617948      95.95000002       0.00000000       0.00000000       0.00000000      662        1        0        0        0
Mo      22.11921582      56.11947261      11.71236344      95.95000002       0.00000000       0.00000000       0.00000000      663        1        0        0        0
Mo      24.93314495      54.60007637      11.66550835      95.95000002       0.00000000       0.00000000       0.00000000      664        1        0        0        0
Mo      27.74535823      53.08225122      11.63849277      95.95000002       0.00000000       0.00000000       0.00000000      665        1        0        0        0
Mo      -3.26404017      73.33815434      12.04521528      95.95000002       0.00000000       0.00000000       0.00000000      666        1        0        0        0
Mo      -0.45183225      71.75747163      12.07601627      95.95000002       0.00000000       0.00000000       0.00000000      667        1        0        0        0
Mo       2.36206932      70.17813272      12.08534754      95.95000002       0.00000000       0.00000000       0.00000000      668        1        0        0        0
Mo       5.17623214      68.60106291      12.07184663      95.95000002       0.00000000       0.00000000       0.00000000      669        1        0        0        0
Mo       7.98956577      67.02754090      12.03489761      95.95000002       0.00000000       0.00000000       0.00000000      670        1        0        0        0
Mo      10.80173750      65.45946327      11.97543659      95.95000002       0.00000000       0.00000000       0.00000000      671        1        0        0        0
Mo      13.61328828      63.89926615      11.89676558      95.95000002       0.00000000       0.00000000       0.00000000      672        1        0        0        0
Mo      16.42529596      62.34923748      11.80518939      95.95000002       0.00000000       0.00000000       0.00000000      673        1        0        0        0
Mo      19.23871396      60.81046168      11.70991014      95.95000002       0.00000000       0.00000000       0.00000000      674        1        0        0        0
Mo      22.05374863      59.28204105      11.62159339      95.95000002       0.00000000       0.00000000       0.00000000      675        1        0        0        0
Mo      24.86955496      57.76113036      11.55002470      95.95000002       0.00000000       0.00000000       0.00000000      676        1        0        0        0
Mo      27.68442390      56.24387190      11.50168021      95.95000002       0.00000000       0.00000000       0.00000000      677        1        0        0        0
Mo       2.27545568      73.36236933      12.07433097      95.95000002       0.00000000       0.00000000       0.00000000      678        1        0        0        0
Mo       5.09034734      71.78412844      12.05975922      95.95000002       0.00000000       0.00000000       0.00000000      679        1        0        0        0
Mo       7.90587728      70.20925463      12.02117656      95.95000002       0.00000000       0.00000000       0.00000000      680        1        0        0        0
Mo      10.72090539      68.63919044      11.95806266      95.95000002       0.00000000       0.00000000       0.00000000      681        1        0        0        0
Mo      13.53507217      67.07597921      11.87190318      95.95000002       0.00000000       0.00000000       0.00000000      682        1        0        0        0
Mo      16.34888367      65.52195410      11.76725021      95.95000002       0.00000000       0.00000000       0.00000000      683        1        0        0        0
Mo      19.16328197      63.97882676      11.65236936      95.95000002       0.00000000       0.00000000       0.00000000      684        1        0        0        0
Mo      21.97893856      62.44666540      11.53860767      95.95000002       0.00000000       0.00000000       0.00000000      685        1        0        0        0
Mo      24.79566807      60.92350100      11.43829345      95.95000002       0.00000000       0.00000000       0.00000000      686        1        0        0        0
Mo      27.61224598      59.40594292      11.36184649      95.95000002       0.00000000       0.00000000       0.00000000      687        1        0        0        0
Mo      30.42682256      57.89040025      11.31532665      95.95000002       0.00000000       0.00000000       0.00000000      688        1        0        0        0
Mo       7.81805513      73.39156897      12.00827502      95.95000002       0.00000000       0.00000000       0.00000000      689        1        0        0        0
Mo      10.63392559      71.81994529      11.94274425      95.95000002       0.00000000       0.00000000       0.00000000      690        1        0        0        0
Mo      13.44962224      70.25446408      11.85159738      95.95000002       0.00000000       0.00000000       0.00000000      691        1        0        0        0
Mo      16.26477088      68.69719853      11.73736166      95.95000002       0.00000000       0.00000000       0.00000000      692        1        0        0        0
Mo      19.07981259      67.15013074      11.60638353      95.95000002       0.00000000       0.00000000       0.00000000      693        1        0        0        0
Mo      21.89550316      65.61413415      11.46921334      95.95000002       0.00000000       0.00000000       0.00000000      694        1        0        0        0
Mo      24.71220036      64.08819798      11.33936933      95.95000002       0.00000000       0.00000000       0.00000000      695        1        0        0        0
Mo      27.52934836      62.56957468      11.23060095      95.95000002       0.00000000       0.00000000       0.00000000      696        1        0        0        0
Mo      30.34550953      61.05486289      11.15357425      95.95000002       0.00000000       0.00000000       0.00000000      697        1        0        0        0
Mo      13.35924692      73.43475129      11.83682882      95.95000002       0.00000000       0.00000000       0.00000000      698        1        0        0        0
Mo      16.17451466      71.87494781      11.71644186      95.95000002       0.00000000       0.00000000       0.00000000      699        1        0        0        0
Mo      18.98954873      70.32455966      11.57384583      95.95000002       0.00000000       0.00000000       0.00000000      700        1        0        0        0
Mo      21.80471260      68.78495931      11.41766921      95.95000002       0.00000000       0.00000000       0.00000000      701        1        0        0        0
Mo      24.62057070      67.25602891      11.26099843      95.95000002       0.00000000       0.00000000       0.00000000      702        1        0        0        0
Mo      27.43719372      65.73580717      11.11948426      95.95000002       0.00000000       0.00000000       0.00000000      703        1        0        0        0
Mo      30.25375706      64.22119095      11.00788744      95.95000002       0.00000000       0.00000000       0.00000000      704        1        0        0        0
Mo      33.06880433      62.70921061      10.93668142      95.95000002       0.00000000       0.00000000       0.00000000      705        1        0        0        0
Mo      18.89466637      73.50211015      11.55660466      95.95000002       0.00000000       0.00000000       0.00000000      706        1        0        0        0
Mo      21.70852432      71.95933409      11.38700429      95.95000002       0.00000000       0.00000000       0.00000000      707        1        0        0        0
Mo      24.52281190      70.42744327      11.20886087      95.95000002       0.00000000       0.00000000       0.00000000      708        1        0        0        0
Mo      27.33796107      68.90531799      11.03797740      95.95000002       0.00000000       0.00000000       0.00000000      709        1        0        0        0
Mo      30.15380966      67.39031533      10.89182446      95.95000002       0.00000000       0.00000000       0.00000000      710        1        0        0        0
Mo      32.96937142      65.87940280      10.78539738      95.95000002       0.00000000       0.00000000       0.00000000      711        1        0        0        0
Mo      24.42163464      73.60251239      11.18680942      95.95000002       0.00000000       0.00000000       0.00000000      712        1        0        0        0
Mo      27.23444555      72.07831405      10.99269073      95.95000002       0.00000000       0.00000000       0.00000000      713        1        0        0        0
Mo      30.04854623      70.56257399      10.81577782      95.95000002       0.00000000       0.00000000       0.00000000      714        1        0        0        0
Mo      32.86352750      69.05232344      10.67442582      95.95000002       0.00000000       0.00000000       0.00000000      715        1        0        0        0
Mo      35.67821970      67.54490262      10.58262191      95.95000002       0.00000000       0.00000000       0.00000000      716        1        0        0        0
Mo      29.94129973      73.73776727      10.78633067      95.95000002       0.00000000       0.00000000       0.00000000      717        1        0        0        0
Mo      32.75455098      72.22780665      10.61377732      95.95000002       0.00000000       0.00000000       0.00000000      718        1        0        0        0
Mo      35.56892248      70.72179323      10.48747509      95.95000002       0.00000000       0.00000000       0.00000000      719        1        0        0        0
Mo      35.45859583      73.90027032      10.45121066      95.95000002       0.00000000       0.00000000       0.00000000      720        1        0        0        0
Mo      38.27247003      72.39793535      10.34873282      95.95000002       0.00000000       0.00000000       0.00000000      721        1        0        0        0
W        4.65074984       1.46387635      17.06998079      32.06000001       0.00000000       0.00000000       0.00000000      722        3        0        0        0
W        4.75352809       4.65785141      17.10736817      32.06000001       0.00000000       0.00000000       0.00000000      723        3        0        0        0
W        7.46925838       2.96817752      17.14361866      32.06000001       0.00000000       0.00000000       0.00000000      724        3        0        0        0
W       10.18551936       1.28473029      17.21680165      32.06000001       0.00000000       0.00000000       0.00000000      725        3        0        0        0
W        7.56710302       6.16167426      17.19867712      32.06000001       0.00000000       0.00000000       0.00000000      726        3        0        0        0
W       10.28303215       4.47591675      17.24988147      32.06000001       0.00000000       0.00000000       0.00000000      727        3        0        0        0
W       12.99935110       2.79812547      17.33288002      32.06000001       0.00000000       0.00000000       0.00000000      728        3        0        0        0
W       15.71667193       1.13062994      17.44241981      32.06000001       0.00000000       0.00000000       0.00000000      729        3        0        0        0
W        7.65856294       9.35623714      17.29003208      32.06000001       0.00000000       0.00000000       0.00000000      730        3        0        0        0
W       10.37471383       7.66950531      17.32016008      32.06000001       0.00000000       0.00000000       0.00000000      731        3        0        0        0
W       13.09059121       5.98949280      17.38071119      32.06000001       0.00000000       0.00000000       0.00000000      732        3        0        0        0
W       15.80724516       4.31894407      17.46724185      32.06000001       0.00000000       0.00000000       0.00000000      733        3        0        0        0
W       18.52535788       2.65978386      17.57589184      32.06000001       0.00000000       0.00000000       0.00000000      734        3        0        0        0
W       21.24499363       1.01265778      17.70229406      32.06000001       0.00000000       0.00000000       0.00000000      735        3        0        0        0
W       10.45929848      10.86480842      17.42342790      32.06000001       0.00000000       0.00000000       0.00000000      736        3        0        0        0
W       13.17515281       9.18373075      17.46290136      32.06000001       0.00000000       0.00000000       0.00000000      737        3        0        0        0
W       15.89137724       7.51090772      17.52597385      32.06000001       0.00000000       0.00000000       0.00000000      738        3        0        0        0
W       18.60910998       5.84875134      17.60983814      32.06000001       0.00000000       0.00000000       0.00000000      739        3        0        0        0
W       21.32879006       4.19857506      17.71253647      32.06000001       0.00000000       0.00000000       0.00000000      740        3        0        0        0
W       24.05000612       2.56018703      17.83050471      32.06000001       0.00000000       0.00000000       0.00000000      741        3        0        0        0
W       26.77179530       0.93188745      17.95673745      32.06000001       0.00000000       0.00000000       0.00000000      742        3        0        0        0
W       10.53588127      14.06128928      17.55216388      32.06000001       0.00000000       0.00000000       0.00000000      743        3        0        0        0
W       13.25225011      12.38029461      17.57370539      32.06000001       0.00000000       0.00000000       0.00000000      744        3        0        0        0
W       15.96836458      10.70608993      17.61517261      32.06000001       0.00000000       0.00000000       0.00000000      745        3        0        0        0
W       18.68581415       9.04147340      17.67422249      32.06000001       0.00000000       0.00000000       0.00000000      746        3        0        0        0
W       21.40552008       7.38832434      17.75054065      32.06000001       0.00000000       0.00000000       0.00000000      747        3        0        0        0
W       24.12746194       5.74714258      17.84362178      32.06000001       0.00000000       0.00000000       0.00000000      748        3        0        0        0
W       26.85074448       4.11686781      17.94999385      32.06000001       0.00000000       0.00000000       0.00000000      749        3        0        0        0
W       29.57408396       2.49519506      18.06235006      32.06000001       0.00000000       0.00000000       0.00000000      750        3        0        0        0
W       32.29635875       0.87933385      18.17101552      32.06000001       0.00000000       0.00000000       0.00000000      751        3        0        0        0
W       13.32144450      15.57875822      17.70417326      32.06000001       0.00000000       0.00000000       0.00000000      752        3        0        0        0
W       16.03791106      13.90402137      17.72759239      32.06000001       0.00000000       0.00000000       0.00000000      753        3        0        0        0
W       18.75528571      12.23756373      17.76421678      32.06000001       0.00000000       0.00000000       0.00000000      754        3        0        0        0
W       21.47494905      10.58172343      17.81459337      32.06000001       0.00000000       0.00000000       0.00000000      755        3        0        0        0
W       24.19739885       8.93760362      17.88049942      32.06000001       0.00000000       0.00000000       0.00000000      756        3        0        0        0
W       26.92210563       7.30480122      17.96183489      32.06000001       0.00000000       0.00000000       0.00000000      757        3        0        0        0
W       29.64778784       5.68151690      18.05460548      32.06000001       0.00000000       0.00000000       0.00000000      758        3        0        0        0
W       32.37295617       4.06512969      18.15125913      32.06000001       0.00000000       0.00000000       0.00000000      759        3        0        0        0
W       35.09641770       2.45294825      18.24259448      32.06000001       0.00000000       0.00000000       0.00000000      760        3        0        0        0
W       37.81753242       0.84273335      18.31962943      32.06000001       0.00000000       0.00000000       0.00000000      761        3        0        0        0
W       13.38265557      18.77890297      17.84350765      32.06000001       0.00000000       0.00000000       0.00000000      762        3        0        0        0
W       16.09999412      17.10433227      17.85342872      32.06000001       0.00000000       0.00000000       0.00000000      763        3        0        0        0
W       18.81765467      15.43660955      17.87164127      32.06000001       0.00000000       0.00000000       0.00000000      764        3        0        0        0
W       21.53734196      13.77843622      17.89897549      32.06000001       0.00000000       0.00000000       0.00000000      765        3        0        0        0
W       24.26004210      12.13141962      17.93863082      32.06000001       0.00000000       0.00000000       0.00000000      766        3        0        0        0
W       26.98575166      10.49575167      17.99319719      32.06000001       0.00000000       0.00000000       0.00000000      767        3        0        0        0
W       29.71350921       8.87020244      18.06194509      32.06000001       0.00000000       0.00000000       0.00000000      768        3        0        0        0
W       32.44177845       7.25249413      18.14011965      32.06000001       0.00000000       0.00000000       0.00000000      769        3        0        0        0
W       35.16897727       5.63997178      18.22015675      32.06000001       0.00000000       0.00000000       0.00000000      770        3        0        0        0
W       37.89391149       4.03021320      18.29345423      32.06000001       0.00000000       0.00000000       0.00000000      771        3        0        0        0
W       40.61592466       2.42129800      18.35161545      32.06000001       0.00000000       0.00000000       0.00000000      772        3        0        0        0
W       43.33486402       0.81180219      18.38721466      32.06000001       0.00000000       0.00000000       0.00000000      773        3        0        0        0
W       16.15485613      20.30679539      17.98203252      32.06000001       0.00000000       0.00000000       0.00000000      774        3        0        0        0
W       18.87320748      18.63828326      17.98664497      32.06000001       0.00000000       0.00000000       0.00000000      775        3        0        0        0
W       21.59313663      16.97812410      17.99535453      32.06000001       0.00000000       0.00000000       0.00000000      776        3        0        0        0
W       24.31597614      15.32833923      18.01206938      32.06000001       0.00000000       0.00000000       0.00000000      777        3        0        0        0
W       27.04224034      13.68963852      18.04124835      32.06000001       0.00000000       0.00000000       0.00000000      778        3        0        0        0
W       29.77146185      12.06134048      18.08489725      32.06000001       0.00000000       0.00000000       0.00000000      779        3        0        0        0
W       32.50237459      10.44160210      18.14107369      32.06000001       0.00000000       0.00000000       0.00000000      780        3        0        0        0
W       35.23332115       8.82795848      18.20438260      32.06000001       0.00000000       0.00000000       0.00000000      781        3        0        0        0
W       37.96272457       7.21793956      18.26749727      32.06000001       0.00000000       0.00000000       0.00000000      782        3        0        0        0
W       40.68940567       5.60944740      18.32242859      32.06000001       0.00000000       0.00000000       0.00000000      783        3        0        0        0
W       43.41268039       4.00083915      18.36121984      32.06000001       0.00000000       0.00000000       0.00000000      784        3        0        0        0
W       46.13233009       2.39085989      18.37652069      32.06000001       0.00000000       0.00000000       0.00000000      785        3        0        0        0
W       48.84852418       0.77852604      18.36266527      32.06000001       0.00000000       0.00000000       0.00000000      786        3        0        0        0
W       16.20304077      23.51127445      18.10352288      32.06000001       0.00000000       0.00000000       0.00000000      787        3        0        0        0
W       18.92238723      21.84234258      18.09941412      32.06000001       0.00000000       0.00000000       0.00000000      788        3        0        0        0
W       21.64281343      20.18050610      18.09454335      32.06000001       0.00000000       0.00000000       0.00000000      789        3        0        0        0
W       24.36583425      18.52811988      18.09300458      32.06000001       0.00000000       0.00000000       0.00000000      790        3        0        0        0
W       27.09235234      16.88632906      18.10037569      32.06000001       0.00000000       0.00000000       0.00000000      791        3        0        0        0
W       29.82241557      15.25495294      18.12070180      32.06000001       0.00000000       0.00000000       0.00000000      792        3        0        0        0
W       32.55519842      13.63260470      18.15448390      32.06000001       0.00000000       0.00000000       0.00000000      793        3        0        0        0
W       35.28926433      12.01711306      18.19851955      32.06000001       0.00000000       0.00000000       0.00000000      794        3        0        0        0
W       38.02294819      10.40607944      18.24709533      32.06000001       0.00000000       0.00000000       0.00000000      795        3        0        0        0
W       40.75472787       8.79732084      18.29328354      32.06000001       0.00000000       0.00000000       0.00000000      796        3        0        0        0
W       43.48343691       7.18904626      18.32963741      32.06000001       0.00000000       0.00000000       0.00000000      797        3        0        0        0
W       46.20833677       5.57982467      18.34852393      32.06000001       0.00000000       0.00000000       0.00000000      798        3        0        0        0
W       48.92911530       3.96850362      18.34273511      32.06000001       0.00000000       0.00000000       0.00000000      799        3        0        0        0
W       51.64582562       2.35408482      18.30684013      32.06000001       0.00000000       0.00000000       0.00000000      800        3        0        0        0
W       54.35882155       0.73557165      18.23907974      32.06000001       0.00000000       0.00000000       0.00000000      801        3        0        0        0
W       18.96584743      25.04857491      18.20146528      32.06000001       0.00000000       0.00000000       0.00000000      802        3        0        0        0
W       21.68693417      23.38533592      18.18795997      32.06000001       0.00000000       0.00000000       0.00000000      803        3        0        0        0
W       24.41022490      21.73053432      18.17332422      32.06000001       0.00000000       0.00000000       0.00000000      804        3        0        0        0
W       27.13685574      20.08568065      18.16365992      32.06000001       0.00000000       0.00000000       0.00000000      805        3        0        0        0
W       29.86728583      18.45102836      18.16436781      32.06000001       0.00000000       0.00000000       0.00000000      806        3        0        0        0
W       32.60116435      16.82563466      18.17786728      32.06000001       0.00000000       0.00000000       0.00000000      807        3        0        0        0
W       35.33743621      15.20766844      18.20290438      32.06000001       0.00000000       0.00000000       0.00000000      808        3        0        0        0
W       38.07461807      13.59489827      18.23534884      32.06000001       0.00000000       0.00000000       0.00000000      809        3        0        0        0
W       40.81111304      11.98514763      18.26947756      32.06000001       0.00000000       0.00000000       0.00000000      810        3        0        0        0
W       43.54545893      10.37654131      18.29880145      32.06000001       0.00000000       0.00000000       0.00000000      811        3        0        0        0
W       46.27648032       8.76753163      18.31632686      32.06000001       0.00000000       0.00000000       0.00000000      812        3        0        0        0
W       49.00336300       7.15684102      18.31475738      32.06000001       0.00000000       0.00000000       0.00000000      813        3        0        0        0
W       51.72567316       5.54335216      18.28725305      32.06000001       0.00000000       0.00000000       0.00000000      814        3        0        0        0
W       54.44333895       3.92600855      18.22901187      32.06000001       0.00000000       0.00000000       0.00000000      815        3        0        0        0
W       57.15663327       2.30368159      18.13932237      32.06000001       0.00000000       0.00000000       0.00000000      816        3        0        0        0
W       59.86611476       0.67496779      18.02305929      32.06000001       0.00000000       0.00000000       0.00000000      817        3        0        0        0
W       19.00450510      28.25675202      18.28632488      32.06000001       0.00000000       0.00000000       0.00000000      818        3        0        0        0
W       21.72622841      26.59236661      18.26853577      32.06000001       0.00000000       0.00000000       0.00000000      819        3        0        0        0
W       24.44980232      24.93535256      18.24574712      32.06000001       0.00000000       0.00000000       0.00000000      820        3        0        0        0
W       27.17646813      23.28752905      18.22414524      32.06000001       0.00000000       0.00000000       0.00000000      821        3        0        0        0
W       29.90695327      21.64952098      18.20991869      32.06000001       0.00000000       0.00000000       0.00000000      822        3        0        0        0
W       32.64130408      20.02078676      18.20686508      32.06000001       0.00000000       0.00000000       0.00000000      823        3        0        0        0
W       35.37888004      18.39984863      18.21532209      32.06000001       0.00000000       0.00000000       0.00000000      824        3        0        0        0
W       38.11852539      16.78470557      18.23256214      32.06000001       0.00000000       0.00000000       0.00000000      825        3        0        0        0
W       40.85880324      15.17326390      18.25394955      32.06000001       0.00000000       0.00000000       0.00000000      826        3        0        0        0
W       43.59820789      13.56362945      18.27392473      32.06000001       0.00000000       0.00000000       0.00000000      827        3        0        0        0
W       46.33532213      11.95419362      18.28640833      32.06000001       0.00000000       0.00000000       0.00000000      828        3        0        0        0
W       49.06893746      10.34359498      18.28483923      32.06000001       0.00000000       0.00000000       0.00000000      829        3        0        0        0
W       51.79814219       8.73063764      18.26241273      32.06000001       0.00000000       0.00000000       0.00000000      830        3        0        0        0
W       54.52237147       7.11419372      18.21301571      32.06000001       0.00000000       0.00000000       0.00000000      831        3        0        0        0
W       57.24143659       5.49311771      18.13294552      32.06000001       0.00000000       0.00000000       0.00000000      832        3        0        0        0
W       59.95556143       3.86612573      18.02297107      32.06000001       0.00000000       0.00000000       0.00000000      833        3        0        0        0
W       62.66534425       2.23169844      17.88959112      32.06000001       0.00000000       0.00000000       0.00000000      834        3        0        0        0
W       65.37161964       0.58818648      17.74440996      32.06000001       0.00000000       0.00000000       0.00000000      835        3        0        0        0
W       21.76164898      29.80133354      18.33106115      32.06000001       0.00000000       0.00000000       0.00000000      836        3        0        0        0
W       24.48536883      28.14232998      18.30439923      32.06000001       0.00000000       0.00000000       0.00000000      837        3        0        0        0
W       27.21194250      26.49168005      18.27565832      32.06000001       0.00000000       0.00000000       0.00000000      838        3        0        0        0
W       29.94225454      24.85033219      18.25137797      32.06000001       0.00000000       0.00000000       0.00000000      839        3        0        0        0
W       32.67662327      23.21809423      18.23626404      32.06000001       0.00000000       0.00000000       0.00000000      840        3        0        0        0
W       35.41476079      21.59382664      18.23186815      32.06000001       0.00000000       0.00000000       0.00000000      841        3        0        0        0
W       38.15586419      19.97578647      18.23663245      32.06000001       0.00000000       0.00000000       0.00000000      842        3        0        0        0
W       40.89878217      18.36202771      18.24683872      32.06000001       0.00000000       0.00000000       0.00000000      843        3        0        0        0
W       43.64216605      16.75069826      18.25765505      32.06000001       0.00000000       0.00000000       0.00000000      844        3        0        0        0
W       46.38459352      15.14017614      18.26375224      32.06000001       0.00000000       0.00000000       0.00000000      845        3        0        0        0
W       49.12466863      13.52906223      18.25943598      32.06000001       0.00000000       0.00000000       0.00000000      846        3        0        0        0
W       51.86113189      11.91611294      18.23866765      32.06000001       0.00000000       0.00000000       0.00000000      847        3        0        0        0
W       54.59296346      10.30015899      18.19541825      32.06000001       0.00000000       0.00000000       0.00000000      848        3        0        0        0
W       57.31947587       8.68002731      18.12474288      32.06000001       0.00000000       0.00000000       0.00000000      849        3        0        0        0
W       60.04039291       7.05445345      18.02452629      32.06000001       0.00000000       0.00000000       0.00000000      850        3        0        0        0
W       62.75593118       5.42202235      17.89736664      32.06000001       0.00000000       0.00000000       0.00000000      851        3        0        0        0
W       65.46677834       3.78118054      17.75144515      32.06000001       0.00000000       0.00000000       0.00000000      852        3        0        0        0
W       68.17394595       2.13048633      17.59945609      32.06000001       0.00000000       0.00000000       0.00000000      853        3        0        0        0
W       70.87858956       0.46919724      17.45569666      32.06000001       0.00000000       0.00000000       0.00000000      854        3        0        0        0
W       21.79438576      33.01195400      18.37219032      32.06000001       0.00000000       0.00000000       0.00000000      855        3        0        0        0
W       24.51793316      31.35119228      18.34498174      32.06000001       0.00000000       0.00000000       0.00000000      856        3        0        0        0
W       27.24417751      29.69789615      18.31318959      32.06000001       0.00000000       0.00000000       0.00000000      857        3        0        0        0
W       29.97406930      28.05329217      18.28338013      32.06000001       0.00000000       0.00000000       0.00000000      858        3        0        0        0
W       32.70809909      26.41749966      18.26078983      32.06000001       0.00000000       0.00000000       0.00000000      859        3        0        0        0
W       35.44623012      24.78967907      18.24782953      32.06000001       0.00000000       0.00000000       0.00000000      860        3        0        0        0
W       38.18795789      23.16834685      18.24386940      32.06000001       0.00000000       0.00000000       0.00000000      861        3        0        0        0
W       40.93243118      21.55174303      18.24594674      32.06000001       0.00000000       0.00000000       0.00000000      862        3        0        0        0
W       43.67855612      19.93811310      18.24977388      32.06000001       0.00000000       0.00000000       0.00000000      863        3        0        0        0
W       46.42507426      18.32587179      18.25049819      32.06000001       0.00000000       0.00000000       0.00000000      864        3        0        0        0
W       49.17062584      16.71362251      18.24304007      32.06000001       0.00000000       0.00000000       0.00000000      865        3        0        0        0
W       51.91381629      15.10010718      18.22214809      32.06000001       0.00000000       0.00000000       0.00000000      866        3        0        0        0
W       54.65332537      13.48414369      18.18250688      32.06000001       0.00000000       0.00000000       0.00000000      867        3        0        0        0
W       57.38803520      11.86454552      18.11922932      32.06000001       0.00000000       0.00000000       0.00000000      868        3        0        0        0
W       60.11715824      10.24005544      18.02899074      32.06000001       0.00000000       0.00000000       0.00000000      869        3        0        0        0
W       62.84037083       8.60929172      17.91168475      32.06000001       0.00000000       0.00000000       0.00000000      870        3        0        0        0
W       65.55792398       6.97076269      17.77190061      32.06000001       0.00000000       0.00000000       0.00000000      871        3        0        0        0
W       68.27061265       5.32300025      17.61925683      32.06000001       0.00000000       0.00000000       0.00000000      872        3        0        0        0
W       70.97959812       3.66492618      17.46692145      32.06000001       0.00000000       0.00000000       0.00000000      873        3        0        0        0
W       73.68622787       1.99643986      17.32860758      32.06000001       0.00000000       0.00000000       0.00000000      874        3        0        0        0
W       76.39197995       0.31896527      17.21539173      32.06000001       0.00000000       0.00000000       0.00000000      875        3        0        0        0
W       24.54872730      34.56164880      18.36471280      32.06000001       0.00000000       0.00000000       0.00000000      876        3        0        0        0
W       27.27426137      32.90590121      18.33298869      32.06000001       0.00000000       0.00000000       0.00000000      877        3        0        0        0
W       30.00341204      31.25816791      18.30145063      32.06000001       0.00000000       0.00000000       0.00000000      878        3        0        0        0
W       32.73676063      29.61884002      18.27557785      32.06000001       0.00000000       0.00000000       0.00000000      879        3        0        0        0
W       35.47443262      27.98734997      18.25834341      32.06000001       0.00000000       0.00000000       0.00000000      880        3        0        0        0
W       38.21613663      26.36245522      18.24979241      32.06000001       0.00000000       0.00000000       0.00000000      881        3        0        0        0
W       40.96126806      24.74258917      18.24755693      32.06000001       0.00000000       0.00000000       0.00000000      882        3        0        0        0
W       43.70899072      23.12613729      18.24776089      32.06000001       0.00000000       0.00000000       0.00000000      883        3        0        0        0
W       46.45828107      21.51159526      18.24583356      32.06000001       0.00000000       0.00000000       0.00000000      884        3        0        0        0
W       49.20795277      19.89761157      18.23700481      32.06000001       0.00000000       0.00000000       0.00000000      885        3        0        0        0
W       51.95668300      18.28295061      18.21650535      32.06000001       0.00000000       0.00000000       0.00000000      886        3        0        0        0
W       54.70306997      16.66644156      18.17967633      32.06000001       0.00000000       0.00000000       0.00000000      887        3        0        0        0
W       57.44574307      15.04690452      18.12220430      32.06000001       0.00000000       0.00000000       0.00000000      888        3        0        0        0
W       60.18350515      13.42308970      18.04071785      32.06000001       0.00000000       0.00000000       0.00000000      889        3        0        0        0
W       62.91550532      11.79363686      17.93391008      32.06000001       0.00000000       0.00000000       0.00000000      890        3        0        0        0
W       65.64141316      10.15708322      17.80388542      32.06000001       0.00000000       0.00000000       0.00000000      891        3        0        0        0
W       68.36152321       8.51195657      17.65707320      32.06000001       0.00000000       0.00000000       0.00000000      892        3        0        0        0
W       71.07670890       6.85702417      17.50396879      32.06000001       0.00000000       0.00000000       0.00000000      893        3        0        0        0
W       73.78823311       5.19171357      17.35738060      32.06000001       0.00000000       0.00000000       0.00000000      894        3        0        0        0
W       76.49755070       3.51660655      17.22965088      32.06000001       0.00000000       0.00000000       0.00000000      895        3        0        0        0
W       79.20615006       1.83368693      17.13038997      32.06000001       0.00000000       0.00000000       0.00000000      896        3        0        0        0
W       81.91539095       0.14582504      17.06631778      32.06000001       0.00000000       0.00000000       0.00000000      897        3        0        0        0
W       24.57917422      37.77340037      18.36214370      32.06000001       0.00000000       0.00000000       0.00000000      898        3        0        0        0
W       27.30348210      36.11539631      18.33250821      32.06000001       0.00000000       0.00000000       0.00000000      899        3        0        0        0
W       30.03146181      34.46466990      18.30207877      32.06000001       0.00000000       0.00000000       0.00000000      900        3        0        0        0
W       32.76374946      32.82186226      18.27640870      32.06000001       0.00000000       0.00000000       0.00000000      901        3        0        0        0
W       35.50055848      31.18664965      18.25879666      32.06000001       0.00000000       0.00000000       0.00000000      902        3        0        0        0
W       38.24172817      29.55801196      18.24971731      32.06000001       0.00000000       0.00000000       0.00000000      903        3        0        0        0
W       40.98682334      27.93457002      18.24720847      32.06000001       0.00000000       0.00000000       0.00000000      904        3        0        0        0
W       43.73521417      26.31486354      18.24768093      32.06000001       0.00000000       0.00000000       0.00000000      905        3        0        0        0
W       46.48610123      24.69750512      18.24672325      32.06000001       0.00000000       0.00000000       0.00000000      906        3        0        0        0
W       49.23851601      23.08122807      18.23968199      32.06000001       0.00000000       0.00000000       0.00000000      907        3        0        0        0
W       51.99131646      21.46485541      18.22197878      32.06000001       0.00000000       0.00000000       0.00000000      908        3        0        0        0
W       54.74320302      19.84725388      18.18929788      32.06000001       0.00000000       0.00000000       0.00000000      909        3        0        0        0
W       57.49276990      18.22727169      18.13779713      32.06000001       0.00000000       0.00000000       0.00000000      910        3        0        0        0
W       60.23861400      16.60368105      18.06445376      32.06000001       0.00000000       0.00000000       0.00000000      911        3        0        0        0
W       62.97949651      14.97513856      17.96772513      32.06000001       0.00000000       0.00000000       0.00000000      912        3        0        0        0
W       65.71454378      13.34019634      17.84850419      32.06000001       0.00000000       0.00000000       0.00000000      913        3        0        0        0
W       68.44342795      11.69737718      17.71099584      32.06000001       0.00000000       0.00000000       0.00000000      914        3        0        0        0
W       71.16647105      10.04536674      17.56298915      32.06000001       0.00000000       0.00000000       0.00000000      915        3        0        0        0
W       73.88457863       8.38332906      17.41511668      32.06000001       0.00000000       0.00000000       0.00000000      916        3        0        0        0
W       76.59905685       6.71127685      17.27910322      32.06000001       0.00000000       0.00000000       0.00000000      917        3        0        0        0
W       79.31136944       5.03040991      17.16564338      32.06000001       0.00000000       0.00000000       0.00000000      918        3        0        0        0
W       82.02290501       3.34304826      17.08325721      32.06000001       0.00000000       0.00000000       0.00000000      919        3        0        0        0
W       -0.88376396       1.65208411      17.03836598      32.06000001       0.00000000       0.00000000       0.00000000      920        3        0        0        0
W       27.33331776      39.32606207      18.31032430      32.06000001       0.00000000       0.00000000       0.00000000      921        3        0        0        0
W       30.05959172      37.67246028      18.28274352      32.06000001       0.00000000       0.00000000       0.00000000      922        3        0        0        0
W       32.79036404      36.02622936      18.25982871      32.06000001       0.00000000       0.00000000       0.00000000      923        3        0        0        0
W       35.52589560      34.38726754      18.24505554      32.06000001       0.00000000       0.00000000       0.00000000      924        3        0        0        0
W       38.26609218      32.75475509      18.23912449      32.06000001       0.00000000       0.00000000       0.00000000      925        3        0        0        0
W       41.01061356      31.12749048      18.24025329      32.06000001       0.00000000       0.00000000       0.00000000      926        3        0        0        0
W       43.75896617      29.50417174      18.24496510      32.06000001       0.00000000       0.00000000       0.00000000      927        3        0        0        0
W       46.51052161      27.88355078      18.24888745      32.06000001       0.00000000       0.00000000       0.00000000      928        3        0        0        0
W       49.26450222      26.26447202      18.24736665      32.06000001       0.00000000       0.00000000       0.00000000      929        3        0        0        0
W       52.01996867      24.64585012      18.23585553      32.06000001       0.00000000       0.00000000       0.00000000      930        3        0        0        0
W       54.77580294      23.02661510      18.21014452      32.06000001       0.00000000       0.00000000       0.00000000      931        3        0        0        0
W       57.53072145      21.40566295      18.16659191      32.06000001       0.00000000       0.00000000       0.00000000      932        3        0        0        0
W       60.28332593      19.78180698      18.10240824      32.06000001       0.00000000       0.00000000       0.00000000      933        3        0        0        0
W       63.03221291      18.15373634      18.01609676      32.06000001       0.00000000       0.00000000       0.00000000      934        3        0        0        0
W       65.77614211      16.52001543      17.90807239      32.06000001       0.00000000       0.00000000       0.00000000      935        3        0        0        0
W       68.51423973      14.87915645      17.78130582      32.06000001       0.00000000       0.00000000       0.00000000      936        3        0        0        0
W       71.24618370      13.22978672      17.64166059      32.06000001       0.00000000       0.00000000       0.00000000      937        3        0        0        0
W       73.97229055      11.57091575      17.49761733      32.06000001       0.00000000       0.00000000       0.00000000      938        3        0        0        0
W       76.69344977       9.90220965      17.35931330      32.06000001       0.00000000       0.00000000       0.00000000      939        3        0        0        0
W       79.41094574       8.22426925      17.23711441      32.06000001       0.00000000       0.00000000       0.00000000      940        3        0        0        0
W       -3.49245597       6.53875533      17.14036618      32.06000001       0.00000000       0.00000000       0.00000000      941        3        0        0        0
W       -0.77827995       4.84815799      17.07689731      32.06000001       0.00000000       0.00000000       0.00000000      942        3        0        0        0
W        1.93588067       3.15544744      17.05254065      32.06000001       0.00000000       0.00000000       0.00000000      943        3        0        0        0
W       27.36539390      42.53756985      18.26612187      32.06000001       0.00000000       0.00000000       0.00000000      944        3        0        0        0
W       30.08935668      40.88117368      18.24197014      32.06000001       0.00000000       0.00000000       0.00000000      945        3        0        0        0
W       32.81807910      39.23153658      18.22327531      32.06000001       0.00000000       0.00000000       0.00000000      946        3        0        0        0
W       35.55187613      37.58878030      18.21365451      32.06000001       0.00000000       0.00000000       0.00000000      947        3        0        0        0
W       38.29067757      35.95226874      18.21388902      32.06000001       0.00000000       0.00000000       0.00000000      948        3        0        0        0
W       41.03417807      34.32096669      18.22216790      32.06000001       0.00000000       0.00000000       0.00000000      949        3        0        0        0
W       43.78194988      32.69372768      18.23489059      32.06000001       0.00000000       0.00000000       0.00000000      950        3        0        0        0
W       46.53347487      31.06945248      18.24753163      32.06000001       0.00000000       0.00000000       0.00000000      951        3        0        0        0
W       49.28811669      29.44712136      18.25531006      32.06000001       0.00000000       0.00000000       0.00000000      952        3        0        0        0
W       52.04509729      27.82575817      18.25360865      32.06000001       0.00000000       0.00000000       0.00000000      953        3        0        0        0
W       54.80347901      26.20437827      18.23821891      32.06000001       0.00000000       0.00000000       0.00000000      954        3        0        0        0
W       57.56215211      24.58194255      18.20555123      32.06000001       0.00000000       0.00000000       0.00000000      955        3        0        0        0
W       60.31985126      22.95731629      18.15286947      32.06000001       0.00000000       0.00000000       0.00000000      956        3        0        0        0
W       63.07520686      21.32923791      18.07863635      32.06000001       0.00000000       0.00000000       0.00000000      957        3        0        0        0
W       65.82684589      19.69630861      17.98297205      32.06000001       0.00000000       0.00000000       0.00000000      958        3        0        0        0
W       68.57355771      18.05704520      17.86810397      32.06000001       0.00000000       0.00000000       0.00000000      959        3        0        0        0
W       71.31448901      16.41002844      17.73866325      32.06000001       0.00000000       0.00000000       0.00000000      960        3        0        0        0
W       74.04931995      14.75414575      17.60154748      32.06000001       0.00000000       0.00000000       0.00000000      961        3        0        0        0
W       76.77833055      13.08884511      17.46533915      32.06000001       0.00000000       0.00000000       0.00000000      962        3        0        0        0
W       -6.11625590      11.41433189      17.33941446      32.06000001       0.00000000       0.00000000       0.00000000      963        3        0        0        0
W       -3.39601839       9.73170053      17.23301788      32.06000001       0.00000000       0.00000000       0.00000000      964        3        0        0        0
W       -0.67833660       8.04290085      17.15460709      32.06000001       0.00000000       0.00000000       0.00000000      965        3        0        0        0
W        2.03788157       6.35056547      17.11123989      32.06000001       0.00000000       0.00000000       0.00000000      966        3        0        0        0
W       30.12246774      44.09042611      18.17949281      32.06000001       0.00000000       0.00000000       0.00000000      967        3        0        0        0
W       32.84855258      42.43734050      18.16529325      32.06000001       0.00000000       0.00000000       0.00000000      968        3        0        0        0
W       35.58009986      40.79068535      18.16202288      32.06000001       0.00000000       0.00000000       0.00000000      969        3        0        0        0
W       38.31705824      39.15001649      18.17051232      32.06000001       0.00000000       0.00000000       0.00000000      970        3        0        0        0
W       41.05911659      37.51445715      18.18875650      32.06000001       0.00000000       0.00000000       0.00000000      971        3        0        0        0
W       43.80585662      35.88301454      18.21279425      32.06000001       0.00000000       0.00000000       0.00000000      972        3        0        0        0
W       46.55680579      34.25474035      18.23768839      32.06000001       0.00000000       0.00000000       0.00000000      973        3        0        0        0
W       49.31142171      32.62876067      18.25831485      32.06000001       0.00000000       0.00000000       0.00000000      974        3        0        0        0
W       52.06903918      31.00422436      18.26984510      32.06000001       0.00000000       0.00000000       0.00000000      975        3        0        0        0
W       54.82885817      29.38024629      18.26800246      32.06000001       0.00000000       0.00000000       0.00000000      976        3        0        0        0
W       57.58992017      27.75586172      18.24920770      32.06000001       0.00000000       0.00000000       0.00000000      977        3        0        0        0
W       60.35111569      26.12999648      18.21073512      32.06000001       0.00000000       0.00000000       0.00000000      978        3        0        0        0
W       63.11120430      24.50144193      18.15095293      32.06000001       0.00000000       0.00000000       0.00000000      979        3        0        0        0
W       65.86886277      22.86885145      18.06966546      32.06000001       0.00000000       0.00000000       0.00000000      980        3        0        0        0
W       68.62277495      21.23078334      17.96847792      32.06000001       0.00000000       0.00000000       0.00000000      981        3        0        0        0
W       71.37178617      19.58581458      17.85107115      32.06000001       0.00000000       0.00000000       0.00000000      982        3        0        0        0
W       74.11508396      17.93274060      17.72317668      32.06000001       0.00000000       0.00000000       0.00000000      983        3        0        0        0
W       -8.76626623      16.27082428      17.59217777      32.06000001       0.00000000       0.00000000       0.00000000      984        3        0        0        0
W       -6.03479661      14.59999729      17.46646840      32.06000001       0.00000000       0.00000000       0.00000000      985        3        0        0        0
W       -3.30837508      12.92094451      17.35480099      32.06000001       0.00000000       0.00000000       0.00000000      986        3        0        0        0
W       -0.58598306      11.23510848      17.26570193      32.06000001       0.00000000       0.00000000       0.00000000      987        3        0        0        0
W        2.13343042       9.54465098      17.20681470      32.06000001       0.00000000       0.00000000       0.00000000      988        3        0        0        0
W        4.85083363       7.85239265      17.18374530      32.06000001       0.00000000       0.00000000       0.00000000      989        3        0        0        0
W       30.16073274      47.29983092      18.09650625      32.06000001       0.00000000       0.00000000       0.00000000      990        3        0        0        0
W       32.88359939      45.64319088      18.08584549      32.06000001       0.00000000       0.00000000       0.00000000      991        3        0        0        0
W       35.61233580      43.99245137      18.08881514      32.06000001       0.00000000       0.00000000       0.00000000      992        3        0        0        0
W       38.34695240      42.34739814      18.10640575      32.06000001       0.00000000       0.00000000       0.00000000      993        3        0        0        0
W       41.08711888      40.70732856      18.13637573      32.06000001       0.00000000       0.00000000       0.00000000      994        3        0        0        0
W       43.83238684      39.07140456      18.17420881      32.06000001       0.00000000       0.00000000       0.00000000      995        3        0        0        0
W       46.58228382      37.43882617      18.21429180      32.06000001       0.00000000       0.00000000       0.00000000      996        3        0        0        0
W       49.33630878      35.80886214      18.25087569      32.06000001       0.00000000       0.00000000       0.00000000      997        3        0        0        0
W       52.09387494      34.18079980      18.27869049      32.06000001       0.00000000       0.00000000       0.00000000      998        3        0        0        0
W       54.85427029      32.55385785      18.29323978      32.06000001       0.00000000       0.00000000       0.00000000      999        3        0        0        0
W       57.61665005      30.92715283      18.29090268      32.06000001       0.00000000       0.00000000       0.00000000     1000        3        0        0        0
W       60.38002545      29.29966899      18.26899036      32.06000001       0.00000000       0.00000000       0.00000000     1001        3        0        0        0
W       63.14328501      27.67024949      18.22583981      32.06000001       0.00000000       0.00000000       0.00000000     1002        3        0        0        0
W       65.90521780      26.03760552      18.16101787      32.06000001       0.00000000       0.00000000       0.00000000     1003        3        0        0        0
W       68.66456056      24.40035367      18.07560032      32.06000001       0.00000000       0.00000000       0.00000000     1004        3        0        0        0
W       71.42007511      22.75710537      17.97241896      32.06000001       0.00000000       0.00000000       0.00000000     1005        3        0        0        0
W      -11.44792808      21.10662934      17.85617085      32.06000001       0.00000000       0.00000000       0.00000000     1006        3        0        0        0
W       -8.70297249      19.44805390      17.73322669      32.06000001       0.00000000       0.00000000       0.00000000     1007        3        0        0        0
W       -5.96397858      17.78107568      17.61116077      32.06000001       0.00000000       0.00000000       0.00000000     1008        3        0        0        0
W       -3.23076397      16.10605576      17.49820784      32.06000001       0.00000000       0.00000000       0.00000000     1009        3        0        0        0
W       -0.50274364      14.42403498      17.40273695      32.06000001       0.00000000       0.00000000       0.00000000     1010        3        0        0        0
W        2.22087502      12.73670602      17.33258535      32.06000001       0.00000000       0.00000000       0.00000000     1011        3        0        0        0
W        4.94098328      11.04643476      17.29395962      32.06000001       0.00000000       0.00000000       0.00000000     1012        3        0        0        0
W       32.92511217      48.84867539      17.98664758      32.06000001       0.00000000       0.00000000       0.00000000     1013        3        0        0        0
W       35.65048220      47.19359685      17.99434094      32.06000001       0.00000000       0.00000000       0.00000000     1014        3        0        0        0
W       38.38220497      45.54385502      18.02032495      32.06000001       0.00000000       0.00000000       0.00000000     1015        3        0        0        0
W       41.11996066      43.89897116      18.06228111      32.06000001       0.00000000       0.00000000       0.00000000     1016        3        0        0        0
W       43.86326117      42.25827766      18.11510186      32.06000001       0.00000000       0.00000000       0.00000000     1017        3        0        0        0
W       46.61160697      40.62112048      18.17229401      32.06000001       0.00000000       0.00000000       0.00000000     1018        3        0        0        0
W       49.36450116      38.98691091      18.22720246      32.06000001       0.00000000       0.00000000       0.00000000     1019        3        0        0        0
W       52.12140100      37.35506421      18.27381511      32.06000001       0.00000000       0.00000000       0.00000000     1020        3        0        0        0
W       54.88165614      35.72490529      18.30716039      32.06000001       0.00000000       0.00000000       0.00000000     1021        3        0        0        0
W       57.64448917      34.09563116      18.32341695      32.06000001       0.00000000       0.00000000       0.00000000     1022        3        0        0        0
W       60.40899654      32.46628341      18.31988789      32.06000001       0.00000000       0.00000000       0.00000000     1023        3        0        0        0
W       63.17415695      30.83575100      18.29495955      32.06000001       0.00000000       0.00000000       0.00000000     1024        3        0        0        0
W       65.93886078      29.20279380      18.24812314      32.06000001       0.00000000       0.00000000       0.00000000     1025        3        0        0        0
W       68.70193289      27.56608713      18.18012708      32.06000001       0.00000000       0.00000000       0.00000000     1026        3        0        0        0
W      -14.15643547      25.92429434      18.09316721      32.06000001       0.00000000       0.00000000       0.00000000     1027        3        0        0        0
W      -11.40015850      24.27620280      17.99103215      32.06000001       0.00000000       0.00000000       0.00000000     1028        3        0        0        0
W       -8.64882634      22.62087960      17.87911952      32.06000001       0.00000000       0.00000000       0.00000000     1029        3        0        0        0
W       -5.90311755      20.95783937      17.76420887      32.06000001       0.00000000       0.00000000       0.00000000     1030        3        0        0        0
W       -3.16333543      19.28717060      17.65402303      32.06000001       0.00000000       0.00000000       0.00000000     1031        3        0        0        0
W       -0.42940743      17.60956773      17.55668545      32.06000001       0.00000000       0.00000000       0.00000000     1032        3        0        0        0
W        2.29904463      15.92631070      17.48000842      32.06000001       0.00000000       0.00000000       0.00000000     1033        3        0        0        0
W        5.02264505      14.23930082      17.43041348      32.06000001       0.00000000       0.00000000       0.00000000     1034        3        0        0        0
W        7.74230679      12.55109861      17.41155953      32.06000001       0.00000000       0.00000000       0.00000000     1035        3        0        0        0
W       32.97488758      52.05347888      17.87141648      32.06000001       0.00000000       0.00000000       0.00000000     1036        3        0        0        0
W       35.69643768      50.39378899      17.88097080      32.06000001       0.00000000       0.00000000       0.00000000     1037        3        0        0        0
W       38.42470301      48.73900382      17.91292822      32.06000001       0.00000000       0.00000000       0.00000000     1038        3        0        0        0
W       41.15945769      47.08894819      17.96523531      32.06000001       0.00000000       0.00000000       0.00000000     1039        3        0        0        0
W       43.90020043      45.44317386      18.03242055      32.06000001       0.00000000       0.00000000       0.00000000     1040        3        0        0        0
W       46.64640383      43.80119030      18.10710574      32.06000001       0.00000000       0.00000000       0.00000000     1041        3        0        0        0
W       49.39756299      42.16253971      18.18152329      32.06000001       0.00000000       0.00000000       0.00000000     1042        3        0        0        0
W       52.15315531      40.52674880      18.24862037      32.06000001       0.00000000       0.00000000       0.00000000     1043        3        0        0        0
W       54.91257513      38.89324158      18.30262727      32.06000001       0.00000000       0.00000000       0.00000000     1044        3        0        0        0
W       57.67508743      37.26128777      18.33923641      32.06000001       0.00000000       0.00000000       0.00000000     1045        3        0        0        0
W       60.43983426      35.62997994      18.35556459      32.06000001       0.00000000       0.00000000       0.00000000     1046        3        0        0        0
W       63.20585122      33.99824767      18.34999941      32.06000001       0.00000000       0.00000000       0.00000000     1047        3        0        0        0
W       65.97209194      32.36488761      18.32207906      32.06000001       0.00000000       0.00000000       0.00000000     1048        3        0        0        0
W      -16.88115954      30.72862100      18.27246066      32.06000001       0.00000000       0.00000000       0.00000000     1049        3        0        0        0
W      -14.11780440      29.08816363      18.20300586      32.06000001       0.00000000       0.00000000       0.00000000     1050        3        0        0        0
W      -11.35757372      27.44233150      18.11689191      32.06000001       0.00000000       0.00000000       0.00000000     1051        3        0        0        0
W       -8.60150604      25.79017454      18.01870843      32.06000001       0.00000000       0.00000000       0.00000000     1052        3        0        0        0
W       -5.85047517      24.13110027      17.91443556      32.06000001       0.00000000       0.00000000       0.00000000     1053        3        0        0        0
W       -3.10511041      22.46498293      17.81119836      32.06000001       0.00000000       0.00000000       0.00000000     1054        3        0        0        0
W       -0.36576093      20.79221414      17.71675254      32.06000001       0.00000000       0.00000000       0.00000000     1055        3        0        0        0
W        2.36751909      19.11370000      17.63869071      32.06000001       0.00000000       0.00000000       0.00000000     1056        3        0        0        0
W        5.09499990      17.43089700      17.58333441      32.06000001       0.00000000       0.00000000       0.00000000     1057        3        0        0        0
W        7.81737482      15.74586943      17.55441719      32.06000001       0.00000000       0.00000000       0.00000000     1058        3        0        0        0
W       35.75187340      53.59293603      17.75337590      32.06000001       0.00000000       0.00000000       0.00000000     1059        3        0        0        0
W       38.47620989      51.93276994      17.78733270      32.06000001       0.00000000       0.00000000       0.00000000     1060        3        0        0        0
W       41.20735097      50.27716297      17.84635733      32.06000001       0.00000000       0.00000000       0.00000000     1061        3        0        0        0
W       43.94486215      48.62596964      17.92511033      32.06000001       0.00000000       0.00000000       0.00000000     1062        3        0        0        0
W       46.68821613      46.97890818      18.01562824      32.06000001       0.00000000       0.00000000       0.00000000     1063        3        0        0        0
W       49.43691585      45.33565899      18.10905928      32.06000001       0.00000000       0.00000000       0.00000000     1064        3        0        0        0
W       52.19046077      43.69584487      18.19708718      32.06000001       0.00000000       0.00000000       0.00000000     1065        3        0        0        0
W       54.94827526      42.05896396      18.27281412      32.06000001       0.00000000       0.00000000       0.00000000     1066        3        0        0        0
W       57.70966342      40.42434302      18.33109515      32.06000001       0.00000000       0.00000000       0.00000000     1067        3        0        0        0
W       60.47379741      38.79111356      18.36855082      32.06000001       0.00000000       0.00000000       0.00000000     1068        3        0        0        0
W       63.23973435      37.15823766      18.38336957      32.06000001       0.00000000       0.00000000       0.00000000     1069        3        0        0        0
W      -19.61215773      35.52454124      18.37508544      32.06000001       0.00000000       0.00000000       0.00000000     1070        3        0        0        0
W      -16.84570952      33.88877432      18.34440753      32.06000001       0.00000000       0.00000000       0.00000000     1071        3        0        0        0
W      -14.08062039      32.24969254      18.29313268      32.06000001       0.00000000       0.00000000       0.00000000     1072        3        0        0        0
W      -11.31796728      30.60614037      18.22417545      32.06000001       0.00000000       0.00000000       0.00000000     1073        3        0        0        0
W       -8.55878192      28.95716073      18.14164436      32.06000001       0.00000000       0.00000000       0.00000000     1074        3        0        0        0
W       -5.80401130      27.30209274      18.05089472      32.06000001       0.00000000       0.00000000       0.00000000     1075        3        0        0        0
W       -3.05445739      25.64065206      17.95841731      32.06000001       0.00000000       0.00000000       0.00000000     1076        3        0        0        0
W       -0.31073364      23.97297896      17.87143805      32.06000001       0.00000000       0.00000000       0.00000000     1077        3        0        0        0
W        2.42677252      22.29963974      17.79711300      32.06000001       0.00000000       0.00000000       0.00000000     1078        3        0        0        0
W        5.15800452      20.62166031      17.74138206      32.06000001       0.00000000       0.00000000       0.00000000     1079        3        0        0        0
W        7.88338029      18.94060997      17.70770893      32.06000001       0.00000000       0.00000000       0.00000000     1080        3        0        0        0
W       10.60395573      17.25869535      17.69624764      32.06000001       0.00000000       0.00000000       0.00000000     1081        3        0        0        0
W       35.81793644      56.79121587      17.61835129      32.06000001       0.00000000       0.00000000       0.00000000     1082        3        0        0        0
W       38.53811155      55.12546080      17.64936630      32.06000001       0.00000000       0.00000000       0.00000000     1083        3        0        0        0
W       41.26513188      53.46397860      17.70988516      32.06000001       0.00000000       0.00000000       0.00000000     1084        3        0        0        0
W       43.99873375      51.80702369      17.79533827      32.06000001       0.00000000       0.00000000       0.00000000     1085        3        0        0        0
W       46.73846229      50.15460327      17.89779645      32.06000001       0.00000000       0.00000000       0.00000000     1086        3        0        0        0
W       49.48385929      48.50658151      18.00766965      32.06000001       0.00000000       0.00000000       0.00000000     1087        3        0        0        0
W       52.23447243      46.86268194      18.11539881      32.06000001       0.00000000       0.00000000       0.00000000     1088        3        0        0        0
W       54.98978042      45.22246076      18.21271415      32.06000001       0.00000000       0.00000000       0.00000000     1089        3        0        0        0
W       57.74912960      43.58526808      18.29327384      32.06000001       0.00000000       0.00000000       0.00000000     1090        3        0        0        0
W       60.51172247      41.95025442      18.35282056      32.06000001       0.00000000       0.00000000       0.00000000     1091        3        0        0        0
W      -22.34197973      40.31639621      18.38902922      32.06000001       0.00000000       0.00000000       0.00000000     1092        3        0        0        0
W      -19.57576115      38.68253682      18.40121579      32.06000001       0.00000000       0.00000000       0.00000000     1093        3        0        0        0
W      -16.80929199      37.04744588      18.39008304      32.06000001       0.00000000       0.00000000       0.00000000     1094        3        0        0        0
W      -14.04363827      35.40990315      18.35749249      32.06000001       0.00000000       0.00000000       0.00000000     1095        3        0        0        0
W      -11.27986136      33.76877616      18.30635864      32.06000001       0.00000000       0.00000000       0.00000000     1096        3        0        0        0
W       -8.51898090      32.12309847      18.24063608      32.06000001       0.00000000       0.00000000       0.00000000     1097        3        0        0        0
W       -5.76195428      30.47214625      18.16534018      32.06000001       0.00000000       0.00000000       0.00000000     1098        3        0        0        0
W       -3.00965727      28.81550451      18.08646484      32.06000001       0.00000000       0.00000000       0.00000000     1099        3        0        0        0
W       -0.26283562      27.15309208      18.01064983      32.06000001       0.00000000       0.00000000       0.00000000     1100        3        0        0        0
W        2.47794041      25.48516254      17.94444945      32.06000001       0.00000000       0.00000000       0.00000000     1101        3        0        0        0
W        5.21237624      23.81233607      17.89321822      32.06000001       0.00000000       0.00000000       0.00000000     1102        3        0        0        0
W        7.94063987      22.13572025      17.85990592      32.06000001       0.00000000       0.00000000       0.00000000     1103        3        0        0        0
W       10.66355182      20.45707432      17.84432632      32.06000001       0.00000000       0.00000000       0.00000000     1104        3        0        0        0
W       38.61113279      58.31772724      17.50726317      32.06000001       0.00000000       0.00000000       0.00000000     1105        3        0        0        0
W       41.33381053      56.65022263      17.56338484      32.06000001       0.00000000       0.00000000       0.00000000     1106        3        0        0        0
W       44.06298431      54.98723575      17.64933580      32.06000001       0.00000000       0.00000000       0.00000000     1107        3        0        0        0
W       46.79835366      53.32916135      17.75799261      32.06000001       0.00000000       0.00000000       0.00000000     1108        3        0        0        0
W       49.53956070      51.67613330      17.87969397      32.06000001       0.00000000       0.00000000       0.00000000     1109        3        0        0        0
W       52.28624708      50.02803091      18.00398375      32.06000001       0.00000000       0.00000000       0.00000000     1110        3        0        0        0
W       55.03799144      48.38447047      18.12119316      32.06000001       0.00000000       0.00000000       0.00000000     1111        3        0        0        0
W       57.79422923      46.74481027      18.22351458      32.06000001       0.00000000       0.00000000       0.00000000     1112        3        0        0        0
W      -25.06439654      45.10818397      18.30544545      32.06000001       0.00000000       0.00000000       0.00000000     1113        3        0        0        0
W      -22.30155132      43.47355023      18.36377771      32.06000001       0.00000000       0.00000000       0.00000000     1114        3        0        0        0
W      -19.53685914      41.83974758      18.39730668      32.06000001       0.00000000       0.00000000       0.00000000     1115        3        0        0        0
W      -16.77138743      40.20555979      18.40650606      32.06000001       0.00000000       0.00000000       0.00000000     1116        3        0        0        0
W      -14.00621947      38.56977974      18.39322764      32.06000001       0.00000000       0.00000000       0.00000000     1117        3        0        0        0
W      -11.24242110      36.93128558      18.36046746      32.06000001       0.00000000       0.00000000       0.00000000     1118        3        0        0        0
W       -8.48102413      35.28909337      18.31222733      32.06000001       0.00000000       0.00000000       0.00000000     1119        3        0        0        0
W       -5.72299358      33.64241634      18.25343280      32.06000001       0.00000000       0.00000000       0.00000000     1120        3        0        0        0
W       -2.96922536      31.99070599      18.18980177      32.06000001       0.00000000       0.00000000       0.00000000     1121        3        0        0        0
W       -0.22051636      30.33366270      18.12750189      32.06000001       0.00000000       0.00000000       0.00000000     1122        3        0        0        0
W        2.52247991      28.67124090      18.07248219      32.06000001       0.00000000       0.00000000       0.00000000     1123        3        0        0        0
W        5.25934668      27.00369433      18.02943711      32.06000001       0.00000000       0.00000000       0.00000000     1124        3        0        0        0
W        7.99007098      25.33171227      18.00069303      32.06000001       0.00000000       0.00000000       0.00000000     1125        3        0        0        0
W       10.71525952      23.65665030      17.98556872      32.06000001       0.00000000       0.00000000       0.00000000     1126        3        0        0        0
W       13.43622804      21.98068950      17.98076671      32.06000001       0.00000000       0.00000000       0.00000000     1127        3        0        0        0
W       38.69513824      61.51039632      17.37078101      32.06000001       0.00000000       0.00000000       0.00000000     1128        3        0        0        0
W       41.41367110      59.83699963      17.41706853      32.06000001       0.00000000       0.00000000       0.00000000     1129        3        0        0        0
W       44.13825387      58.16789998      17.49718867      32.06000001       0.00000000       0.00000000       0.00000000     1130        3        0        0        0
W       46.86877429      56.50394446      17.60544547      32.06000001       0.00000000       0.00000000       0.00000000     1131        3        0        0        0
W       49.60502954      54.84564149      17.73291921      32.06000001       0.00000000       0.00000000       0.00000000     1132        3        0        0        0
W       52.34680942      53.19313068      17.86890588      32.06000001       0.00000000       0.00000000       0.00000000     1133        3        0        0        0
W       55.09385462      51.54614168      18.00262939      32.06000001       0.00000000       0.00000000       0.00000000     1134        3        0        0        0
W      -27.77285030      49.90404268      18.12474146      32.06000001       0.00000000       0.00000000       0.00000000     1135        3        0        0        0
W      -25.01669054      48.26592499      18.22822346      32.06000001       0.00000000       0.00000000       0.00000000     1136        3        0        0        0
W      -22.25710480      46.63069263      18.30864217      32.06000001       0.00000000       0.00000000       0.00000000     1137        3        0        0        0
W      -19.49507027      44.99715019      18.36395129      32.06000001       0.00000000       0.00000000       0.00000000     1138        3        0        0        0
W      -16.73165989      43.36407138      18.39411514      32.06000001       0.00000000       0.00000000       0.00000000     1139        3        0        0        0
W      -13.96798648      41.73025479      18.40075754      32.06000001       0.00000000       0.00000000       0.00000000     1140        3        0        0        0
W      -11.20515291      40.09457674      18.38685022      32.06000001       0.00000000       0.00000000       0.00000000     1141        3        0        0        0
W       -8.44421731      38.45603361      18.35645697      32.06000001       0.00000000       0.00000000       0.00000000     1142        3        0        0        0
W       -5.68617801      36.81376258      18.31453408      32.06000001       0.00000000       0.00000000       0.00000000     1143        3        0        0        0
W       -2.93194982      35.16707702      18.26670282      32.06000001       0.00000000       0.00000000       0.00000000     1144        3        0        0        0
W       -0.18235512      33.51545686      18.21886121      32.06000001       0.00000000       0.00000000       0.00000000     1145        3        0        0        0
W        2.56191808      31.85856048      18.17650734      32.06000001       0.00000000       0.00000000       0.00000000     1146        3        0        0        0
W        5.30040126      30.19629840      18.14377279      32.06000001       0.00000000       0.00000000       0.00000000     1147        3        0        0        0
W        8.03298994      28.52899435      18.12239777      32.06000001       0.00000000       0.00000000       0.00000000     1148        3        0        0        0
W       10.76013056      26.85764662      18.11118132      32.06000001       0.00000000       0.00000000       0.00000000     1149        3        0        0        0
W       13.48292777      25.18414567      18.10641893      32.06000001       0.00000000       0.00000000       0.00000000     1150        3        0        0        0
W       41.50406005      63.02538084      17.28223252      32.06000001       0.00000000       0.00000000       0.00000000     1151        3        0        0        0
W       44.22440101      61.35035472      17.35126746      32.06000001       0.00000000       0.00000000       0.00000000     1152        3        0        0        0
W       46.95005688      59.68047445      17.45294395      32.06000001       0.00000000       0.00000000       0.00000000     1153        3        0        0        0
W       49.68097611      58.01669815      17.57972605      32.06000001       0.00000000       0.00000000       0.00000000     1154        3        0        0        0
W       52.41712972      56.35953325      17.72147770      32.06000001       0.00000000       0.00000000       0.00000000     1155        3        0        0        0
W      -30.46014131      54.70893035      17.86692199      32.06000001       0.00000000       0.00000000       0.00000000     1156        3        0        0        0
W      -27.71377362      53.06431255      18.00537801      32.06000001       0.00000000       0.00000000       0.00000000     1157        3        0        0        0
W      -24.96276824      51.42471898      18.12819645      32.06000001       0.00000000       0.00000000       0.00000000     1158        3        0        0        0
W      -22.20777803      49.78896900      18.22946504      32.06000001       0.00000000       0.00000000       0.00000000     1159        3        0        0        0
W      -19.44968565      48.15579941      18.30601481      32.06000001       0.00000000       0.00000000       0.00000000     1160        3        0        0        0
W      -16.68952894      46.52394351      18.35704846      32.06000001       0.00000000       0.00000000       0.00000000     1161        3        0        0        0
W      -13.92842439      44.89219152      18.38372004      32.06000001       0.00000000       0.00000000       0.00000000     1162        3        0        0        0
W      -11.16751756      43.25941097      18.38875798      32.06000001       0.00000000       0.00000000       0.00000000     1163        3        0        0        0
W       -8.40792246      41.62456910      18.37615085      32.06000001       0.00000000       0.00000000       0.00000000     1164        3        0        0        0
W       -5.65069076      39.98673226      18.35085697      32.06000001       0.00000000       0.00000000       0.00000000     1165        3        0        0        0
W       -2.89678827      38.34507169      18.31848188      32.06000001       0.00000000       0.00000000       0.00000000     1166        3        0        0        0
W       -0.14707791      36.69884664      18.28482092      32.06000001       0.00000000       0.00000000       0.00000000     1167        3        0        0        0
W        2.59772110      35.04742837      18.25514442      32.06000001       0.00000000       0.00000000       0.00000000     1168        3        0        0        0
W        5.33710674      33.39039657      18.23324282      32.06000001       0.00000000       0.00000000       0.00000000     1169        3        0        0        0
W        8.07092941      31.72774084      18.22045756      32.06000001       0.00000000       0.00000000       0.00000000     1170        3        0        0        0
W       10.79954183      30.06014846      18.21517403      32.06000001       0.00000000       0.00000000       0.00000000     1171        3        0        0        0
W       13.52388478      28.38924593      18.21331384      32.06000001       0.00000000       0.00000000       0.00000000     1172        3        0        0        0
W       16.24541168      26.71763593      18.20991560      32.06000001       0.00000000       0.00000000       0.00000000     1173        3        0        0        0
W       41.60324879      66.21603014      17.16936423      32.06000001       0.00000000       0.00000000       0.00000000     1174        3        0        0        0
W       44.32021112      64.53557376      17.22367994      32.06000001       0.00000000       0.00000000       0.00000000     1175        3        0        0        0
W       47.04160486      62.85998647      17.31403136      32.06000001       0.00000000       0.00000000       0.00000000     1176        3        0        0        0
W       49.76743476      61.19071200      17.43436145      32.06000001       0.00000000       0.00000000       0.00000000     1177        3        0        0        0
W      -33.12081135      59.52871051      17.57577493      32.06000001       0.00000000       0.00000000       0.00000000     1178        3        0        0        0
W      -30.38572532      57.87427401      17.72733623      32.06000001       0.00000000       0.00000000       0.00000000     1179        3        0        0        0
W      -27.64580689      56.22696707      17.87758010      32.06000001       0.00000000       0.00000000       0.00000000     1180        3        0        0        0
W      -24.90114080      54.58580485      18.01632283      32.06000001       0.00000000       0.00000000       0.00000000     1181        3        0        0        0
W      -22.15209583      52.94950729      18.13599754      32.06000001       0.00000000       0.00000000       0.00000000     1182        3        0        0        0
W      -19.39934143      51.31670305      18.23206930      32.06000001       0.00000000       0.00000000       0.00000000     1183        3        0        0        0
W      -16.64378220      49.68605540      18.30277046      32.06000001       0.00000000       0.00000000       0.00000000     1184        3        0        0        0
W      -13.88648070      48.05632391      18.34860386      32.06000001       0.00000000       0.00000000       0.00000000     1185        3        0        0        0
W      -11.12857847      46.42636480      18.37186619      32.06000001       0.00000000       0.00000000       0.00000000     1186        3        0        0        0
W       -8.37124089      44.79511944      18.37627811      32.06000001       0.00000000       0.00000000       0.00000000     1187        3        0        0        0
W       -5.61559401      43.16159340      18.36666502      32.06000001       0.00000000       0.00000000       0.00000000     1188        3        0        0        0
W       -2.86268973      41.52482348      18.34858459      32.06000001       0.00000000       0.00000000       0.00000000     1189        3        0        0        0
W       -0.11346733      39.88386457      18.32780903      32.06000001       0.00000000       0.00000000       0.00000000     1190        3        0        0        0
W        2.63128199      38.23781243      18.30958158      32.06000001       0.00000000       0.00000000       0.00000000     1191        3        0        0        0
W        5.37100295      36.58592692      18.29762124      32.06000001       0.00000000       0.00000000       0.00000000     1192        3        0        0        0
W        8.10549651      34.92787762      18.29314859      32.06000001       0.00000000       0.00000000       0.00000000     1193        3        0        0        0
W       10.83504874      33.26406027      18.29437332      32.06000001       0.00000000       0.00000000       0.00000000     1194        3        0        0        0
W       13.56049310      31.59585713      18.29696242      32.06000001       0.00000000       0.00000000       0.00000000     1195        3        0        0        0
W       16.28312712      29.92569418      18.29560922      32.06000001       0.00000000       0.00000000       0.00000000     1196        3        0        0        0
W       41.70860545      69.40901285      17.08707132      32.06000001       0.00000000       0.00000000       0.00000000     1197        3        0        0        0
W       44.42328883      67.72388108      17.12412326      32.06000001       0.00000000       0.00000000       0.00000000     1198        3        0        0        0
W       47.14149483      66.04308436      17.19990516      32.06000001       0.00000000       0.00000000       0.00000000     1199        3        0        0        0
W      -35.75545149      64.36852913      17.30942703      32.06000001       0.00000000       0.00000000       0.00000000     1200        3        0        0        0
W      -33.03024181      62.70165047      17.44510676      32.06000001       0.00000000       0.00000000       0.00000000     1201        3        0        0        0
W      -30.30119045      61.04318225      17.59708437      32.06000001       0.00000000       0.00000000       0.00000000     1202        3        0        0        0
W      -27.56794377      59.39296636      17.75397463      32.06000001       0.00000000       0.00000000       0.00000000     1203        3        0        0        0
W      -24.83027431      57.75007161      17.90450393      32.06000001       0.00000000       0.00000000       0.00000000     1204        3        0        0        0
W      -22.08820389      56.11311781      18.03938877      32.06000001       0.00000000       0.00000000       0.00000000     1205        3        0        0        0
W      -19.34206307      54.48059204      18.15244701      32.06000001       0.00000000       0.00000000       0.00000000     1206        3        0        0        0
W      -16.59249187      52.85104105      18.24069078      32.06000001       0.00000000       0.00000000       0.00000000     1207        3        0        0        0
W      -13.84036968      51.22316402      18.30381928      32.06000001       0.00000000       0.00000000       0.00000000     1208        3        0        0        0
W      -11.08674292      49.59580179      18.34359666      32.06000001       0.00000000       0.00000000       0.00000000     1209        3        0        0        0
W       -8.33275795      47.96788644      18.36335582      32.06000001       0.00000000       0.00000000       0.00000000     1210        3        0        0        0
W       -5.57959446      46.33838129      18.36765153      32.06000001       0.00000000       0.00000000       0.00000000     1211        3        0        0        0
W       -2.82840123      44.70622200      18.36189636      32.06000001       0.00000000       0.00000000       0.00000000     1212        3        0        0        0
W       -0.08023888      43.07029107      18.35184430      32.06000001       0.00000000       0.00000000       0.00000000     1213        3        0        0        0
W        2.66398146      41.42942955      18.34283347      32.06000001       0.00000000       0.00000000       0.00000000     1214        3        0        0        0
W        5.40358783      39.78258934      18.33876711      32.06000001       0.00000000       0.00000000       0.00000000     1215        3        0        0        0
W        8.13828352      38.12912217      18.34105667      32.06000001       0.00000000       0.00000000       0.00000000     1216        3        0        0        0
W       10.86827279      36.46912890      18.34803623      32.06000001       0.00000000       0.00000000       0.00000000     1217        3        0        0        0
W       13.59430136      34.80374179      18.35533477      32.06000001       0.00000000       0.00000000       0.00000000     1218        3        0        0        0
W       16.31757218      33.13520753      18.35738044      32.06000001       0.00000000       0.00000000       0.00000000     1219        3        0        0        0
W       19.03952752      31.46661623      18.34969516      32.06000001       0.00000000       0.00000000       0.00000000     1220        3        0        0        0
W       44.53053634      70.91503166      17.05960956      32.06000001       0.00000000       0.00000000       0.00000000     1221        3        0        0        0
W      -38.37193658      69.22971549      17.11817117      32.06000001       0.00000000       0.00000000       0.00000000     1222        3        0        0        0
W      -35.65319084      67.55031445      17.21355531      32.06000001       0.00000000       0.00000000       0.00000000     1223        3        0        0        0
W      -32.93188157      65.87870436      17.33914435      32.06000001       0.00000000       0.00000000       0.00000000     1224        3        0        0        0
W      -30.20778441      64.21608707      17.48632138      32.06000001       0.00000000       0.00000000       0.00000000     1225        3        0        0        0
W      -27.48047963      62.56272238      17.64457953      32.06000001       0.00000000       0.00000000       0.00000000     1226        3        0        0        0
W      -24.74954858      60.91786809      17.80237511      32.06000001       0.00000000       0.00000000       0.00000000     1227        3        0        0        0
W      -22.01470495      59.28009644      17.94897987      32.06000001       0.00000000       0.00000000       0.00000000     1228        3        0        0        0
W      -19.27590607      57.64772690      18.07631525      32.06000001       0.00000000       0.00000000       0.00000000     1229        3        0        0        0
W      -16.53340886      56.01913418      18.17975848      32.06000001       0.00000000       0.00000000       0.00000000     1230        3        0        0        0
W      -13.78776736      54.39290461      18.25791813      32.06000001       0.00000000       0.00000000       0.00000000     1231        3        0        0        0
W      -11.03978351      52.76784112      18.31190465      32.06000001       0.00000000       0.00000000       0.00000000     1232        3        0        0        0
W       -8.29044867      51.14287586      18.34463293      32.06000001       0.00000000       0.00000000       0.00000000     1233        3        0        0        0
W       -5.54089403      49.51697016      18.36034270      32.06000001       0.00000000       0.00000000       0.00000000     1234        3        0        0        0
W       -2.79231768      47.88901100      18.36423915      32.06000001       0.00000000       0.00000000       0.00000000     1235        3        0        0        0
W       -0.04590376      46.25775829      18.36203227      32.06000001       0.00000000       0.00000000       0.00000000     1236        3        0        0        0
W        2.69726895      44.62184432      18.35922677      32.06000001       0.00000000       0.00000000       0.00000000     1237        3        0        0        0
W        5.43634296      42.97993558      18.36010368      32.06000001       0.00000000       0.00000000       0.00000000     1238        3        0        0        0
W        8.17084053      41.33105716      18.36656965      32.06000001       0.00000000       0.00000000       0.00000000     1239        3        0        0        0
W       10.90081757      39.67498696      18.37740529      32.06000001       0.00000000       0.00000000       0.00000000     1240        3        0        0        0
W       13.62691946      38.01258300      18.38847090      32.06000001       0.00000000       0.00000000       0.00000000     1241        3        0        0        0
W       16.35027914      36.34588427      18.39408312      32.06000001       0.00000000       0.00000000       0.00000000     1242        3        0        0        0
W       19.07229158      34.67788206      18.38929664      32.06000001       0.00000000       0.00000000       0.00000000     1243        3        0        0        0
W      -40.97981359      74.10847030      17.03498988      32.06000001       0.00000000       0.00000000       0.00000000     1244        3        0        0        0
W      -38.26476547      72.41947361      17.07382593      32.06000001       0.00000000       0.00000000       0.00000000     1245        3        0        0        0
W      -35.54785035      70.73578985      17.15193282      32.06000001       0.00000000       0.00000000       0.00000000     1246        3        0        0        0
W      -32.82912423      69.05973512      17.26354656      32.06000001       0.00000000       0.00000000       0.00000000     1247        3        0        0        0
W      -30.10848707      67.39296950      17.40112996      32.06000001       0.00000000       0.00000000       0.00000000     1248        3        0        0        0
W      -27.38562489      65.73623493      17.55547310      32.06000001       0.00000000       0.00000000       0.00000000     1249        3        0        0        0
W      -24.66015819      64.08913608      17.71565037      32.06000001       0.00000000       0.00000000       0.00000000     1250        3        0        0        0
W      -21.93171781      62.45031417      17.87018831      32.06000001       0.00000000       0.00000000       0.00000000     1251        3        0        0        0
W      -19.19999907      60.81793863      18.00915431      32.06000001       0.00000000       0.00000000       0.00000000     1252        3        0        0        0
W      -16.46488104      59.19016457      18.12584312      32.06000001       0.00000000       0.00000000       0.00000000     1253        3        0        0        0
W      -13.72650469      57.56539972      18.21722700      32.06000001       0.00000000       0.00000000       0.00000000     1254        3        0        0        0
W      -10.98528612      55.94235233      18.28341096      32.06000001       0.00000000       0.00000000       0.00000000     1255        3        0        0        0
W       -8.24189920      54.31994071      18.32676498      32.06000001       0.00000000       0.00000000       0.00000000     1256        3        0        0        0
W       -5.49725048      52.69715307      18.35121700      32.06000001       0.00000000       0.00000000       0.00000000     1257        3        0        0        0
W       -2.75244543      51.07289135      18.36177902      32.06000001       0.00000000       0.00000000       0.00000000     1258        3        0        0        0
W       -0.00870872      49.44586942      18.36413739      32.06000001       0.00000000       0.00000000       0.00000000     1259        3        0        0        0
W        2.73272651      47.81458589      18.36402698      32.06000001       0.00000000       0.00000000       0.00000000     1260        3        0        0        0
W        5.47076574      46.17746231      18.36625485      32.06000001       0.00000000       0.00000000       0.00000000     1261        3        0        0        0
W        8.20466496      44.53319315      18.37349607      32.06000001       0.00000000       0.00000000       0.00000000     1262        3        0        0        0
W       10.93423319      42.88119751      18.38531561      32.06000001       0.00000000       0.00000000       0.00000000     1263        3        0        0        0
W       13.65994221      41.22200414      18.39811362      32.06000001       0.00000000       0.00000000       0.00000000     1264        3        0        0        0
W       16.38284363      39.55739938      18.40630948      32.06000001       0.00000000       0.00000000       0.00000000     1265        3        0        0        0
W       19.10432385      37.89024772      18.40456126      32.06000001       0.00000000       0.00000000       0.00000000     1266        3        0        0        0
W       21.82582867      36.22392977      18.39022270      32.06000001       0.00000000       0.00000000       0.00000000     1267        3        0        0        0
W      -35.44261207      73.92455353      17.12796522      32.06000001       0.00000000       0.00000000       0.00000000     1268        3        0        0        0
W      -32.72546621      72.24446416      17.22185516      32.06000001       0.00000000       0.00000000       0.00000000     1269        3        0        0        0
W      -30.00700543      70.57364104      17.34510740      32.06000001       0.00000000       0.00000000       0.00000000     1270        3        0        0        0
W      -27.28699611      68.91335380      17.48995205      32.06000001       0.00000000       0.00000000       0.00000000     1271        3        0        0        0
W      -24.56519768      67.26368514      17.64688802      32.06000001       0.00000000       0.00000000       0.00000000     1272        3        0        0        0
W      -21.84141786      65.62350062      17.80472879      32.06000001       0.00000000       0.00000000       0.00000000     1273        3        0        0        0
W      -19.11540276      63.99089206      17.95224514      32.06000001       0.00000000       0.00000000       0.00000000     1274        3        0        0        0
W      -16.38685528      62.36377364      18.08045321      32.06000001       0.00000000       0.00000000       0.00000000     1275        3        0        0        0
W      -13.65556044      60.74030912      18.18405365      32.06000001       0.00000000       0.00000000       0.00000000     1276        3        0        0        0
W      -10.92150622      59.11904614      18.26148245      32.06000001       0.00000000       0.00000000       0.00000000     1277        3        0        0        0
W       -8.18493082      57.49884379      18.31411776      32.06000001       0.00000000       0.00000000       0.00000000     1278        3        0        0        0
W       -5.44634984      55.87871154      18.34538655      32.06000001       0.00000000       0.00000000       0.00000000     1279        3        0        0        0
W       -2.70657188      54.25761636      18.36009287      32.06000001       0.00000000       0.00000000       0.00000000     1280        3        0        0        0
W        0.03332490      52.63431043      18.36394114      32.06000001       0.00000000       0.00000000       0.00000000     1281        3        0        0        0
W        2.77207583      51.00725468      18.36297366      32.06000001       0.00000000       0.00000000       0.00000000     1282        3        0        0        0
W        5.50838974      49.37470608      18.36267652      32.06000001       0.00000000       0.00000000       0.00000000     1283        3        0        0        0
W        8.24120156      47.73504530      18.36674135      32.06000001       0.00000000       0.00000000       0.00000000     1284        3        0        0        0
W       10.96997250      46.08729721      18.37587456      32.06000001       0.00000000       0.00000000       0.00000000     1285        3        0        0        0
W       13.69488918      44.43159406      18.38738363      32.06000001       0.00000000       0.00000000       0.00000000     1286        3        0        0        0
W       16.41684924      42.76940425      18.39607459      32.06000001       0.00000000       0.00000000       0.00000000     1287        3        0        0        0
W       19.13722073      41.10340675      18.39635882      32.06000001       0.00000000       0.00000000       0.00000000     1288        3        0        0        0
W       21.85751594      39.43696650      18.38486123      32.06000001       0.00000000       0.00000000       0.00000000     1289        3        0        0        0
W      -29.90665117      73.75801426      17.32140366      32.06000001       0.00000000       0.00000000       0.00000000     1290        3        0        0        0
W      -27.18832382      72.09406018      17.45103149      32.06000001       0.00000000       0.00000000       0.00000000     1291        3        0        0        0
W      -24.46860901      70.44144631      17.59813990      32.06000001       0.00000000       0.00000000       0.00000000     1292        3        0        0        0
W      -21.74752958      68.79947704      17.75308430      32.06000001       0.00000000       0.00000000       0.00000000     1293        3        0        0        0
W      -19.02514792      67.16630882      17.90455535      32.06000001       0.00000000       0.00000000       0.00000000     1294        3        0        0        0
W      -16.30133544      65.53963354      18.04174088      32.06000001       0.00000000       0.00000000       0.00000000     1295        3        0        0        0
W      -13.57580104      63.91730759      18.15668876      32.06000001       0.00000000       0.00000000       0.00000000     1296        3        0        0        0
W      -10.84823471      62.29763762      18.24537652      32.06000001       0.00000000       0.00000000       0.00000000     1297        3        0        0        0
W       -8.11845023      60.67936306      18.30741396      32.06000001       0.00000000       0.00000000       0.00000000     1298        3        0        0        0
W       -5.38649153      59.06148766      18.34515569      32.06000001       0.00000000       0.00000000       0.00000000     1299        3        0        0        0
W       -2.65271031      57.44305146      18.36289077      32.06000001       0.00000000       0.00000000       0.00000000     1300        3        0        0        0
W        0.08218213      55.82291485      18.36623110      32.06000001       0.00000000       0.00000000       0.00000000     1301        3        0        0        0
W        2.81711754      54.19960368      18.36154483      32.06000001       0.00000000       0.00000000       0.00000000     1302        3        0        0        0
W        5.55078048      52.57131400      18.35512079      32.06000001       0.00000000       0.00000000       0.00000000     1303        3        0        0        0
W        8.28185147      50.93618597      18.35191503      32.06000001       0.00000000       0.00000000       0.00000000     1304        3        0        0        0
W       11.00938437      49.29283479      18.35415457      32.06000001       0.00000000       0.00000000       0.00000000     1305        3        0        0        0
W       13.73315480      47.64092768      18.36050708      32.06000001       0.00000000       0.00000000       0.00000000     1306        3        0        0        0
W       16.45378592      45.98152366      18.36656487      32.06000001       0.00000000       0.00000000       0.00000000     1307        3        0        0        0
W       19.17256158      44.31703726      18.36674721      32.06000001       0.00000000       0.00000000       0.00000000     1308        3        0        0        0
W       21.89105805      42.65076987      18.35701221      32.06000001       0.00000000       0.00000000       0.00000000     1309        3        0        0        0
W       24.61084367      40.98614957      18.33701107      32.06000001       0.00000000       0.00000000       0.00000000     1310        3        0        0        0
W      -24.37397134      73.62265797      17.57298537      32.06000001       0.00000000       0.00000000       0.00000000     1311        3        0        0        0
W      -21.65406022      71.97835577      17.71742701      32.06000001       0.00000000       0.00000000       0.00000000     1312        3        0        0        0
W      -18.93328898      70.34411331      17.86598475      32.06000001       0.00000000       0.00000000       0.00000000     1313        3        0        0        0
W      -16.21194872      68.71754102      18.00739134      32.06000001       0.00000000       0.00000000       0.00000000     1314        3        0        0        0
W      -13.49001034      67.09615671      18.13145632      32.06000001       0.00000000       0.00000000       0.00000000     1315        3        0        0        0
W      -10.76718095      65.47792065      18.23123632      32.06000001       0.00000000       0.00000000       0.00000000     1316        3        0        0        0
W       -8.04305843      63.86135946      18.30368526      32.06000001       0.00000000       0.00000000       0.00000000     1317        3        0        0        0
W       -5.31729122      62.24541470      18.34919352      32.06000001       0.00000000       0.00000000       0.00000000     1318        3        0        0        0
W       -2.58973564      60.62918821      18.37081072      32.06000001       0.00000000       0.00000000       0.00000000     1319        3        0        0        0
W        0.13940757      59.01167933      18.37357274      32.06000001       0.00000000       0.00000000       0.00000000     1320        3        0        0        0
W        2.86950212      57.39156175      18.36390504      32.06000001       0.00000000       0.00000000       0.00000000     1321        3        0        0        0
W        5.59947265      55.76709512      18.34884304      32.06000001       0.00000000       0.00000000       0.00000000     1322        3        0        0        0
W        8.32796456      54.13629136      18.33477410      32.06000001       0.00000000       0.00000000       0.00000000     1323        3        0        0        0
W       11.05370429      52.49739840      18.32582948      32.06000001       0.00000000       0.00000000       0.00000000     1324        3        0        0        0
W       13.77598683      50.84956953      18.32258232      32.06000001       0.00000000       0.00000000       0.00000000     1325        3        0        0        0
W       16.49500681      49.19334733      18.32196905      32.06000001       0.00000000       0.00000000       0.00000000     1326        3        0        0        0
W       19.21183556      47.53077779      18.31883911      32.06000001       0.00000000       0.00000000       0.00000000     1327        3        0        0        0
W       21.92805738      45.86502131      18.30866672      32.06000001       0.00000000       0.00000000       0.00000000     1328        3        0        0        0
W       24.64538361      44.19958837      18.29016462      32.06000001       0.00000000       0.00000000       0.00000000     1329        3        0        0        0
W      -18.84369391      73.52455493      17.83953858      32.06000001       0.00000000       0.00000000       0.00000000     1330        3        0        0        0
W      -16.12281059      71.89750017      17.97774356      32.06000001       0.00000000       0.00000000       0.00000000     1331        3        0        0        0
W      -13.40211995      70.27669632      18.10592731      32.06000001       0.00000000       0.00000000       0.00000000     1332        3        0        0        0
W      -10.68165916      68.65970898      18.21468816      32.06000001       0.00000000       0.00000000       0.00000000     1333        3        0        0        0
W       -7.96112936      67.04471420      18.29790186      32.06000001       0.00000000       0.00000000       0.00000000     1334        3        0        0        0
W       -5.24004113      65.43047348      18.35309006      32.06000001       0.00000000       0.00000000       0.00000000     1335        3        0        0        0
W       -2.51790421      63.81609659      18.38105514      32.06000001       0.00000000       0.00000000       0.00000000     1336        3        0        0        0
W        0.20558002      62.20071453      18.38534869      32.06000001       0.00000000       0.00000000       0.00000000     1337        3        0        0        0
W        2.93033227      60.58320873      18.37174234      32.06000001       0.00000000       0.00000000       0.00000000     1338        3        0        0        0
W        5.65576366      58.96201728      18.34754418      32.06000001       0.00000000       0.00000000       0.00000000     1339        3        0        0        0
W        8.38078780      57.33516318      18.32042809      32.06000001       0.00000000       0.00000000       0.00000000     1340        3        0        0        0
W       11.10405612      55.70063857      18.29666530      32.06000001       0.00000000       0.00000000       0.00000000     1341        3        0        0        0
W       13.82445824      54.05708249      18.27930434      32.06000001       0.00000000       0.00000000       0.00000000     1342        3        0        0        0
W       16.54166675      52.40443214      18.26735726      32.06000001       0.00000000       0.00000000       0.00000000     1343        3        0        0        0
W       19.25636300      50.74422199      18.25676086      32.06000001       0.00000000       0.00000000       0.00000000     1344        3        0        0        0
W       21.97001996      49.07936092      18.24290151      32.06000001       0.00000000       0.00000000       0.00000000     1345        3        0        0        0
W       24.68444517      47.41338255      18.22361714      32.06000001       0.00000000       0.00000000       0.00000000     1346        3        0        0        0
W       27.40142847      45.74957843      18.20080568      32.06000001       0.00000000       0.00000000       0.00000000     1347        3        0        0        0
W      -13.31611196      73.45893901      18.08133461      32.06000001       0.00000000       0.00000000       0.00000000     1348        3        0        0        0
W      -10.59566854      71.84282674      18.19388131      32.06000001       0.00000000       0.00000000       0.00000000     1349        3        0        0        0
W       -7.87625651      70.22922068      18.28576237      32.06000001       0.00000000       0.00000000       0.00000000     1350        3        0        0        0
W       -5.15755869      68.61655554      18.35136018      32.06000001       0.00000000       0.00000000       0.00000000     1351        3        0        0        0
W       -2.43902610      67.00379938      18.38838161      32.06000001       0.00000000       0.00000000       0.00000000     1352        3        0        0        0
W        0.27993169      65.39015015      18.39778064      32.06000001       0.00000000       0.00000000       0.00000000     1353        3        0        0        0
W        2.99972826      63.77470776      18.38355863      32.06000001       0.00000000       0.00000000       0.00000000     1354        3        0        0        0
W        5.72036499      62.15617283      18.35231404      32.06000001       0.00000000       0.00000000       0.00000000     1355        3        0        0        0
W        8.44128227      60.53273478      18.31231000      32.06000001       0.00000000       0.00000000       0.00000000     1356        3        0        0        0
W       11.16140054      58.90229127      18.27174802      32.06000001       0.00000000       0.00000000       0.00000000     1357        3        0        0        0
W       13.87947084      57.26304720      18.23651578      32.06000001       0.00000000       0.00000000       0.00000000     1358        3        0        0        0
W       16.59469216      55.61428826      18.20850206      32.06000001       0.00000000       0.00000000       0.00000000     1359        3        0        0        0
W       19.30722660      53.95690000      18.18563949      32.06000001       0.00000000       0.00000000       0.00000000     1360        3        0        0        0
W       22.01825329      52.29336978      18.16393480      32.06000001       0.00000000       0.00000000       0.00000000     1361        3        0        0        0
W       24.72957155      50.62715826      18.14063462      32.06000001       0.00000000       0.00000000       0.00000000     1362        3        0        0        0
W       27.44314292      48.96172776      18.11666195      32.06000001       0.00000000       0.00000000       0.00000000     1363        3        0        0        0
W       -7.79236049      73.41463914      18.26630202      32.06000001       0.00000000       0.00000000       0.00000000     1364        3        0        0        0
W       -5.07354912      71.80338159      18.34021001      32.06000001       0.00000000       0.00000000       0.00000000     1365        3        0        0        0
W       -2.35619162      70.19213016      18.38730900      32.06000001       0.00000000       0.00000000       0.00000000     1366        3        0        0        0
W        0.36028573      68.57998850      18.40522413      32.06000001       0.00000000       0.00000000       0.00000000     1367        3        0        0        0
W        3.07653008      66.96618390      18.39498153      32.06000001       0.00000000       0.00000000       0.00000000     1368        3        0        0        0
W        5.79302465      65.34970769      18.36112089      32.06000001       0.00000000       0.00000000       0.00000000     1369        3        0        0        0
W        8.50982160      63.72904308      18.31121844      32.06000001       0.00000000       0.00000000       0.00000000     1370        3        0        0        0
W       11.22638855      62.10218964      18.25449491      32.06000001       0.00000000       0.00000000       0.00000000     1371        3        0        0        0
W       13.94171145      60.46708718      18.19947369      32.06000001       0.00000000       0.00000000       0.00000000     1372        3        0        0        0
W       16.65476939      58.82240164      18.15147998      32.06000001       0.00000000       0.00000000       0.00000000     1373        3        0        0        0
W       19.36521702      57.16826340      18.11148382      32.06000001       0.00000000       0.00000000       0.00000000     1374        3        0        0        0
W       22.07377320      55.50654981      18.07717034      32.06000001       0.00000000       0.00000000       0.00000000     1375        3        0        0        0
W       24.78206148      53.84048123      18.04583346      32.06000001       0.00000000       0.00000000       0.00000000     1376        3        0        0        0
W       27.49211658      52.17362832      18.01749049      32.06000001       0.00000000       0.00000000       0.00000000     1377        3        0        0        0
W       30.20594310      50.50901214      17.99588482      32.06000001       0.00000000       0.00000000       0.00000000     1378        3        0        0        0
W       -2.27311660      73.38072291      18.37474966      32.06000001       0.00000000       0.00000000       0.00000000     1379        3        0        0        0
W        0.44338595      71.76998336      18.40247548      32.06000001       0.00000000       0.00000000       0.00000000     1380        3        0        0        0
W        3.15829878      70.15758260      18.40026141      32.06000001       0.00000000       0.00000000       0.00000000     1381        3        0        0        0
W        5.87228457      68.54270092      18.36931226      32.06000001       0.00000000       0.00000000       0.00000000     1382        3        0        0        0
W        8.58585205      66.92416747      18.31491039      32.06000001       0.00000000       0.00000000       0.00000000     1383        3        0        0        0
W       11.29909210      65.30026431      18.24573033      32.06000001       0.00000000       0.00000000       0.00000000     1384        3        0        0        0
W       14.01152740      63.66890115      18.17186148      32.06000001       0.00000000       0.00000000       0.00000000     1385        3        0        0        0
W       16.72230882      62.02827057      18.10194903      32.06000001       0.00000000       0.00000000       0.00000000     1386        3        0        0        0
W       19.43079839      60.37771795      18.04080860      32.06000001       0.00000000       0.00000000       0.00000000     1387        3        0        0        0
W       22.13721806      58.71833244      17.98906939      32.06000001       0.00000000       0.00000000       0.00000000     1388        3        0        0        0
W       24.84283573      57.05286740      17.94516921      32.06000001       0.00000000       0.00000000       0.00000000     1389        3        0        0        0
W       27.54960661      55.38487794      17.90863828      32.06000001       0.00000000       0.00000000       0.00000000     1390        3        0        0        0
W       30.25967099      53.71762625      17.88228847      32.06000001       0.00000000       0.00000000       0.00000000     1391        3        0        0        0
W        3.24167662      73.34859323      18.39462734      32.06000001       0.00000000       0.00000000       0.00000000     1392        3        0        0        0
W        5.95549780      71.73504858      18.37125086      32.06000001       0.00000000       0.00000000       0.00000000     1393        3        0        0        0
W        8.66765693      70.11813924      18.31872295      32.06000001       0.00000000       0.00000000       0.00000000     1394        3        0        0        0
W       11.37867376      68.49651438      18.24330382      32.06000001       0.00000000       0.00000000       0.00000000     1395        3        0        0        0
W       14.08868575      66.86829590      18.15481966      32.06000001       0.00000000       0.00000000       0.00000000     1396        3        0        0        0
W       16.79733890      65.23145984      18.06410231      32.06000001       0.00000000       0.00000000       0.00000000     1397        3        0        0        0
W       19.50408003      63.58466401      17.97985735      32.06000001       0.00000000       0.00000000       0.00000000     1398        3        0        0        0
W       22.20879615      61.92809865      17.90672313      32.06000001       0.00000000       0.00000000       0.00000000     1399        3        0        0        0
W       24.91232008      60.26379705      17.84570863      32.06000001       0.00000000       0.00000000       0.00000000     1400        3        0        0        0
W       27.61635984      58.59508430      17.79681486      32.06000001       0.00000000       0.00000000       0.00000000     1401        3        0        0        0
W       30.32303206      56.92540172      17.76200032      32.06000001       0.00000000       0.00000000       0.00000000     1402        3        0        0        0
W       33.03437302      55.25743883      17.74583307      32.06000001       0.00000000       0.00000000       0.00000000     1403        3        0        0        0
W        8.75239872      73.31084029      18.31728211      32.06000001       0.00000000       0.00000000       0.00000000     1404        3        0        0        0
W       11.46316431      71.69094182      18.24276258      32.06000001       0.00000000       0.00000000       0.00000000     1405        3        0        0        0
W       14.17205041      70.06519903      18.14654684      32.06000001       0.00000000       0.00000000       0.00000000     1406        3        0        0        0
W       16.87928158      68.43166858      18.03961832      32.06000001       0.00000000       0.00000000       0.00000000     1407        3        0        0        0
W       19.58472592      66.78857012      17.93347042      32.06000001       0.00000000       0.00000000       0.00000000     1408        3        0        0        0
W       22.28826628      65.13522048      17.83700095      32.06000001       0.00000000       0.00000000       0.00000000     1409        3        0        0        0
W       24.99039198      63.47272080      17.75509762      32.06000001       0.00000000       0.00000000       0.00000000     1410        3        0        0        0
W       27.69247528      61.80387234      17.68967814      32.06000001       0.00000000       0.00000000       0.00000000     1411        3        0        0        0
W       30.39645498      60.13214822      17.64249598      32.06000001       0.00000000       0.00000000       0.00000000     1412        3        0        0        0
W       33.10437781      58.46055330      17.61715446      32.06000001       0.00000000       0.00000000       0.00000000     1413        3        0        0        0
W       14.25936017      73.25962378      18.14293062      32.06000001       0.00000000       0.00000000       0.00000000     1414        3        0        0        0
W       16.96663611      71.62878398      18.02717669      32.06000001       0.00000000       0.00000000       0.00000000     1415        3        0        0        0
W       19.67172861      69.98907204      17.90394014      32.06000001       0.00000000       0.00000000       0.00000000     1416        3        0        0        0
W       22.37483582      68.33914190      17.78536581      32.06000001       0.00000000       0.00000000       0.00000000     1417        3        0        0        0
W       25.07636427      66.67908945      17.68069923      32.06000001       0.00000000       0.00000000       0.00000000     1418        3        0        0        0
W       27.77738113      65.01087760      17.59526877      32.06000001       0.00000000       0.00000000       0.00000000     1419        3        0        0        0
W       30.47958171      63.33774775      17.53192317      32.06000001       0.00000000       0.00000000       0.00000000     1420        3        0        0        0
W       33.18487248      61.66295488      17.49360961      32.06000001       0.00000000       0.00000000       0.00000000     1421        3        0        0        0
W       35.89498928      59.98902765      17.48424837      32.06000001       0.00000000       0.00000000       0.00000000     1422        3        0        0        0
W       19.76315425      73.18604446      17.89043975      32.06000001       0.00000000       0.00000000       0.00000000     1423        3        0        0        0
W       22.46699052      71.53947430      17.75465376      32.06000001       0.00000000       0.00000000       0.00000000     1424        3        0        0        0
W       25.16891703      69.88238984      17.62842649      32.06000001       0.00000000       0.00000000       0.00000000     1425        3        0        0        0
W       27.86986249      68.21571447      17.52122575      32.06000001       0.00000000       0.00000000       0.00000000     1426        3        0        0        0
W       30.57129417      66.54209155      17.43856550      32.06000001       0.00000000       0.00000000       0.00000000     1427        3        0        0        0
W       33.27494494      64.86484681      17.38380345      32.06000001       0.00000000       0.00000000       0.00000000     1428        3        0        0        0
W       35.98246633      63.18688544      17.36017005      32.06000001       0.00000000       0.00000000       0.00000000     1429        3        0        0        0
W       25.26597712      73.08221813      17.60145352      32.06000001       0.00000000       0.00000000       0.00000000     1430        3        0        0        0
W       27.96803638      71.41793823      17.47363905      32.06000001       0.00000000       0.00000000       0.00000000     1431        3        0        0        0
W       30.66981529      69.74495445      17.37011851      32.06000001       0.00000000       0.00000000       0.00000000     1432        3        0        0        0
W       33.37291138      68.06632094      17.29616051      32.06000001       0.00000000       0.00000000       0.00000000     1433        3        0        0        0
W       36.07888020      66.38521025      17.25516566      32.06000001       0.00000000       0.00000000       0.00000000     1434        3        0        0        0
W       38.78899654      64.70421923      17.24995385      32.06000001       0.00000000       0.00000000       0.00000000     1435        3        0        0        0
W       30.77271537      72.94590562      17.33252933      32.06000001       0.00000000       0.00000000       0.00000000     1436        3        0        0        0
W       33.47644911      71.26717957      17.23821477      32.06000001       0.00000000       0.00000000       0.00000000     1437        3        0        0        0
W       36.18199753      69.58408269      17.17762140      32.06000001       0.00000000       0.00000000       0.00000000     1438        3        0        0        0
W       38.89064140      67.89955579      17.15400121      32.06000001       0.00000000       0.00000000       0.00000000     1439        3        0        0        0
W       36.28904342      72.78313830      17.13456599      32.06000001       0.00000000       0.00000000       0.00000000     1440        3        0        0        0
W       38.99735849      71.09625558      17.09081043      32.06000001       0.00000000       0.00000000       0.00000000     1441        3        0        0        0
W       41.81707813      72.60391897      17.04200499      32.06000001       0.00000000       0.00000000       0.00000000     1442        3        0        0        0
S        2.68428984       1.66623758      11.85151352     183.84000005       0.00000000       0.00000000       0.00000000     1443        2        0        0        0
S        2.73207615       1.69447852       8.70908378     183.84000005       0.00000000       0.00000000       0.00000000     1444        2        0        0        0
S        5.46503410       0.18390892      11.91246547     183.84000005       0.00000000       0.00000000       0.00000000     1445        2        0        0        0
S        5.56858023       0.17990610       8.77125837     183.84000005       0.00000000       0.00000000       0.00000000     1446        2        0        0        0
S        2.58013158       4.81741722      11.91224633     183.84000005       0.00000000       0.00000000       0.00000000     1447        2        0        0        0
S        2.62539994       4.90983030       8.77107454     183.84000005       0.00000000       0.00000000       0.00000000     1448        2        0        0        0
S        5.36116006       3.33750369      11.93956225     183.84000005       0.00000000       0.00000000       0.00000000     1449        2        0        0        0
S        5.46218499       3.39730912       8.79888099     183.84000005       0.00000000       0.00000000       0.00000000     1450        2        0        0        0
S        8.14210453       1.85365150      12.02947375     183.84000005       0.00000000       0.00000000       0.00000000     1451        2        0        0        0
S        8.29325266       1.88097902       8.89033201     183.84000005       0.00000000       0.00000000       0.00000000     1452        2        0        0        0
S       10.92442785       0.36237762      12.17430609     183.84000005       0.00000000       0.00000000       0.00000000     1453        2        0        0        0
S       11.11517537       0.36036143       9.03724316     183.84000005       0.00000000       0.00000000       0.00000000     1454        2        0        0        0
S        5.26162670       6.49037365      12.02986141     183.84000005       0.00000000       0.00000000       0.00000000     1455        2        0        0        0
S        5.35718198       6.60922574       8.89082609     183.84000005       0.00000000       0.00000000       0.00000000     1456        2        0        0        0
S        8.04313224       5.00900729      12.08598347     183.84000005       0.00000000       0.00000000       0.00000000     1457        2        0        0        0
S        8.18867812       5.09475496       8.94771066     183.84000005       0.00000000       0.00000000       0.00000000     1458        2        0        0        0
S       10.82591723       3.52184566      12.19842543     183.84000005       0.00000000       0.00000000       0.00000000     1459        2        0        0        0
S       11.01297214       3.57458150       9.06157608     183.84000005       0.00000000       0.00000000       0.00000000     1460        2        0        0        0
S       13.61177992       2.02503667      12.35697717     183.84000005       0.00000000       0.00000000       0.00000000     1461        2        0        0        0
S       13.82726826       2.04819898       9.22170912     183.84000005       0.00000000       0.00000000       0.00000000     1462        2        0        0        0
S       16.40317497       0.51497399      12.54599005     183.84000005       0.00000000       0.00000000       0.00000000     1463        2        0        0        0
S       16.63046006       0.51483051       9.41192299     183.84000005       0.00000000       0.00000000       0.00000000     1464        2        0        0        0
S        7.94990868       8.16415192      12.19968714     183.84000005       0.00000000       0.00000000       0.00000000     1465        2        0        0        0
S        8.08531423       8.30106063       9.06296130     183.84000005       0.00000000       0.00000000       0.00000000     1466        2        0        0        0
S       10.73374527       6.67962040      12.27776876     183.84000005       0.00000000       0.00000000       0.00000000     1467        2        0        0        0
S       10.91040241       6.78259202       9.14170457     183.84000005       0.00000000       0.00000000       0.00000000     1468        2        0        0        0
S       13.52022376       5.18734158      12.40362018     183.84000005       0.00000000       0.00000000       0.00000000     1469        2        0        0        0
S       13.72746946       5.25667562       9.26857509     183.84000005       0.00000000       0.00000000       0.00000000     1470        2        0        0        0
S       16.31120071       3.68320182      12.56512045     183.84000005       0.00000000       0.00000000       0.00000000     1471        2        0        0        0
S       16.53450510       3.72290429       9.43103597     183.84000005       0.00000000       0.00000000       0.00000000     1472        2        0        0        0
S       19.10853322       2.16394309      12.74583577     183.84000005       0.00000000       0.00000000       0.00000000     1473        2        0        0        0
S       19.33159053       2.18070250       9.61225016     183.84000005       0.00000000       0.00000000       0.00000000     1474        2        0        0        0
S       21.91283419       0.62844951      12.92868917     183.84000005       0.00000000       0.00000000       0.00000000     1475        2        0        0        0
S       22.12120921       0.62958723       9.79494483     183.84000005       0.00000000       0.00000000       0.00000000     1476        2        0        0        0
S        7.86383060      11.32172908      12.36075443     183.84000005       0.00000000       0.00000000       0.00000000     1477        2        0        0        0
S        7.98539688      11.49734809       9.22570570     183.84000005       0.00000000       0.00000000       0.00000000     1478        2        0        0        0
S       10.64904011       9.83752685      12.40550825     183.84000005       0.00000000       0.00000000       0.00000000     1479        2        0        0        0
S       10.80940633       9.98172461       9.27052801     183.84000005       0.00000000       0.00000000       0.00000000     1480        2        0        0        0
S       13.43695162       8.34810902      12.49630752     183.84000005       0.00000000       0.00000000       0.00000000     1481        2        0        0        0
S       13.62799645       8.45771914       9.36172478     183.84000005       0.00000000       0.00000000       0.00000000     1482        2        0        0        0
S       16.22846599       6.84893867      12.62511188     183.84000005       0.00000000       0.00000000       0.00000000     1483        2        0        0        0
S       16.43842518       6.92488166       9.49106597     183.84000005       0.00000000       0.00000000       0.00000000     1484        2        0        0        0
S       19.02505982       5.33588908      12.77894317     183.84000005       0.00000000       0.00000000       0.00000000     1485        2        0        0        0
S       19.23949387       5.38290362       9.64524357     183.84000005       0.00000000       0.00000000       0.00000000     1486        2        0        0        0
S       21.82761803       3.80646697      12.94220656     183.84000005       0.00000000       0.00000000       0.00000000     1487        2        0        0        0
S       22.03231829       3.83154483       9.80839662     183.84000005       0.00000000       0.00000000       0.00000000     1488        2        0        0        0
S       24.63579403       2.26092577      13.10066382     183.84000005       0.00000000       0.00000000       0.00000000     1489        2        0        0        0
S       24.82004495       2.27107516       9.96627988     183.84000005       0.00000000       0.00000000       0.00000000     1490        2        0        0        0
S       27.44845994       0.70210526      13.24449470     183.84000005       0.00000000       0.00000000       0.00000000     1491        2        0        0        0
S       27.60652732       0.70270706      10.10929013     183.84000005       0.00000000       0.00000000       0.00000000     1492        2        0        0        0
S       10.57286637      12.99798306      12.57012168     183.84000005       0.00000000       0.00000000       0.00000000     1493        2        0        0        0
S       10.71275455      13.17032088       9.43614128     183.84000005       0.00000000       0.00000000       0.00000000     1494        2        0        0        0
S       13.36258535      11.50903745      12.62700672     183.84000005       0.00000000       0.00000000       0.00000000     1495        2        0        0        0
S       13.53119832      11.64951726       9.49294470     183.84000005       0.00000000       0.00000000       0.00000000     1496        2        0        0        0
S       16.15537732      10.01306753      12.72090280     183.84000005       0.00000000       0.00000000       0.00000000     1497        2        0        0        0
S       16.34403304      10.11923321       9.58690043     183.84000005       0.00000000       0.00000000       0.00000000     1498        2        0        0        0
S       18.95198562       8.50529614      12.84304731     183.84000005       0.00000000       0.00000000       0.00000000     1499        2        0        0        0
S       19.14896609       8.57898274       9.70909988     183.84000005       0.00000000       0.00000000       0.00000000     1500        2        0        0        0
S       21.75319990       6.98203179      12.98076619     183.84000005       0.00000000       0.00000000       0.00000000     1501        2        0        0        0
S       21.94561547       7.02860281       9.84666291     183.84000005       0.00000000       0.00000000       0.00000000     1502        2        0        0        0
S       24.55899727       5.44202775      13.12065127     183.84000005       0.00000000       0.00000000       0.00000000     1503        2        0        0        0
S       24.73585426       5.46842367       9.98607497     183.84000005       0.00000000       0.00000000       0.00000000     1504        2        0        0        0
S       27.36864270       3.88695857      13.25192347     183.84000005       0.00000000       0.00000000       0.00000000     1505        2        0        0        0
S       27.52301272       3.89960101      10.11664852     183.84000005       0.00000000       0.00000000       0.00000000     1506        2        0        0        0
S       30.18147667       2.32054885      13.36807357     183.84000005       0.00000000       0.00000000       0.00000000     1507        2        0        0        0
S       30.31051869       2.32416972      10.23203608     183.84000005       0.00000000       0.00000000       0.00000000     1508        2        0        0        0
S       32.99740745       0.74691569      13.46620664     183.84000005       0.00000000       0.00000000       0.00000000     1509        2        0        0        0
S       33.10072433       0.74456323      10.32946803     183.84000005       0.00000000       0.00000000       0.00000000     1510        2        0        0        0
S       10.50604181      16.16333016      12.75642558     183.84000005       0.00000000       0.00000000       0.00000000     1511        2        0        0        0
S       10.62362877      16.34842861       9.62302817     183.84000005       0.00000000       0.00000000       0.00000000     1512        2        0        0        0
S       13.29742500      14.67221183      12.78413430     183.84000005       0.00000000       0.00000000       0.00000000     1513        2        0        0        0
S       13.44004382      14.83133362       9.65041778     183.84000005       0.00000000       0.00000000       0.00000000     1514        2        0        0        0
S       16.09178036      13.17710647      12.84463444     183.84000005       0.00000000       0.00000000       0.00000000     1515        2        0        0        0
S       16.25371622      13.30492568       9.71061004     183.84000005       0.00000000       0.00000000       0.00000000     1516        2        0        0        0
S       18.88897261      11.67286803      12.93340668     183.84000005       0.00000000       0.00000000       0.00000000     1517        2        0        0        0
S       19.06166600      11.76805320       9.79911566     183.84000005       0.00000000       0.00000000       0.00000000     1518        2        0        0        0
S       21.68940351      10.15493682      13.04158910     183.84000005       0.00000000       0.00000000       0.00000000     1519        2        0        0        0
S       21.86218686      10.22022725       9.90701007     183.84000005       0.00000000       0.00000000       0.00000000     1520        2        0        0        0
S       24.49313789       8.62072518      13.15798719     183.84000005       0.00000000       0.00000000       0.00000000     1521        2        0        0        0
S       24.65567860       8.66168365      10.02299094     183.84000005       0.00000000       0.00000000       0.00000000     1522        2        0        0        0
S       27.29968470       7.07048149      13.27214323     183.84000005       0.00000000       0.00000000       0.00000000     1523        2        0        0        0
S       27.44442064       7.09352837      10.13659043     183.84000005       0.00000000       0.00000000       0.00000000     1524        2        0        0        0
S       30.10858739       5.50701786      13.37652481     183.84000005       0.00000000       0.00000000       0.00000000     1525        2        0        0        0
S       30.23155234       5.51778410      10.24035123     183.84000005       0.00000000       0.00000000       0.00000000     1526        2        0        0        0
S       32.92006789       3.93437927      13.46681260     183.84000005       0.00000000       0.00000000       0.00000000     1527        2        0        0        0
S       33.01989320       3.93702068      10.33003186     183.84000005       0.00000000       0.00000000       0.00000000     1528        2        0        0        0
S       35.73490343       2.35644491      13.54072186     183.84000005       0.00000000       0.00000000       0.00000000     1529        2        0        0        0
S       35.81120521       2.35370952      10.40341641     183.84000005       0.00000000       0.00000000       0.00000000     1530        2        0        0        0
S       38.55378788       0.77620167      13.59675277     183.84000005       0.00000000       0.00000000       0.00000000     1531        2        0        0        0
S       38.60609356       0.76981485      10.45907338     183.84000005       0.00000000       0.00000000       0.00000000     1532        2        0        0        0
S       13.24145192      17.83942299      12.95386799     183.84000005       0.00000000       0.00000000       0.00000000     1533        2        0        0        0
S       13.35740158      18.00383354       9.82014180     183.84000005       0.00000000       0.00000000       0.00000000     1534        2        0        0        0
S       16.03721156      16.34282225      12.98589908     183.84000005       0.00000000       0.00000000       0.00000000     1535        2        0        0        0
S       16.17011354      16.48178173       9.85170561     183.84000005       0.00000000       0.00000000       0.00000000     1536        2        0        0        0
S       18.83521241      14.83996664      13.04321711     183.84000005       0.00000000       0.00000000       0.00000000     1537        2        0        0        0
S       18.97959834      14.94951839       9.90853337     183.84000005       0.00000000       0.00000000       0.00000000     1538        2        0        0        0
S       21.63531502      13.32579540      13.12088906     183.84000005       0.00000000       0.00000000       0.00000000     1539        2        0        0        0
S       21.78325509      13.40581913       9.98576118     183.84000005       0.00000000       0.00000000       0.00000000     1540        2        0        0        0
S       24.43747796      11.79673421      13.21078592     183.84000005       0.00000000       0.00000000       0.00000000     1541        2        0        0        0
S       24.58013893      11.85048307      10.07523722     183.84000005       0.00000000       0.00000000       0.00000000     1542        2        0        0        0
S       27.24131674      10.25171726      13.30398229     183.84000005       0.00000000       0.00000000       0.00000000     1543        2        0        0        0
S       27.37125159      10.28440953      10.16799053     183.84000005       0.00000000       0.00000000       0.00000000     1544        2        0        0        0
S       30.04642904       8.69233390      13.39299419     183.84000005       0.00000000       0.00000000       0.00000000     1545        2        0        0        0
S       30.15893908       8.70954306      10.25653556     183.84000005       0.00000000       0.00000000       0.00000000     1546        2        0        0        0
S       32.85307907       7.12197413      13.47266492     183.84000005       0.00000000       0.00000000       0.00000000     1547        2        0        0        0
S       32.94589955       7.12854457      10.33574024     183.84000005       0.00000000       0.00000000       0.00000000     1548        2        0        0        0
S       35.66236435       5.54453045      13.53960866     183.84000005       0.00000000       0.00000000       0.00000000     1549        2        0        0        0
S       35.73434883       5.54417904      10.40224712     183.84000005       0.00000000       0.00000000       0.00000000     1550        2        0        0        0
S       38.47563342       3.96347898      13.59123330     183.84000005       0.00000000       0.00000000       0.00000000     1551        2        0        0        0
S       38.52566955       3.95874643      10.45351611     183.84000005       0.00000000       0.00000000       0.00000000     1552        2        0        0        0
S       41.29381512       2.38148926      13.62521976     183.84000005       0.00000000       0.00000000       0.00000000     1553        2        0        0        0
S       41.32039496       2.37390075      10.48730142     183.84000005       0.00000000       0.00000000       0.00000000     1554        2        0        0        0
S       44.11701094       0.80040658      13.63939045     183.84000005       0.00000000       0.00000000       0.00000000     1555        2        0        0        0
S       44.11827114       0.79078069      10.50147832     183.84000005       0.00000000       0.00000000       0.00000000     1556        2        0        0        0
S       13.19428180      21.01153884      13.12233592     183.84000005       0.00000000       0.00000000       0.00000000     1557        2        0        0        0
S       13.28516264      21.16884495       9.98820142     183.84000005       0.00000000       0.00000000       0.00000000     1558        2        0        0        0
S       15.99101859      19.51162333      13.13292120     183.84000005       0.00000000       0.00000000       0.00000000     1559        2        0        0        0
S       16.09542563      19.65064311       9.99834897     183.84000005       0.00000000       0.00000000       0.00000000     1560        2        0        0        0
S       18.78974143      18.00814143      13.16374235     183.84000005       0.00000000       0.00000000       0.00000000     1561        2        0        0        0
S       18.90476696      18.12339796      10.02861670     183.84000005       0.00000000       0.00000000       0.00000000     1562        2        0        0        0
S       21.58975609      16.49588198      13.21316733     183.84000005       0.00000000       0.00000000       0.00000000     1563        2        0        0        0
S       21.71023978      16.58490851      10.07750323     183.84000005       0.00000000       0.00000000       0.00000000     1564        2        0        0        0
S       24.39079754      14.97066437      13.27629087     183.84000005       0.00000000       0.00000000       0.00000000     1565        2        0        0        0
S       24.50992778      15.03423028      10.14017481     183.84000005       0.00000000       0.00000000       0.00000000     1566        2        0        0        0
S       27.19247534      13.43043420      13.34645086     183.84000005       0.00000000       0.00000000       0.00000000     1567        2        0        0        0
S       27.30364621      13.47178195      10.20995400     183.84000005       0.00000000       0.00000000       0.00000000     1568        2        0        0        0
S       29.99436125      11.87562035      13.41720196     183.84000005       0.00000000       0.00000000       0.00000000     1569        2        0        0        0
S       30.09272390      11.89924772      10.28036328     183.84000005       0.00000000       0.00000000       0.00000000     1570        2        0        0        0
S       32.79657078      10.30865459      13.48343423     183.84000005       0.00000000       0.00000000       0.00000000     1571        2        0        0        0
S       32.87928015      10.31924239      10.34627207     183.84000005       0.00000000       0.00000000       0.00000000     1572        2        0        0        0
S       35.60017854       8.73296311      13.54124404     183.84000005       0.00000000       0.00000000       0.00000000     1573        2        0        0        0
S       35.66547450       8.73473819      10.40376843     183.84000005       0.00000000       0.00000000       0.00000000     1574        2        0        0        0
S       38.40689896       7.15203690      13.58720069     183.84000005       0.00000000       0.00000000       0.00000000     1575        2        0        0        0
S       38.45305701       7.14841951      10.44943752     183.84000005       0.00000000       0.00000000       0.00000000     1576        2        0        0        0
S       41.21834796       5.56893068      13.61794215     183.84000005       0.00000000       0.00000000       0.00000000     1577        2        0        0        0
S       41.24322525       5.56230475      10.47997680     183.84000005       0.00000000       0.00000000       0.00000000     1578        2        0        0        0
S       44.03548111       3.98607265      13.63027137     183.84000005       0.00000000       0.00000000       0.00000000     1579        2        0        0        0
S       44.03656949       3.97777409      10.49226706     183.84000005       0.00000000       0.00000000       0.00000000     1580        2        0        0        0
S       46.85830771       2.40524484      13.62136549     183.84000005       0.00000000       0.00000000       0.00000000     1581        2        0        0        0
S       46.83299712       2.39579192      10.48354624     183.84000005       0.00000000       0.00000000       0.00000000     1582        2        0        0        0
S       49.68586421       0.82776486      13.58886890     183.84000005       0.00000000       0.00000000       0.00000000     1583        2        0        0        0
S       49.63174948       0.81716191      10.45147732     183.84000005       0.00000000       0.00000000       0.00000000     1584        2        0        0        0
S       15.95235628      22.68410035      13.27427728     183.84000005       0.00000000       0.00000000       0.00000000     1585        2        0        0        0
S       16.03078949      22.81313374      10.13912650     183.84000005       0.00000000       0.00000000       0.00000000     1586        2        0        0        0
S       18.75154596      21.17854704      13.28526292     183.84000005       0.00000000       0.00000000       0.00000000     1587        2        0        0        0
S       18.83862870      21.29045363      10.14963154     183.84000005       0.00000000       0.00000000       0.00000000     1588        2        0        0        0
S       21.55153635      19.66656094      13.31124784     183.84000005       0.00000000       0.00000000       0.00000000     1589        2        0        0        0
S       21.64446329      19.75749777      10.17508492     183.84000005       0.00000000       0.00000000       0.00000000     1590        2        0        0        0
S       24.35177987      18.14368991      13.35008815     183.84000005       0.00000000       0.00000000       0.00000000     1591        2        0        0        0
S       24.44589081      18.21241427      10.21346626     183.84000005       0.00000000       0.00000000       0.00000000     1592        2        0        0        0
S       27.15181835      16.60723664      13.39753895     183.84000005       0.00000000       0.00000000       0.00000000     1593        2        0        0        0
S       27.24183291      16.65492326      10.26056757     183.84000005       0.00000000       0.00000000       0.00000000     1594        2        0        0        0
S       29.95115524      15.05672837      13.44877494     183.84000005       0.00000000       0.00000000       0.00000000     1595        2        0        0        0
S       30.03266167      15.08622736      10.31153737     183.84000005       0.00000000       0.00000000       0.00000000     1596        2        0        0        0
S       32.74969078      13.49367321      13.49949208     183.84000005       0.00000000       0.00000000       0.00000000     1597        2        0        0        0
S       32.81972496      13.50868946      10.36204115     183.84000005       0.00000000       0.00000000       0.00000000     1598        2        0        0        0
S       35.54823700      11.92079639      13.54601232     183.84000005       0.00000000       0.00000000       0.00000000     1599        2        0        0        0
S       35.60473300      11.92529504      10.40836744     183.84000005       0.00000000       0.00000000       0.00000000     1600        2        0        0        0
S       38.34850637      10.34121827      13.58468585     183.84000005       0.00000000       0.00000000       0.00000000     1601        2        0        0        0
S       38.38935533      10.33901039      10.44684748     183.84000005       0.00000000       0.00000000       0.00000000     1602        2        0        0        0
S       41.15251758       8.75795644      13.61146975     183.84000005       0.00000000       0.00000000       0.00000000     1603        2        0        0        0
S       41.17504733       8.75227123      10.47346814     183.84000005       0.00000000       0.00000000       0.00000000     1604        2        0        0        0
S       43.96191418       7.17371154      13.62212928     183.84000005       0.00000000       0.00000000       0.00000000     1605        2        0        0        0
S       43.96297172       7.16681640      10.48406351     183.84000005       0.00000000       0.00000000       0.00000000     1606        2        0        0        0
S       46.77754891       5.59075546      13.61273178     183.84000005       0.00000000       0.00000000       0.00000000     1607        2        0        0        0
S       46.75383914       5.58382166      10.47477875     183.84000005       0.00000000       0.00000000       0.00000000     1608        2        0        0        0
S       49.59931278       4.01089053      13.58000770     183.84000005       0.00000000       0.00000000       0.00000000     1609        2        0        0        0
S       49.54772587       4.00416136      10.44241974     183.84000005       0.00000000       0.00000000       0.00000000     1610        2        0        0        0
S       52.42612993       2.43556526      13.52148703     183.84000005       0.00000000       0.00000000       0.00000000     1611        2        0        0        0
S       52.34405510       2.42866225      10.38452938     183.84000005       0.00000000       0.00000000       0.00000000     1612        2        0        0        0
S       55.25606462       0.86625063      13.43559434     183.84000005       0.00000000       0.00000000       0.00000000     1613        2        0        0        0
S       55.14189391       0.85822973      10.29948495     183.84000005       0.00000000       0.00000000       0.00000000     1614        2        0        0        0
S       15.92015225      25.85995892      13.40044493     183.84000005       0.00000000       0.00000000       0.00000000     1615        2        0        0        0
S       15.97606117      25.97115956      10.26460506     183.84000005       0.00000000       0.00000000       0.00000000     1616        2        0        0        0
S       18.71955927      24.35161514      13.39847519     183.84000005       0.00000000       0.00000000       0.00000000     1617        2        0        0        0
S       18.78168408      24.45201031      10.26228587     183.84000005       0.00000000       0.00000000       0.00000000     1618        2        0        0        0
S       21.51950518      22.83878133      13.40713494     183.84000005       0.00000000       0.00000000       0.00000000     1619        2        0        0        0
S       21.58674049      22.92417950      10.27050478     183.84000005       0.00000000       0.00000000       0.00000000     1620        2        0        0        0
S       24.31918002      21.31697553      13.42621604     183.84000005       0.00000000       0.00000000       0.00000000     1621        2        0        0        0
S       24.38877298      21.38494655      10.28917276     183.84000005       0.00000000       0.00000000       0.00000000     1622        2        0        0        0
S       27.11800911      19.78314661      13.45357052     183.84000005       0.00000000       0.00000000       0.00000000     1623        2        0        0        0
S       27.18618964      19.83323302      10.31621131     183.84000005       0.00000000       0.00000000       0.00000000     1624        2        0        0        0
S       29.91542026      18.23621146      13.48611415     183.84000005       0.00000000       0.00000000       0.00000000     1625        2        0        0        0
S       29.97862909      18.26961179      10.34853386     183.84000005       0.00000000       0.00000000       0.00000000     1626        2        0        0        0
S       32.71110948      16.67694696      13.52076515     183.84000005       0.00000000       0.00000000       0.00000000     1627        2        0        0        0
S       32.76670563      16.69600457      10.38303676     183.84000005       0.00000000       0.00000000       0.00000000     1628        2        0        0        0
S       35.50554762      15.10740384      13.55462823     183.84000005       0.00000000       0.00000000       0.00000000     1629        2        0        0        0
S       35.55153413      15.11518718      10.41678981     183.84000005       0.00000000       0.00000000       0.00000000     1630        2        0        0        0
S       38.30017783      13.53018111      13.58448144     183.84000005       0.00000000       0.00000000       0.00000000     1631        2        0        0        0
S       38.33438990      13.53018605      10.44653727     183.84000005       0.00000000       0.00000000       0.00000000     1632        2        0        0        0
S       41.09705974      11.94795794      13.60625730     183.84000005       0.00000000       0.00000000       0.00000000     1633        2        0        0        0
S       41.11658791      11.94374780      10.46821134     183.84000005       0.00000000       0.00000000       0.00000000     1634        2        0        0        0
S       43.89824265      10.36332342      13.61512655     183.84000005       0.00000000       0.00000000       0.00000000     1635        2        0        0        0
S       43.89945416      10.35800938      10.47701993     183.84000005       0.00000000       0.00000000       0.00000000     1636        2        0        0        0
S       46.70525074       8.77871418      13.60611355     183.84000005       0.00000000       0.00000000       0.00000000     1637        2        0        0        0
S       46.68420108       8.77448761      10.46806260     183.84000005       0.00000000       0.00000000       0.00000000     1638        2        0        0        0
S       49.51879387       7.19632950      13.57475610     183.84000005       0.00000000       0.00000000       0.00000000     1639        2        0        0        0
S       49.47166282       7.19424218      10.43696785     183.84000005       0.00000000       0.00000000       0.00000000     1640        2        0        0        0
S       52.33864991       5.61806331      13.51755232     183.84000005       0.00000000       0.00000000       0.00000000     1641        2        0        0        0
S       52.26209348       5.61814031      10.38030318     183.84000005       0.00000000       0.00000000       0.00000000     1642        2        0        0        0
S       55.16361466       4.04557714      13.43214512     183.84000005       0.00000000       0.00000000       0.00000000     1643        2        0        0        0
S       55.05513250       4.04707159      10.29570847     183.84000005       0.00000000       0.00000000       0.00000000     1644        2        0        0        0
S       57.99158532       2.48061368      13.31752598     183.84000005       0.00000000       0.00000000       0.00000000     1645        2        0        0        0
S       57.85014626       2.48202290      10.18209252     183.84000005       0.00000000       0.00000000       0.00000000     1646        2        0        0        0
S       60.81989772       0.92537988      13.17471576     183.84000005       0.00000000       0.00000000       0.00000000     1647        2        0        0        0
S       60.64694580       0.92396366      10.04032058     183.84000005       0.00000000       0.00000000       0.00000000     1648        2        0        0        0
S       18.69260453      27.52706213      13.49568952     183.84000005       0.00000000       0.00000000       0.00000000     1649        2        0        0        0
S       18.73336112      27.60957879      10.35894335     183.84000005       0.00000000       0.00000000       0.00000000     1650        2        0        0        0
S       21.49251202      26.01285582      13.49319153     183.84000005       0.00000000       0.00000000       0.00000000     1651        2        0        0        0
S       21.53707265      26.08597432      10.35612353     183.84000005       0.00000000       0.00000000       0.00000000     1652        2        0        0        0
S       24.29181377      24.49127281      13.49799515     183.84000005       0.00000000       0.00000000       0.00000000     1653        2        0        0        0
S       24.33887284      24.55223806      10.36060165     183.84000005       0.00000000       0.00000000       0.00000000     1654        2        0        0        0
S       27.08979604      22.95911073      13.50945335     183.84000005       0.00000000       0.00000000       0.00000000     1655        2        0        0        0
S       27.13699436      23.00652166      10.37180085     183.84000005       0.00000000       0.00000000       0.00000000     1656        2        0        0        0
S       29.88580945      21.41491185      13.52599579     183.84000005       0.00000000       0.00000000       0.00000000     1657        2        0        0        0
S       29.93062556      21.44871707      10.38816411     183.84000005       0.00000000       0.00000000       0.00000000     1658        2        0        0        0
S       32.67939477      19.85894628      13.54582260     183.84000005       0.00000000       0.00000000       0.00000000     1659        2        0        0        0
S       32.71981940      19.88020011      10.40787942     183.84000005       0.00000000       0.00000000       0.00000000     1660        2        0        0        0
S       35.47070746      18.29272950      13.56707526     183.84000005       0.00000000       0.00000000       0.00000000     1661        2        0        0        0
S       35.50513017      18.30336497      10.42906571     183.84000005       0.00000000       0.00000000       0.00000000     1662        2        0        0        0
S       38.26081837      16.71839052      13.58736533     183.84000005       0.00000000       0.00000000       0.00000000     1663        2        0        0        0
S       38.28733615      16.72107656      10.44930608     183.84000005       0.00000000       0.00000000       0.00000000     1664        2        0        0        0
S       41.05155528      15.13818964      13.60319283     183.84000005       0.00000000       0.00000000       0.00000000     1665        2        0        0        0
S       41.06736868      15.13616139      10.46508452     183.84000005       0.00000000       0.00000000       0.00000000     1666        2        0        0        0
S       43.84504467      13.55436369      13.60980174     183.84000005       0.00000000       0.00000000       0.00000000     1667        2        0        0        0
S       43.84636261      13.55104896      10.47165908     183.84000005       0.00000000       0.00000000       0.00000000     1668        2        0        0        0
S       46.64319675      11.96916447      13.60167050     183.84000005       0.00000000       0.00000000       0.00000000     1669        2        0        0        0
S       46.62563706      11.96761632      10.46355516     183.84000005       0.00000000       0.00000000       0.00000000     1670        2        0        0        0
S       49.44735878      10.38485049      13.57330012     183.84000005       0.00000000       0.00000000       0.00000000     1671        2        0        0        0
S       49.40646682      10.38723872      10.43535534     183.84000005       0.00000000       0.00000000       0.00000000     1672        2        0        0        0
S       52.25809773       8.80361934      13.51993792     183.84000005       0.00000000       0.00000000       0.00000000     1673        2        0        0        0
S       52.18981802       8.81095792      10.38240082     183.84000005       0.00000000       0.00000000       0.00000000     1674        2        0        0        0
S       55.07507331       7.22752350      13.43807181     183.84000005       0.00000000       0.00000000       0.00000000     1675        2        0        0        0
S       54.97612920       7.23969675      10.30122808     183.84000005       0.00000000       0.00000000       0.00000000     1676        2        0        0        0
S       57.89694691       5.65851135      13.32570633     183.84000005       0.00000000       0.00000000       0.00000000     1677        2        0        0        0
S       57.76530814       5.67441911      10.18981448     183.84000005       0.00000000       0.00000000       0.00000000     1678        2        0        0        0
S       60.72143210       4.09863655      13.18277713     183.84000005       0.00000000       0.00000000       0.00000000     1679        2        0        0        0
S       60.55713545       4.11612722      10.04795102     183.84000005       0.00000000       0.00000000       0.00000000     1680        2        0        0        0
S       63.54562351       2.55022480      13.01206954     183.84000005       0.00000000       0.00000000       0.00000000     1681        2        0        0        0
S       63.35199548       2.56562851       9.87817930     183.84000005       0.00000000       0.00000000       0.00000000     1682        2        0        0        0
S       66.36666137       1.01554214      12.82058715     183.84000005       0.00000000       0.00000000       0.00000000     1683        2        0        0        0
S       66.15143762       1.02314811       9.68720428     183.84000005       0.00000000       0.00000000       0.00000000     1684        2        0        0        0
S       18.66939045      30.70409645      13.57147213     183.84000005       0.00000000       0.00000000       0.00000000     1685        2        0        0        0
S       18.69220533      30.76454937      10.43423905     183.84000005       0.00000000       0.00000000       0.00000000     1686        2        0        0        0
S       21.46934437      29.18851194      13.56308475     183.84000005       0.00000000       0.00000000       0.00000000     1687        2        0        0        0
S       21.49459550      29.24405050      10.42563536     183.84000005       0.00000000       0.00000000       0.00000000     1688        2        0        0        0
S       24.26848723      27.66679426      13.55902474     183.84000005       0.00000000       0.00000000       0.00000000     1689        2        0        0        0
S       24.29580884      27.71504987      10.42134348     183.84000005       0.00000000       0.00000000       0.00000000     1690        2        0        0        0
S       27.06597314      26.13570537      13.55946537     183.84000005       0.00000000       0.00000000       0.00000000     1691        2        0        0        0
S       27.09412747      26.17504225      10.42159586     183.84000005       0.00000000       0.00000000       0.00000000     1692        2        0        0        0
S       29.86105927      24.59357941      13.56391961     183.84000005       0.00000000       0.00000000       0.00000000     1693        2        0        0        0
S       29.88853880      24.62326607      10.42592062     183.84000005       0.00000000       0.00000000       0.00000000     1694        2        0        0        0
S       32.65317130      23.04035286      13.57168291     183.84000005       0.00000000       0.00000000       0.00000000     1695        2        0        0        0
S       32.67873791      23.06052764      10.43360248     183.84000005       0.00000000       0.00000000       0.00000000     1696        2        0        0        0
S       35.44222643      21.47717259      13.58191440     183.84000005       0.00000000       0.00000000       0.00000000     1697        2        0        0        0
S       35.46485506      21.48876450      10.44378647     183.84000005       0.00000000       0.00000000       0.00000000     1698        2        0        0        0
S       38.22894251      19.90580505      13.59318792     183.84000005       0.00000000       0.00000000       0.00000000     1699        2        0        0        0
S       38.24721735      19.91052440      10.45503355     183.84000005       0.00000000       0.00000000       0.00000000     1700        2        0        0        0
S       41.01480651      18.32816919      13.60286964     183.84000005       0.00000000       0.00000000       0.00000000     1701        2        0        0        0
S       41.02631542      18.32849209      10.46469660     183.84000005       0.00000000       0.00000000       0.00000000     1702        2        0        0        0
S       43.80176375      16.74613764      13.60682458     183.84000005       0.00000000       0.00000000       0.00000000     1703        2        0        0        0
S       43.80290368      16.74516734      10.46864151     183.84000005       0.00000000       0.00000000       0.00000000     1704        2        0        0        0
S       46.59181215      15.16159237      13.59964737     183.84000005       0.00000000       0.00000000       0.00000000     1705        2        0        0        0
S       46.57808151      15.16267134      10.46148465     183.84000005       0.00000000       0.00000000       0.00000000     1706        2        0        0        0
S       49.38664671      13.57652408      13.57534408     183.84000005       0.00000000       0.00000000       0.00000000     1707        2        0        0        0
S       49.35320034      13.58269922      10.43729346     183.84000005       0.00000000       0.00000000       0.00000000     1708        2        0        0        0
S       52.18742495      11.99308467      13.52815698     183.84000005       0.00000000       0.00000000       0.00000000     1709        2        0        0        0
S       52.12961956      12.00658649      10.39039522     183.84000005       0.00000000       0.00000000       0.00000000     1710        2        0        0        0
S       54.99458411      10.41353665      13.45328999     183.84000005       0.00000000       0.00000000       0.00000000     1711        2        0        0        0
S       54.90843623      10.43544145      10.31607084     183.84000005       0.00000000       0.00000000       0.00000000     1712        2        0        0        0
S       57.80766681       8.84015465      13.34744021     183.84000005       0.00000000       0.00000000       0.00000000     1713        2        0        0        0
S       57.69028748       8.87028263      10.21104227     183.84000005       0.00000000       0.00000000       0.00000000     1714        2        0        0        0
S       60.62519406       7.27522039      13.20926642     183.84000005       0.00000000       0.00000000       0.00000000     1715        2        0        0        0
S       60.47543959       7.31211586      10.07388946     183.84000005       0.00000000       0.00000000       0.00000000     1716        2        0        0        0
S       63.44467443       5.72108977      13.04011697     183.84000005       0.00000000       0.00000000       0.00000000     1717        2        0        0        0
S       63.26423916       5.76183117       9.90573673     183.84000005       0.00000000       0.00000000       0.00000000     1718        2        0        0        0
S       66.26301382       4.18006279      12.84517728     183.84000005       0.00000000       0.00000000       0.00000000     1719        2        0        0        0
S       66.05776188       4.21988647       9.71143686     183.84000005       0.00000000       0.00000000       0.00000000     1720        2        0        0        0
S       69.07736171       2.65379165      12.63465075     183.84000005       0.00000000       0.00000000       0.00000000     1721        2        0        0        0
S       68.85817297       2.68588499       9.50087969     183.84000005       0.00000000       0.00000000       0.00000000     1722        2        0        0        0
S       71.88588341       1.14231110      12.42410485     183.84000005       0.00000000       0.00000000       0.00000000     1723        2        0        0        0
S       71.66818838       1.15833468       9.28951036     183.84000005       0.00000000       0.00000000       0.00000000     1724        2        0        0        0
S       21.44872844      32.36507258      13.61230573     183.84000005       0.00000000       0.00000000       0.00000000     1725        2        0        0        0
S       21.45773556      32.39949081      10.47457262     183.84000005       0.00000000       0.00000000       0.00000000     1726        2        0        0        0
S       24.24797947      30.84329089      13.60394617     183.84000005       0.00000000       0.00000000       0.00000000     1727        2        0        0        0
S       24.25851071      30.87427333      10.46605662     183.84000005       0.00000000       0.00000000       0.00000000     1728        2        0        0        0
S       27.04532625      29.31308102      13.59808472     183.84000005       0.00000000       0.00000000       0.00000000     1729        2        0        0        0
S       27.05690346      29.33935599      10.46007397     183.84000005       0.00000000       0.00000000       0.00000000     1730        2        0        0        0
S       29.83993327      27.77266704      13.59480920     183.84000005       0.00000000       0.00000000       0.00000000     1731        2        0        0        0
S       29.85188427      27.79339080      10.45671664     183.84000005       0.00000000       0.00000000       0.00000000     1732        2        0        0        0
S       32.63112880      26.22177599      13.59418829     183.84000005       0.00000000       0.00000000       0.00000000     1733        2        0        0        0
S       32.64297890      26.23664702      10.45603928     183.84000005       0.00000000       0.00000000       0.00000000     1734        2        0        0        0
S       35.41865945      24.66130634      13.59621280     183.84000005       0.00000000       0.00000000       0.00000000     1735        2        0        0        0
S       35.43004629      24.67060094      10.45802563     183.84000005       0.00000000       0.00000000       0.00000000     1736        2        0        0        0
S       38.20296653      23.09278434      13.60033398     183.84000005       0.00000000       0.00000000       0.00000000     1737        2        0        0        0
S       38.21307782      23.09742444      10.46212397     183.84000005       0.00000000       0.00000000       0.00000000     1738        2        0        0        0
S       40.98521463      21.51788580      13.60482143     183.84000005       0.00000000       0.00000000       0.00000000     1739        2        0        0        0
S       40.99217493      21.51952165      10.46660071     183.84000005       0.00000000       0.00000000       0.00000000     1740        2        0        0        0
S       43.76705950      19.93822068      13.60638140     183.84000005       0.00000000       0.00000000       0.00000000     1741        2        0        0        0
S       43.76768580      19.93925099      10.46816080     183.84000005       0.00000000       0.00000000       0.00000000     1742        2        0        0        0
S       46.55035943      18.35533348      13.60020866     183.84000005       0.00000000       0.00000000       0.00000000     1743        2        0        0        0
S       46.54034162      18.35876663      10.46201012     183.84000005       0.00000000       0.00000000       0.00000000     1744        2        0        0        0
S       49.33687373      16.77082691      13.58046009     183.84000005       0.00000000       0.00000000       0.00000000     1745        2        0        0        0
S       49.31128935      16.77994655      10.44234216     183.84000005       0.00000000       0.00000000       0.00000000     1746        2        0        0        0
S       52.12806242      15.18651378      13.54096921     183.84000005       0.00000000       0.00000000       0.00000000     1747        2        0        0        0
S       52.08194046      15.20440212      10.40305512     183.84000005       0.00000000       0.00000000       0.00000000     1748        2        0        0        0
S       54.92491442      13.60451015      13.47599460     183.84000005       0.00000000       0.00000000       0.00000000     1749        2        0        0        0
S       54.85373584      13.63352942      10.33849095     183.84000005       0.00000000       0.00000000       0.00000000     1750        2        0        0        0
S       57.72775219      12.02718045      13.38092188     183.84000005       0.00000000       0.00000000       0.00000000     1751        2        0        0        0
S       57.62790304      12.06855271      10.24409033     183.84000005       0.00000000       0.00000000       0.00000000     1752        2        0        0        0
S       60.53601102      10.45706110      13.25290717     183.84000005       0.00000000       0.00000000       0.00000000     1753        2        0        0        0
S       60.40534155      10.51059371      10.11699403     183.84000005       0.00000000       0.00000000       0.00000000     1754        2        0        0        0
S       63.34805279       8.89679718      13.09162767     183.84000005       0.00000000       0.00000000       0.00000000     1755        2        0        0        0
S       63.18679535       8.96062696       9.95672137     183.84000005       0.00000000       0.00000000       0.00000000     1756        2        0        0        0
S       66.16120061       7.34897885      12.90036921     183.84000005       0.00000000       0.00000000       0.00000000     1757        2        0        0        0
S       65.97330024       7.41926197       9.76624721     183.84000005       0.00000000       0.00000000       0.00000000     1758        2        0        0        0
S       68.97233737       5.81567534      12.68727764     183.84000005       0.00000000       0.00000000       0.00000000     1759        2        0        0        0
S       68.76668566       5.88637717       9.55333716     183.84000005       0.00000000       0.00000000       0.00000000     1760        2        0        0        0
S       71.77893660       4.29768516      12.46606831     183.84000005       0.00000000       0.00000000       0.00000000     1761        2        0        0        0
S       71.56955977       4.36079151       9.33145851     183.84000005       0.00000000       0.00000000       0.00000000     1762        2        0        0        0
S       74.57985710       2.79374920      12.25533780     183.84000005       0.00000000       0.00000000       0.00000000     1763        2        0        0        0
S       74.38424777       2.84032134       9.11921462     183.84000005       0.00000000       0.00000000       0.00000000     1764        2        0        0        0
S       77.37534019       1.30040532      12.07564087     183.84000005       0.00000000       0.00000000       0.00000000     1765        2        0        0        0
S       77.21093445       1.32253670       8.93733608     183.84000005       0.00000000       0.00000000       0.00000000     1766        2        0        0        0
S       21.42934781      35.54169026      13.63826702     183.84000005       0.00000000       0.00000000       0.00000000     1767        2        0        0        0
S       21.42442432      35.55317537      10.50038505     183.84000005       0.00000000       0.00000000       0.00000000     1768        2        0        0        0
S       24.22902279      34.02021581      13.62884800     183.84000005       0.00000000       0.00000000       0.00000000     1769        2        0        0        0
S       24.22530354      34.03073395      10.49085964     183.84000005       0.00000000       0.00000000       0.00000000     1770        2        0        0        0
S       27.02662483      32.49104781      13.62060253     183.84000005       0.00000000       0.00000000       0.00000000     1771        2        0        0        0
S       27.02406050      32.50012642      10.48253805     183.84000005       0.00000000       0.00000000       0.00000000     1772        2        0        0        0
S       29.82120795      30.95231155      13.61371288     183.84000005       0.00000000       0.00000000       0.00000000     1773        2        0        0        0
S       29.81969884      30.95948665      10.47559957     183.84000005       0.00000000       0.00000000       0.00000000     1774        2        0        0        0
S       32.61200231      29.40360832      13.60863154     183.84000005       0.00000000       0.00000000       0.00000000     1775        2        0        0        0
S       32.61172272      29.40859042      10.47048018     183.84000005       0.00000000       0.00000000       0.00000000     1776        2        0        0        0
S       35.39863782      27.84567488      13.60592537     183.84000005       0.00000000       0.00000000       0.00000000     1777        2        0        0        0
S       35.39986623      27.84848550      10.46773585     183.84000005       0.00000000       0.00000000       0.00000000     1778        2        0        0        0
S       38.18136071      26.27987307      13.60573165     183.84000005       0.00000000       0.00000000       0.00000000     1779        2        0        0        0
S       38.18390812      26.28097640      10.46750947     183.84000005       0.00000000       0.00000000       0.00000000     1780        2        0        0        0
S       40.96108011      24.70772793      13.60708521     183.84000005       0.00000000       0.00000000       0.00000000     1781        2        0        0        0
S       40.96365681      24.70814878      10.46884385     183.84000005       0.00000000       0.00000000       0.00000000     1782        2        0        0        0
S       43.73918041      23.13067962      13.60749316     183.84000005       0.00000000       0.00000000       0.00000000     1783        2        0        0        0
S       43.73910857      23.13208366      10.46924978     183.84000005       0.00000000       0.00000000       0.00000000     1784        2        0        0        0
S       46.51728498      21.55004801      13.60290814     183.84000005       0.00000000       0.00000000       0.00000000     1785        2        0        0        0
S       46.51062792      21.55477384      10.46468684     183.84000005       0.00000000       0.00000000       0.00000000     1786        2        0        0        0
S       49.29702907      19.96712776      13.58804967     183.84000005       0.00000000       0.00000000       0.00000000     1787        2        0        0        0
S       49.27904110      19.97807747      10.44989178     183.84000005       0.00000000       0.00000000       0.00000000     1788        2        0        0        0
S       52.07990407      18.38333805      13.55694990     183.84000005       0.00000000       0.00000000       0.00000000     1789        2        0        0        0
S       52.04557308      18.40372363      10.41894223     183.84000005       0.00000000       0.00000000       0.00000000     1790        2        0        0        0
S       54.86715783      16.80039827      13.50356953     183.84000005       0.00000000       0.00000000       0.00000000     1791        2        0        0        0
S       54.81169844      16.83334489      10.36587078     183.84000005       0.00000000       0.00000000       0.00000000     1792        2        0        0        0
S       57.65963714      15.22041512      13.42243323     183.84000005       0.00000000       0.00000000       0.00000000     1793        2        0        0        0
S       57.57893514      15.26844832      10.28527866     183.84000005       0.00000000       0.00000000       0.00000000     1794        2        0        0        0
S       60.45755749      13.64589263      13.30935473     183.84000005       0.00000000       0.00000000       0.00000000     1795        2        0        0        0
S       60.34867317      13.71041274      10.17299942     183.84000005       0.00000000       0.00000000       0.00000000     1796        2        0        0        0
S       63.26023707      12.07965034      13.16224961     183.84000005       0.00000000       0.00000000       0.00000000     1797        2        0        0        0
S       63.12215733      12.16043263      10.02686881     183.84000005       0.00000000       0.00000000       0.00000000     1798        2        0        0        0
S       66.06587266      10.52465767      12.98223259     183.84000005       0.00000000       0.00000000       0.00000000     1799        2        0        0        0
S       65.90071402      10.61933372       9.84776144     183.84000005       0.00000000       0.00000000       0.00000000     1800        2        0        0        0
S       68.87171206       8.98358046      12.77501953     183.84000005       0.00000000       0.00000000       0.00000000     1801        2        0        0        0
S       68.68614378       9.08724455       9.64101216     183.84000005       0.00000000       0.00000000       0.00000000     1802        2        0        0        0
S       71.67487981       7.45802492      12.55203436     183.84000005       0.00000000       0.00000000       0.00000000     1803        2        0        0        0
S       71.48090810       7.56326995       9.41768205     183.84000005       0.00000000       0.00000000       0.00000000     1804        2        0        0        0
S       74.47353912       5.94776285      12.33023674     183.84000005       0.00000000       0.00000000       0.00000000     1805        2        0        0        0
S       74.28758228       6.04540850       9.19462309     183.84000005       0.00000000       0.00000000       0.00000000     1806        2        0        0        0
S       77.26742693       4.45031087      12.13005121     183.84000005       0.00000000       0.00000000       0.00000000     1807        2        0        0        0
S       77.10734408       4.53102064       8.99238653     183.84000005       0.00000000       0.00000000       0.00000000     1808        2        0        0        0
S       80.05733479       2.96170105      11.97108606     183.84000005       0.00000000       0.00000000       0.00000000     1809        2        0        0        0
S       79.93855797       3.01780893       8.83098701     183.84000005       0.00000000       0.00000000       0.00000000     1810        2        0        0        0
S       82.84416202       1.47811149      11.86788755     183.84000005       0.00000000       0.00000000       0.00000000     1811        2        0        0        0
S       82.77731041       1.50445453       8.72580062     183.84000005       0.00000000       0.00000000       0.00000000     1812        2        0        0        0
S       24.21032273      37.19688756      13.63133097     183.84000005       0.00000000       0.00000000       0.00000000     1813        2        0        0        0
S       24.19408109      37.18511389      10.49337660     183.84000005       0.00000000       0.00000000       0.00000000     1814        2        0        0        0
S       27.00858986      35.66919670      13.62340698     183.84000005       0.00000000       0.00000000       0.00000000     1815        2        0        0        0
S       26.99381045      35.65796933      10.48539879     183.84000005       0.00000000       0.00000000       0.00000000     1816        2        0        0        0
S       29.80362621      34.13241366      13.61625198     183.84000005       0.00000000       0.00000000       0.00000000     1817        2        0        0        0
S       29.79051162      34.12203570      10.47820715     183.84000005       0.00000000       0.00000000       0.00000000     1818        2        0        0        0
S       32.59453793      32.58603454      13.61030823     183.84000005       0.00000000       0.00000000       0.00000000     1819        2        0        0        0
S       32.58371454      32.57661907      10.47222583     183.84000005       0.00000000       0.00000000       0.00000000     1820        2        0        0        0
S       35.38084553      31.03069192      13.60642116     183.84000005       0.00000000       0.00000000       0.00000000     1821        2        0        0        0
S       35.37314709      31.02238069      10.46828841     183.84000005       0.00000000       0.00000000       0.00000000     1822        2        0        0        0
S       38.16266419      29.46763975      13.60519123     183.84000005       0.00000000       0.00000000       0.00000000     1823        2        0        0        0
S       38.15849254      29.46078481      10.46700396     183.84000005       0.00000000       0.00000000       0.00000000     1824        2        0        0        0
S       40.94073775      27.89829957      13.60622241     183.84000005       0.00000000       0.00000000       0.00000000     1825        2        0        0        0
S       40.93936635      27.89360863      10.46799392     183.84000005       0.00000000       0.00000000       0.00000000     1826        2        0        0        0
S       43.71625241      26.32400248      13.60764054     183.84000005       0.00000000       0.00000000       0.00000000     1827        2        0        0        0
S       43.71549478      26.32263119      10.46939539     183.84000005       0.00000000       0.00000000       0.00000000     1828        2        0        0        0
S       46.49060663      24.74593839      13.60605619     183.84000005       0.00000000       0.00000000       0.00000000     1829        2        0        0        0
S       46.48693227      24.74955627      10.46782464     183.84000005       0.00000000       0.00000000       0.00000000     1830        2        0        0        0
S       49.26524690      23.16521185      13.59683723     183.84000005       0.00000000       0.00000000       0.00000000     1831        2        0        0        0
S       49.25419592      23.17604559      10.45865755     183.84000005       0.00000000       0.00000000       0.00000000     1832        2        0        0        0
S       52.04154257      21.58296834      13.57453668     183.84000005       0.00000000       0.00000000       0.00000000     1833        2        0        0        0
S       52.01824665      21.60375382      10.43647525     183.84000005       0.00000000       0.00000000       0.00000000     1834        2        0        0        0
S       54.82073703      20.00054260      13.53338063     183.84000005       0.00000000       0.00000000       0.00000000     1835        2        0        0        0
S       54.78039768      20.03437096      10.39555698     183.84000005       0.00000000       0.00000000       0.00000000     1836        2        0        0        0
S       57.60389450      18.41960929      13.46772414     183.84000005       0.00000000       0.00000000       0.00000000     1837        2        0        0        0
S       57.54217803      18.46961025      10.33033246     183.84000005       0.00000000       0.00000000       0.00000000     1838        2        0        0        0
S       60.39172302      16.84230575      13.37261920     183.84000005       0.00000000       0.00000000       0.00000000     1839        2        0        0        0
S       60.30519047      16.91113856      10.23590574     183.84000005       0.00000000       0.00000000       0.00000000     1840        2        0        0        0
S       63.18431979      15.27128036      13.24457971     183.84000005       0.00000000       0.00000000       0.00000000     1841        2        0        0        0
S       63.07103692      15.36048365      10.10877373     183.84000005       0.00000000       0.00000000       0.00000000     1842        2        0        0        0
S       65.98086299      13.70960574      13.08263474     183.84000005       0.00000000       0.00000000       0.00000000     1843        2        0        0        0
S       65.84139267      13.81883647       9.94781834     183.84000005       0.00000000       0.00000000       0.00000000     1844        2        0        0        0
S       68.77943003      12.16043282      12.88979311     183.84000005       0.00000000       0.00000000       0.00000000     1845        2        0        0        0
S       68.61824034      12.28672209       9.75572257     183.84000005       0.00000000       0.00000000       0.00000000     1846        2        0        0        0
S       71.57738884      10.62626417      12.67454017     183.84000005       0.00000000       0.00000000       0.00000000     1847        2        0        0        0
S       71.40406530      10.76361707       9.54056757     183.84000005       0.00000000       0.00000000       0.00000000     1848        2        0        0        0
S       74.37245363       9.10802677      12.45137997     183.84000005       0.00000000       0.00000000       0.00000000     1849        2        0        0        0
S       74.20157626       9.24778464       9.31660973     183.84000005       0.00000000       0.00000000       0.00000000     1850        2        0        0        0
S       77.16372002       7.60442328      12.23950137     183.84000005       0.00000000       0.00000000       0.00000000     1851        2        0        0        0
S       77.01264067       7.73655871       9.10308122     183.84000005       0.00000000       0.00000000       0.00000000     1852        2        0        0        0
S       79.95165089       6.11214038      12.05934823     183.84000005       0.00000000       0.00000000       0.00000000     1853        2        0        0        0
S       79.83678666       6.22719113       8.92066914     183.84000005       0.00000000       0.00000000       0.00000000     1854        2        0        0        0
S       82.73716855       4.62726210      11.92801281     183.84000005       0.00000000       0.00000000       0.00000000     1855        2        0        0        0
S       82.67087470       4.71769882       8.78710001     183.84000005       0.00000000       0.00000000       0.00000000     1856        2        0        0        0
S       -0.09775747       3.14633401      11.85682714     183.84000005       0.00000000       0.00000000       0.00000000     1857        2        0        0        0
S       -0.10819628       3.20697532       8.71450858     183.84000005       0.00000000       0.00000000       0.00000000     1858        2        0        0        0
S       24.19056728      40.37260573      13.61039999     183.84000005       0.00000000       0.00000000       0.00000000     1859        2        0        0        0
S       24.16243884      40.33796581      10.47263051     183.84000005       0.00000000       0.00000000       0.00000000     1860        2        0        0        0
S       26.98991445      38.84701678      13.60403154     183.84000005       0.00000000       0.00000000       0.00000000     1861        2        0        0        0
S       26.96396353      38.81340976      10.46621965     183.84000005       0.00000000       0.00000000       0.00000000     1862        2        0        0        0
S       29.78587782      37.31271795      13.59882091     183.84000005       0.00000000       0.00000000       0.00000000     1863        2        0        0        0
S       29.76238526      37.28150087      10.46096919     183.84000005       0.00000000       0.00000000       0.00000000     1864        2        0        0        0
S       32.57743237      35.76907336      13.59484547     183.84000005       0.00000000       0.00000000       0.00000000     1865        2        0        0        0
S       32.55724687      35.74110127      10.45693482     183.84000005       0.00000000       0.00000000       0.00000000     1866        2        0        0        0
S       35.36395285      34.21663531      13.59291122     183.84000005       0.00000000       0.00000000       0.00000000     1867        2        0        0        0
S       35.34832702      34.19247984      10.45491496     183.84000005       0.00000000       0.00000000       0.00000000     1868        2        0        0        0
S       38.14545396      32.65658656      13.59384823     183.84000005       0.00000000       0.00000000       0.00000000     1869        2        0        0        0
S       38.13530366      32.63679777      10.45575562     183.84000005       0.00000000       0.00000000       0.00000000     1870        2        0        0        0
S       40.92257959      31.09026569      13.59762831     183.84000005       0.00000000       0.00000000       0.00000000     1871        2        0        0        0
S       40.91769553      31.07555172      10.45945506     183.84000005       0.00000000       0.00000000       0.00000000     1872        2        0        0        0
S       43.69640909      29.51891675      13.60278897     183.84000005       0.00000000       0.00000000       0.00000000     1873        2        0        0        0
S       43.69504308      29.51022988      10.46456883     183.84000005       0.00000000       0.00000000       0.00000000     1874        2        0        0        0
S       46.46819499      27.94363821      13.60638108     183.84000005       0.00000000       0.00000000       0.00000000     1875        2        0        0        0
S       46.46716050      27.94222378      10.46815232     183.84000005       0.00000000       0.00000000       0.00000000     1876        2        0        0        0
S       49.23920991      26.36544056      13.60425876     183.84000005       0.00000000       0.00000000       0.00000000     1877        2        0        0        0
S       49.23430973      26.37288753      10.46606564     183.84000005       0.00000000       0.00000000       0.00000000     1878        2        0        0        0
S       52.01066511      24.78532316      13.59150435     183.84000005       0.00000000       0.00000000       0.00000000     1879        2        0        0        0
S       51.99720884      24.80364755      10.45340455     183.84000005       0.00000000       0.00000000       0.00000000     1880        2        0        0        0
S       54.78367309      23.20438958      13.56283521     183.84000005       0.00000000       0.00000000       0.00000000     1881        2        0        0        0
S       54.75696445      23.23606795      10.42492320     183.84000005       0.00000000       0.00000000       0.00000000     1882        2        0        0        0
S       57.55926229      21.62396122      13.51294985     183.84000005       0.00000000       0.00000000       0.00000000     1883        2        0        0        0
S       57.51496798      21.67188224      10.37537661     183.84000005       0.00000000       0.00000000       0.00000000     1884        2        0        0        0
S       60.33831610      20.04571278      13.43685952     183.84000005       0.00000000       0.00000000       0.00000000     1885        2        0        0        0
S       60.27280108      20.11292863      10.29984114     183.84000005       0.00000000       0.00000000       0.00000000     1886        2        0        0        0
S       63.12138486      18.47183321      13.33041569     183.84000005       0.00000000       0.00000000       0.00000000     1887        2        0        0        0
S       63.03217751      18.56104691      10.19419315     183.84000005       0.00000000       0.00000000       0.00000000     1888        2        0        0        0
S       65.90841077      16.90507787      13.19116263     183.84000005       0.00000000       0.00000000       0.00000000     1889        2        0        0        0
S       65.79497041      17.01786266      10.05591667     183.84000005       0.00000000       0.00000000       0.00000000     1890        2        0        0        0
S       68.69841952      15.34864590      13.01967601     183.84000005       0.00000000       0.00000000       0.00000000     1891        2        0        0        0
S       68.56335641      15.48444607       9.88537762     183.84000005       0.00000000       0.00000000       0.00000000     1892        2        0        0        0
S       71.48949035      13.80563401      12.82125354     183.84000005       0.00000000       0.00000000       0.00000000     1893        2        0        0        0
S       71.33993072      13.96086567       9.68749799     183.84000005       0.00000000       0.00000000       0.00000000     1894        2        0        0        0
S       74.27941791      12.27810968      12.60711658     183.84000005       0.00000000       0.00000000       0.00000000     1895        2        0        0        0
S       74.12756174      12.44587132       9.47315011     183.84000005       0.00000000       0.00000000       0.00000000     1896        2        0        0        0
S       77.06681190      10.76618490      12.39401701     183.84000005       0.00000000       0.00000000       0.00000000     1897        2        0        0        0
S       76.92862422      10.93698339       9.25900331     183.84000005       0.00000000       0.00000000       0.00000000     1898        2        0        0        0
S       79.85168172       9.26771169      12.20176699     183.84000005       0.00000000       0.00000000       0.00000000     1899        2        0        0        0
S       79.74371791       9.43116795       9.06501492     183.84000005       0.00000000       0.00000000       0.00000000     1900        2        0        0        0
S       -2.98373959       7.77913853      12.04903621     183.84000005       0.00000000       0.00000000       0.00000000     1901        2        0        0        0
S       -3.04783647       7.92579502       8.91023719     183.84000005       0.00000000       0.00000000       0.00000000     1902        2        0        0        0
S       -0.20147503       6.29683299      11.94975159     183.84000005       0.00000000       0.00000000       0.00000000     1903        2        0        0        0
S       -0.21283980       6.41906917       8.80928187     183.84000005       0.00000000       0.00000000       0.00000000     1904        2        0        0        0
S       26.96926356      42.02396862      13.56110174     183.84000005       0.00000000       0.00000000       0.00000000     1905        2        0        0        0
S       26.93202543      41.96689767      10.42364700     183.84000005       0.00000000       0.00000000       0.00000000     1906        2        0        0        0
S       29.76660436      40.49288607      13.55864605     183.84000005       0.00000000       0.00000000       0.00000000     1907        2        0        0        0
S       29.73299763      40.43829084      10.42114358     183.84000005       0.00000000       0.00000000       0.00000000     1908        2        0        0        0
S       32.55930162      38.95262531      13.55837963     183.84000005       0.00000000       0.00000000       0.00000000     1909        2        0        0        0
S       32.53019377      38.90239967      10.42078346     183.84000005       0.00000000       0.00000000       0.00000000     1910        2        0        0        0
S       35.34656103      37.40364476      13.56074596     183.84000005       0.00000000       0.00000000       0.00000000     1911        2        0        0        0
S       35.32344108      37.35908833      10.42300905     183.84000005       0.00000000       0.00000000       0.00000000     1912        2        0        0        0
S       38.12826778      35.84707978      13.56655505     183.84000005       0.00000000       0.00000000       0.00000000     1913        2        0        0        0
S       38.11247433      35.80920543      10.42865372     183.84000005       0.00000000       0.00000000       0.00000000     1914        2        0        0        0
S       40.90500183      34.28420361      13.57595692     183.84000005       0.00000000       0.00000000       0.00000000     1915        2        0        0        0
S       40.89678608      34.25399279      10.43790727     183.84000005       0.00000000       0.00000000       0.00000000     1916        2        0        0        0
S       43.67780736      32.71616424      13.58772123     183.84000005       0.00000000       0.00000000       0.00000000     1917        2        0        0        0
S       43.67580254      32.69466915      10.44956889     183.84000005       0.00000000       0.00000000       0.00000000     1918        2        0        0        0
S       46.44789343      31.14397490      13.59910984     183.84000005       0.00000000       0.00000000       0.00000000     1919        2        0        0        0
S       46.44916724      31.13231893      10.46090879     183.84000005       0.00000000       0.00000000       0.00000000     1920        2        0        0        0
S       49.21644092      29.56857468      13.60620551     183.84000005       0.00000000       0.00000000       0.00000000     1921        2        0        0        0
S       49.21694019      29.56796816      10.46800901     183.84000005       0.00000000       0.00000000       0.00000000     1922        2        0        0        0
S       51.98451852      27.99090313      13.60440249     183.84000005       0.00000000       0.00000000       0.00000000     1923        2        0        0        0
S       51.97965247      28.00273045      10.46626670     183.84000005       0.00000000       0.00000000       0.00000000     1924        2        0        0        0
S       54.75309369      26.41196884      13.58883006     183.84000005       0.00000000       0.00000000       0.00000000     1925        2        0        0        0
S       54.73823835      26.43791745      10.45083376     183.84000005       0.00000000       0.00000000       0.00000000     1926        2        0        0        0
S       57.52304866      24.83291296      13.55466713     183.84000005       0.00000000       0.00000000       0.00000000     1927        2        0        0        0
S       57.49394159      24.87510742      10.41693308     183.84000005       0.00000000       0.00000000       0.00000000     1928        2        0        0        0
S       60.29521078      23.25509502      13.49734699     183.84000005       0.00000000       0.00000000       0.00000000     1929        2        0        0        0
S       60.24822397      23.31613167      10.36004924     183.84000005       0.00000000       0.00000000       0.00000000     1930        2        0        0        0
S       63.07026117      21.68023044      13.41280615     183.84000005       0.00000000       0.00000000       0.00000000     1931        2        0        0        0
S       63.00273243      21.76298173      10.27616221     183.84000005       0.00000000       0.00000000       0.00000000     1932        2        0        0        0
S       65.84855196      20.11053094      13.29801126     183.84000005       0.00000000       0.00000000       0.00000000     1933        2        0        0        0
S       65.75934066      20.21762597      10.16223864     183.84000005       0.00000000       0.00000000       0.00000000     1934        2        0        0        0
S       68.62983207      18.54876751      13.15196390     183.84000005       0.00000000       0.00000000       0.00000000     1935        2        0        0        0
S       68.52025608      18.68168373      10.01717809     183.84000005       0.00000000       0.00000000       0.00000000     1936        2        0        0        0
S       71.41303372      16.99805410      12.97723246     183.84000005       0.00000000       0.00000000       0.00000000     1937        2        0        0        0
S       71.28812827      17.15594853       9.84329159     183.84000005       0.00000000       0.00000000       0.00000000     1938        2        0        0        0
S       74.19648227      15.46114843      12.78153584     183.84000005       0.00000000       0.00000000       0.00000000     1939        2        0        0        0
S       74.06593302      15.63992816       9.64794990     183.84000005       0.00000000       0.00000000       0.00000000     1940        2        0        0        0
S       76.97872182      13.93945787      12.57825753     183.84000005       0.00000000       0.00000000       0.00000000     1941        2        0        0        0
S       76.85642089      14.13168422       9.44430847     183.84000005       0.00000000       0.00000000       0.00000000     1942        2        0        0        0
S       -5.85924174      12.43232995      12.38502359     183.84000005       0.00000000       0.00000000       0.00000000     1943        2        0        0        0
S       -5.95754986      12.62824104       9.25003729     183.84000005       0.00000000       0.00000000       0.00000000     1944        2        0        0        0
S       -3.07947121      10.93724634      12.22040821     183.84000005       0.00000000       0.00000000       0.00000000     1945        2        0        0        0
S       -3.13960000      11.12648834       9.08394319     183.84000005       0.00000000       0.00000000       0.00000000     1946        2        0        0        0
S       -0.29965050       9.45086171      12.10008365     183.84000005       0.00000000       0.00000000       0.00000000     1947        2        0        0        0
S       -0.31152094       9.62389933       8.96213932     183.84000005       0.00000000       0.00000000       0.00000000     1948        2        0        0        0
S        2.48070641       7.96975043      12.03472740     183.84000005       0.00000000       0.00000000       0.00000000     1949        2        0        0        0
S        2.52229551       8.11861094       8.89581779     183.84000005       0.00000000       0.00000000       0.00000000     1950        2        0        0        0
S       26.94525210      45.19945221      13.49431494     183.84000005       0.00000000       0.00000000       0.00000000     1951        2        0        0        0
S       26.89530947      45.11893482      10.35737505     183.84000005       0.00000000       0.00000000       0.00000000     1952        2        0        0        0
S       29.74436299      43.67247659      13.49379352     183.84000005       0.00000000       0.00000000       0.00000000     1953        2        0        0        0
S       29.69973189      43.59280936      10.35681439     183.84000005       0.00000000       0.00000000       0.00000000     1954        2        0        0        0
S       32.53865069      42.13646225      13.49762727     183.84000005       0.00000000       0.00000000       0.00000000     1955        2        0        0        0
S       32.50008237      42.06087018      10.36052542     183.84000005       0.00000000       0.00000000       0.00000000     1956        2        0        0        0
S       35.32712743      40.59171834      13.50559187     183.84000005       0.00000000       0.00000000       0.00000000     1957        2        0        0        0
S       35.29617657      40.52254821      10.36828509     183.84000005       0.00000000       0.00000000       0.00000000     1958        2        0        0        0
S       38.10950833      39.03932304      13.51819560     183.84000005       0.00000000       0.00000000       0.00000000     1959        2        0        0        0
S       38.08781833      38.97833686      10.38063483     183.84000005       0.00000000       0.00000000       0.00000000     1960        2        0        0        0
S       40.88630283      37.48050230      13.53557206     183.84000005       0.00000000       0.00000000       0.00000000     1961        2        0        0        0
S       40.87453612      37.42921139      10.39776500     183.84000005       0.00000000       0.00000000       0.00000000     1962        2        0        0        0
S       43.65856625      35.91631713      13.55655659     183.84000005       0.00000000       0.00000000       0.00000000     1963        2        0        0        0
S       43.65569133      35.87612874      10.41855991     183.84000005       0.00000000       0.00000000       0.00000000     1964        2        0        0        0
S       46.42754604      34.34767138      13.57843589     183.84000005       0.00000000       0.00000000       0.00000000     1965        2        0        0        0
S       46.43079079      34.31987403      10.44032112     183.84000005       0.00000000       0.00000000       0.00000000     1966        2        0        0        0
S       49.19443078      32.77542351      13.59726284     183.84000005       0.00000000       0.00000000       0.00000000     1967        2        0        0        0
S       49.19974884      32.76114543      10.45909487     183.84000005       0.00000000       0.00000000       0.00000000     1968        2        0        0        0
S       51.96022624      31.20047335      13.60844157     183.84000005       0.00000000       0.00000000       0.00000000     1969        2        0        0        0
S       51.96296070      31.20072030      10.47028443     183.84000005       0.00000000       0.00000000       0.00000000     1970        2        0        0        0
S       54.72577314      29.62379915      13.60726146     183.84000005       0.00000000       0.00000000       0.00000000     1971        2        0        0        0
S       54.72124438      29.63961125      10.46918419     183.84000005       0.00000000       0.00000000       0.00000000     1972        2        0        0        0
S       57.49180145      28.04649982      13.58922987     183.84000005       0.00000000       0.00000000       0.00000000     1973        2        0        0        0
S       57.47574985      28.07914462      10.45133463     183.84000005       0.00000000       0.00000000       0.00000000     1974        2        0        0        0
S       60.25898070      26.46981033      13.55026947     183.84000005       0.00000000       0.00000000       0.00000000     1975        2        0        0        0
S       60.22784030      26.52099447      10.41270009     183.84000005       0.00000000       0.00000000       0.00000000     1976        2        0        0        0
S       63.02792119      24.89515661      13.48681089     183.84000005       0.00000000       0.00000000       0.00000000     1977        2        0        0        0
S       62.97905784      24.96712335      10.34975091     183.84000005       0.00000000       0.00000000       0.00000000     1978        2        0        0        0
S       65.79908060      23.32428475      13.39601591     183.84000005       0.00000000       0.00000000       0.00000000     1979        2        0        0        0
S       65.73116137      23.41964000      10.25967146     183.84000005       0.00000000       0.00000000       0.00000000     1980        2        0        0        0
S       68.57258238      21.75938166      13.27637062     183.84000005       0.00000000       0.00000000       0.00000000     1981        2        0        0        0
S       68.48623068      21.88054164      10.14091249     183.84000005       0.00000000       0.00000000       0.00000000     1982        2        0        0        0
S       71.34801392      20.20308193      13.12877925     183.84000005       0.00000000       0.00000000       0.00000000     1983        2        0        0        0
S       71.24679047      20.35127677       9.99424520     183.84000005       0.00000000       0.00000000       0.00000000     1984        2        0        0        0
S       74.12439499      18.65816545      12.95805312     183.84000005       0.00000000       0.00000000       0.00000000     1985        2        0        0        0
S       74.01578121      18.83221359       9.82423750     183.84000005       0.00000000       0.00000000       0.00000000     1986        2        0        0        0
S       -8.71800345      17.12679681      12.77399556     183.84000005       0.00000000       0.00000000       0.00000000     1987        2        0        0        0
S       -8.82248048      17.32226148       9.64043395     183.84000005       0.00000000       0.00000000       0.00000000     1988        2        0        0        0
S       -5.94245365      15.60966110      12.59102834     183.84000005       0.00000000       0.00000000       0.00000000     1989        2        0        0        0
S       -6.02869259      15.81896060       9.45715651     183.84000005       0.00000000       0.00000000       0.00000000     1990        2        0        0        0
S       -3.16704073      14.10562788      12.42592172     183.84000005       0.00000000       0.00000000       0.00000000     1991        2        0        0        0
S       -3.22124489      14.31915448       9.29128390     183.84000005       0.00000000       0.00000000       0.00000000     1992        2        0        0        0
S       -0.39064697      12.61226861      12.29442992     183.84000005       0.00000000       0.00000000       0.00000000     1993        2        0        0        0
S       -0.40216955      12.81979763       9.15883746     183.84000005       0.00000000       0.00000000       0.00000000     1994        2        0        0        0
S        2.38757870      11.12656283      12.20864368     183.84000005       0.00000000       0.00000000       0.00000000     1995        2        0        0        0
S        2.42484848      11.31832384       9.07223474     183.84000005       0.00000000       0.00000000       0.00000000     1996        2        0        0        0
S        5.16783986       9.64511490      12.17608152     183.84000005       0.00000000       0.00000000       0.00000000     1997        2        0        0        0
S        5.25546487       9.81262103       9.03924836     183.84000005       0.00000000       0.00000000       0.00000000     1998        2        0        0        0
S       29.71758814      46.85082199      13.40336889     183.84000005       0.00000000       0.00000000       0.00000000     1999        2        0        0        0
S       29.65979276      46.74563909      10.26708130     183.84000005       0.00000000       0.00000000       0.00000000     2000        2        0        0        0
S       32.51380658      45.32010129      13.41006509     183.84000005       0.00000000       0.00000000       0.00000000     2001        2        0        0        0
S       32.46419432      45.21697346      10.27365582     183.84000005       0.00000000       0.00000000       0.00000000     2002        2        0        0        0
S       35.30389400      43.78058642      13.42363250     183.84000005       0.00000000       0.00000000       0.00000000     2003        2        0        0        0
S       35.26396121      43.68327233      10.28696663     183.84000005       0.00000000       0.00000000       0.00000000     2004        2        0        0        0
S       38.08735141      42.23325013      13.44396695     183.84000005       0.00000000       0.00000000       0.00000000     2005        2        0        0        0
S       38.05892690      42.14461811      10.30695730     183.84000005       0.00000000       0.00000000       0.00000000     2006        2        0        0        0
S       40.86457448      40.67926584      13.47095289     183.84000005       0.00000000       0.00000000       0.00000000     2007        2        0        0        0
S       40.84867293      40.60165079      10.33358015     183.84000005       0.00000000       0.00000000       0.00000000     2008        2        0        0        0
S       43.63665345      39.11962323      13.50332020     183.84000005       0.00000000       0.00000000       0.00000000     2009        2        0        0        0
S       43.63253364      39.05504555      10.36563661     183.84000005       0.00000000       0.00000000       0.00000000     2010        2        0        0        0
S       46.40493847      37.55511944      13.53819460     183.84000005       0.00000000       0.00000000       0.00000000     2011        2        0        0        0
S       46.40990895      37.50528377      10.40028726     183.84000005       0.00000000       0.00000000       0.00000000     2012        2        0        0        0
S       49.17069985      35.98650258      13.57137540     183.84000005       0.00000000       0.00000000       0.00000000     2013        2        0        0        0
S       49.18057734      35.95272204      10.43332565     183.84000005       0.00000000       0.00000000       0.00000000     2014        2        0        0        0
S       51.93497158      34.41461783      13.59798472     183.84000005       0.00000000       0.00000000       0.00000000     2015        2        0        0        0
S       51.94484087      34.39779945      10.45986429     183.84000005       0.00000000       0.00000000       0.00000000     2016        2        0        0        0
S       54.69852816      32.84043677      13.61314571     183.84000005       0.00000000       0.00000000       0.00000000     2017        2        0        0        0
S       54.70346438      32.84120632      10.47502532     183.84000005       0.00000000       0.00000000       0.00000000     2018        2        0        0        0
S       57.46197048      31.26506600      13.61242435     183.84000005       0.00000000       0.00000000       0.00000000     2019        2        0        0        0
S       57.45755378      31.28400122      10.47439124     183.84000005       0.00000000       0.00000000       0.00000000     2020        2        0        0        0
S       60.22579827      29.68973810      13.59204347     183.84000005       0.00000000       0.00000000       0.00000000     2021        2        0        0        0
S       60.20844642      29.72763888      10.45422135     183.84000005       0.00000000       0.00000000       0.00000000     2022        2        0        0        0
S       62.99046306      28.11578596      13.54895738     183.84000005       0.00000000       0.00000000       0.00000000     2023        2        0        0        0
S       62.95763457      28.17393450      10.41150516     183.84000005       0.00000000       0.00000000       0.00000000     2024        2        0        0        0
S       65.75635573      26.54469386      13.48088953     183.84000005       0.00000000       0.00000000       0.00000000     2025        2        0        0        0
S       65.70676854      26.62495764      10.34398664     183.84000005       0.00000000       0.00000000       0.00000000     2026        2        0        0        0
S       68.52371039      24.97820927      13.38657433     183.84000005       0.00000000       0.00000000       0.00000000     2027        2        0        0        0
S       68.45775455      25.08284182      10.25039572     183.84000005       0.00000000       0.00000000       0.00000000     2028        2        0        0        0
S       71.29247201      23.41840223      13.26639679     183.84000005       0.00000000       0.00000000       0.00000000     2029        2        0        0        0
S       71.21287498      23.54944651      10.13105820     183.84000005       0.00000000       0.00000000       0.00000000     2030        2        0        0        0
S      -11.55639494      21.86760856      13.12343826     183.84000005       0.00000000       0.00000000       0.00000000     2031        2        0        0        0
S      -11.64378836      22.02586395       9.98892089     183.84000005       0.00000000       0.00000000       0.00000000     2032        2        0        0        0
S       -8.78626860      20.32806143      12.96456729     183.84000005       0.00000000       0.00000000       0.00000000     2033        2        0        0        0
S       -8.87214487      20.51192968       9.83067527     183.84000005       0.00000000       0.00000000       0.00000000     2034        2        0        0        0
S       -6.01607115      18.80121863      12.80076642     183.84000005       0.00000000       0.00000000       0.00000000     2035        2        0        0        0
S       -6.08844360      19.00603304       9.66715875     183.84000005       0.00000000       0.00000000       0.00000000     2036        2        0        0        0
S       -3.24535189      17.28717841      12.64593663     183.84000005       0.00000000       0.00000000       0.00000000     2037        2        0        0        0
S       -3.29169543      17.50546383       9.51225266     183.84000005       0.00000000       0.00000000       0.00000000     2038        2        0        0        0
S       -0.47292848      15.78468960      12.51433665     183.84000005       0.00000000       0.00000000       0.00000000     2039        2        0        0        0
S       -0.48285533      16.00712324       9.38031415     183.84000005       0.00000000       0.00000000       0.00000000     2040        2        0        0        0
S        2.30246306      14.29159655      12.41796013     183.84000005       0.00000000       0.00000000       0.00000000     2041        2        0        0        0
S        2.33540551      14.50804935       9.28350582     183.84000005       0.00000000       0.00000000       0.00000000     2042        2        0        0        0
S        5.08144671      12.80508890      12.36521554     183.84000005       0.00000000       0.00000000       0.00000000     2043        2        0        0        0
S        5.15945874      13.00555811       9.23038226     183.84000005       0.00000000       0.00000000       0.00000000     2044        2        0        0        0
S       29.68459730      50.02691143      13.28808661     183.84000005       0.00000000       0.00000000       0.00000000     2045        2        0        0        0
S       29.61043455      49.89780722      10.15260429     183.84000005       0.00000000       0.00000000       0.00000000     2046        2        0        0        0
S       32.48290079      48.50260646      13.29446447     183.84000005       0.00000000       0.00000000       0.00000000     2047        2        0        0        0
S       32.41973012      48.37149749      10.15891279     183.84000005       0.00000000       0.00000000       0.00000000     2048        2        0        0        0
S       35.27484944      46.96949397      13.31204271     183.84000005       0.00000000       0.00000000       0.00000000     2049        2        0        0        0
S       35.22410113      46.84188371      10.17623069     183.84000005       0.00000000       0.00000000       0.00000000     2050        2        0        0        0
S       38.05969200      45.42829603      13.33984951     183.84000005       0.00000000       0.00000000       0.00000000     2051        2        0        0        0
S       38.02328598      45.30859517      10.20362792     183.84000005       0.00000000       0.00000000       0.00000000     2052        2        0        0        0
S       40.83766462      43.88010003      13.37721180     183.84000005       0.00000000       0.00000000       0.00000000     2053        2        0        0        0
S       40.81688079      43.77185204      10.24051716     183.84000005       0.00000000       0.00000000       0.00000000     2054        2        0        0        0
S       43.60986374      42.32582964      13.42253105     183.84000005       0.00000000       0.00000000       0.00000000     2055        2        0        0        0
S       43.60419255      42.23197466      10.28539250     183.84000005       0.00000000       0.00000000       0.00000000     2056        2        0        0        0
S       46.37777772      40.76618414      13.47257583     183.84000005       0.00000000       0.00000000       0.00000000     2057        2        0        0        0
S       46.38451907      40.68909922      10.33507941     183.84000005       0.00000000       0.00000000       0.00000000     2058        2        0        0        0
S       49.14283144      39.20180357      13.52265680     183.84000005       0.00000000       0.00000000       0.00000000     2059        2        0        0        0
S       49.15751852      39.14321897      10.38489711     183.84000005       0.00000000       0.00000000       0.00000000     2060        2        0        0        0
S       51.90614415      37.63344373      13.56734509     183.84000005       0.00000000       0.00000000       0.00000000     2061        2        0        0        0
S       51.92340191      37.59440567      10.42940031     183.84000005       0.00000000       0.00000000       0.00000000     2062        2        0        0        0
S       54.66849524      36.06205931      13.60127385     183.84000005       0.00000000       0.00000000       0.00000000     2063        2        0        0        0
S       54.68292128      36.04302468      10.46321921     183.84000005       0.00000000       0.00000000       0.00000000     2064        2        0        0        0
S       57.43039406      34.48877551      13.61974337     183.84000005       0.00000000       0.00000000       0.00000000     2065        2        0        0        0
S       57.43721190      34.48985362      10.48166296     183.84000005       0.00000000       0.00000000       0.00000000     2066        2        0        0        0
S       60.19218964      32.91486807      13.61901410     183.84000005       0.00000000       0.00000000       0.00000000     2067        2        0        0        0
S       60.18764386      32.93613238      10.48101660     183.84000005       0.00000000       0.00000000       0.00000000     2068        2        0        0        0
S       62.95415592      31.34169381      13.59637998     183.84000005       0.00000000       0.00000000       0.00000000     2069        2        0        0        0
S       62.93573071      31.38349442      10.45860518     183.84000005       0.00000000       0.00000000       0.00000000     2070        2        0        0        0
S       65.71654643      29.77066415      13.55013807     183.84000005       0.00000000       0.00000000       0.00000000     2071        2        0        0        0
S       65.68308905      29.83388227      10.41274827     183.84000005       0.00000000       0.00000000       0.00000000     2072        2        0        0        0
S       68.47956764      28.20329671      13.47959841     183.84000005       0.00000000       0.00000000       0.00000000     2073        2        0        0        0
S       68.43149133      28.28939279      10.34275680     183.84000005       0.00000000       0.00000000       0.00000000     2074        2        0        0        0
S      -14.37530801      26.64127485      13.38536342     183.84000005       0.00000000       0.00000000       0.00000000     2075        2        0        0        0
S      -14.43562973      26.75203540      10.24920545     183.84000005       0.00000000       0.00000000       0.00000000     2076        2        0        0        0
S      -11.61092882      25.08644784      13.26990717     183.84000005       0.00000000       0.00000000       0.00000000     2077        2        0        0        0
S      -11.67867804      25.22333645      10.13450444     183.84000005       0.00000000       0.00000000       0.00000000     2078        2        0        0        0
S       -8.84607297      23.54071080      13.13832275     183.84000005       0.00000000       0.00000000       0.00000000     2079        2        0        0        0
S       -8.91369974      23.70388590      10.00365108     183.84000005       0.00000000       0.00000000       0.00000000     2080        2        0        0        0
S       -6.08071446      22.00565233      12.99877722     183.84000005       0.00000000       0.00000000       0.00000000     2081        2        0        0        0
S       -6.13836809      22.19299248       9.86470819     183.84000005       0.00000000       0.00000000       0.00000000     2082        2        0        0        0
S       -3.31429979      20.48208759      12.86205149     183.84000005       0.00000000       0.00000000       0.00000000     2083        2        0        0        0
S       -3.35128811      20.68873709       9.72839494     183.84000005       0.00000000       0.00000000       0.00000000     2084        2        0        0        0
S       -0.54562415      18.96976827      12.73992545     183.84000005       0.00000000       0.00000000       0.00000000     2085        2        0        0        0
S       -0.55259608      19.18843400       9.60647741     183.84000005       0.00000000       0.00000000       0.00000000     2086        2        0        0        0
S        2.22681705      17.46750299      12.64302479     183.84000005       0.00000000       0.00000000       0.00000000     2087        2        0        0        0
S        2.25602083      17.68918180       9.50959999     183.84000005       0.00000000       0.00000000       0.00000000     2088        2        0        0        0
S        5.00411619      15.97336372      12.57938468     183.84000005       0.00000000       0.00000000       0.00000000     2089        2        0        0        0
S        5.07187971      16.18814486       9.44583369     183.84000005       0.00000000       0.00000000       0.00000000     2090        2        0        0        0
S        7.78639461      14.48467878      12.55420431     183.84000005       0.00000000       0.00000000       0.00000000     2091        2        0        0        0
S        7.89187134      14.68263203       9.42043244     183.84000005       0.00000000       0.00000000       0.00000000     2092        2        0        0        0
S       32.44394589      51.68242993      13.15190294     183.84000005       0.00000000       0.00000000       0.00000000     2093        2        0        0        0
S       32.36413002      51.52587992      10.01725529     183.84000005       0.00000000       0.00000000       0.00000000     2094        2        0        0        0
S       35.23778859      50.15694405      13.16993991     183.84000005       0.00000000       0.00000000       0.00000000     2095        2        0        0        0
S       35.17401179      49.99947981      10.03510078     183.84000005       0.00000000       0.00000000       0.00000000     2096        2        0        0        0
S       38.02420959      48.62313225      13.20342516     183.84000005       0.00000000       0.00000000       0.00000000     2097        2        0        0        0
S       37.97845180      48.47108812      10.06817488     183.84000005       0.00000000       0.00000000       0.00000000     2098        2        0        0        0
S       40.80323179      47.08186006      13.25083337     183.84000005       0.00000000       0.00000000       0.00000000     2099        2        0        0        0
S       40.77692795      46.94045922      10.11504516     183.84000005       0.00000000       0.00000000       0.00000000     2100        2        0        0        0
S       43.57589603      45.53396035      13.30991690     183.84000005       0.00000000       0.00000000       0.00000000     2101        2        0        0        0
S       43.56866842      45.40746360      10.17357688     183.84000005       0.00000000       0.00000000       0.00000000     2102        2        0        0        0
S       46.34381305      43.98004770      13.37682784     183.84000005       0.00000000       0.00000000       0.00000000     2103        2        0        0        0
S       46.35283993      43.87181820      10.24000163     183.84000005       0.00000000       0.00000000       0.00000000     2104        2        0        0        0
S       49.10859063      42.42064972      13.44612953     183.84000005       0.00000000       0.00000000       0.00000000     2105        2        0        0        0
S       49.12896028      42.33308945      10.30890835     183.84000005       0.00000000       0.00000000       0.00000000     2106        2        0        0        0
S       51.87148967      40.85641692      13.51154750     183.84000005       0.00000000       0.00000000       0.00000000     2107        2        0        0        0
S       51.89715855      40.79092911      10.37400945     183.84000005       0.00000000       0.00000000       0.00000000     2108        2        0        0        0
S       54.63333761      39.28825621      13.56692055     183.84000005       0.00000000       0.00000000       0.00000000     2109        2        0        0        0
S       54.65818759      39.24534562      10.42913335     183.84000005       0.00000000       0.00000000       0.00000000     2110        2        0        0        0
S       57.39459182      37.71730845      13.60695927     183.84000005       0.00000000       0.00000000       0.00000000     2111        2        0        0        0
S       57.41326206      37.69683083      10.46900324     183.84000005       0.00000000       0.00000000       0.00000000     2112        2        0        0        0
S       60.15547634      36.14489955      13.62766694     183.84000005       0.00000000       0.00000000       0.00000000     2113        2        0        0        0
S       60.16385873      36.14641042      10.48964771     183.84000005       0.00000000       0.00000000       0.00000000     2114        2        0        0        0
S       62.91610629      34.57245527      13.62643465     183.84000005       0.00000000       0.00000000       0.00000000     2115        2        0        0        0
S       62.91157138      34.59555599      10.48848105     183.84000005       0.00000000       0.00000000       0.00000000     2116        2        0        0        0
S       65.67657725      33.00143133      13.60196552     183.84000005       0.00000000       0.00000000       0.00000000     2117        2        0        0        0
S       65.65805020      33.04606900      10.46422852     183.84000005       0.00000000       0.00000000       0.00000000     2118        2        0        0        0
S      -17.18160353      31.43329165      13.55415952     183.84000005       0.00000000       0.00000000       0.00000000     2119        2        0        0        0
S      -17.21359769      31.49994830      10.41679673     183.84000005       0.00000000       0.00000000       0.00000000     2120        2        0        0        0
S      -14.42109228      29.86952821      13.48412861     183.84000005       0.00000000       0.00000000       0.00000000     2121        2        0        0        0
S      -14.46427155      29.95917975      10.34727462     183.84000005       0.00000000       0.00000000       0.00000000     2122        2        0        0        0
S      -11.66039681      28.31168083      13.39442478     183.84000005       0.00000000       0.00000000       0.00000000     2123        2        0        0        0
S      -11.71051006      28.42547357      10.25817941     183.84000005       0.00000000       0.00000000       0.00000000     2124        2        0        0        0
S       -8.89938183      26.76128271      13.28939192     183.84000005       0.00000000       0.00000000       0.00000000     2125        2        0        0        0
S       -8.95010460      26.89988763      10.15381113     183.84000005       0.00000000       0.00000000       0.00000000     2126        2        0        0        0
S       -6.13770515      25.21971509      13.17541805     183.84000005       0.00000000       0.00000000       0.00000000     2127        2        0        0        0
S       -6.18098632      25.38248585      10.04050267     183.84000005       0.00000000       0.00000000       0.00000000     2128        2        0        0        0
S       -3.37462254      23.68796975      13.06072459     183.84000005       0.00000000       0.00000000       0.00000000     2129        2        0        0        0
S       -3.40170196      23.87222176       9.92642633     183.84000005       0.00000000       0.00000000       0.00000000     2130        2        0        0        0
S       -0.60886247      22.16638155      12.95441802     183.84000005       0.00000000       0.00000000       0.00000000     2131        2        0        0        0
S       -0.61189724      22.36713925       9.82065707     183.84000005       0.00000000       0.00000000       0.00000000     2132        2        0        0        0
S        2.16118253      20.65453241      12.86503545     183.84000005       0.00000000       0.00000000       0.00000000     2133        2        0        0        0
S        2.18753039      20.86480617       9.73168023     183.84000005       0.00000000       0.00000000       0.00000000     2134        2        0        0        0
S        4.93688569      19.15136734      12.79934371     183.84000005       0.00000000       0.00000000       0.00000000     2135        2        0        0        0
S        4.99477625      19.36265903       9.66619880     183.84000005       0.00000000       0.00000000       0.00000000     2136        2        0        0        0
S        7.71873146      17.65515749      12.76208596     183.84000005       0.00000000       0.00000000       0.00000000     2137        2        0        0        0
S        7.80761792      17.85807302       9.62891411     183.84000005       0.00000000       0.00000000       0.00000000     2138        2        0        0        0
S       32.39506263      54.85752134      12.98715647     183.84000005       0.00000000       0.00000000       0.00000000     2139        2        0        0        0
S       32.29555350      54.68243658       9.85324354     183.84000005       0.00000000       0.00000000       0.00000000     2140        2        0        0        0
S       35.19056512      53.34061398      12.99986327     183.84000005       0.00000000       0.00000000       0.00000000     2141        2        0        0        0
S       35.11159353      53.15796740       9.86587991     183.84000005       0.00000000       0.00000000       0.00000000     2142        2        0        0        0
S       37.97859692      51.81544672      13.03520787     183.84000005       0.00000000       0.00000000       0.00000000     2143        2        0        0        0
S       37.92229863      51.63349245       9.90091444     183.84000005       0.00000000       0.00000000       0.00000000     2144        2        0        0        0
S       40.75895996      50.28240922      13.09074425     183.84000005       0.00000000       0.00000000       0.00000000     2145        2        0        0        0
S       40.72682611      50.10839582       9.95595114     183.84000005       0.00000000       0.00000000       0.00000000     2146        2        0        0        0
S       43.53255123      48.74211309      13.16326057     183.84000005       0.00000000       0.00000000       0.00000000     2147        2        0        0        0
S       43.52418505      48.58207923      10.02789527     183.84000005       0.00000000       0.00000000       0.00000000     2148        2        0        0        0
S       46.30101067      47.19503799      13.24795004     183.84000005       0.00000000       0.00000000       0.00000000     2149        2        0        0        0
S       46.31333078      47.05375889      10.11203541     183.84000005       0.00000000       0.00000000       0.00000000     2150        2        0        0        0
S       49.06610573      45.64158400      13.33830731     183.84000005       0.00000000       0.00000000       0.00000000     2151        2        0        0        0
S       49.09358879      45.52248711      10.20189926     183.84000005       0.00000000       0.00000000       0.00000000     2152        2        0        0        0
S       51.82926290      44.08228257      13.42687468     183.84000005       0.00000000       0.00000000       0.00000000     2153        2        0        0        0
S       51.86498370      43.98740851      10.29002681     183.84000005       0.00000000       0.00000000       0.00000000     2154        2        0        0        0
S       54.59138572      42.51795247      13.50635780     183.84000005       0.00000000       0.00000000       0.00000000     2155        2        0        0        0
S       54.62828163      42.44808887      10.36911352     183.84000005       0.00000000       0.00000000       0.00000000     2156        2        0        0        0
S       57.35291300      40.94973486      13.57055800     183.84000005       0.00000000       0.00000000       0.00000000     2157        2        0        0        0
S       57.38481273      40.90470573      10.43297815     183.84000005       0.00000000       0.00000000       0.00000000     2158        2        0        0        0
S       60.11396313      39.37901700      13.61492021     183.84000005       0.00000000       0.00000000       0.00000000     2159        2        0        0        0
S       60.13621052      39.35806148      10.47710164     183.84000005       0.00000000       0.00000000       0.00000000     2160        2        0        0        0
S       62.87451497      37.80731315      13.63667507     183.84000005       0.00000000       0.00000000       0.00000000     2161        2        0        0        0
S       62.88421054      37.80948302      10.49874784     183.84000005       0.00000000       0.00000000       0.00000000     2162        2        0        0        0
S      -19.98409452      36.23616730      13.63471398     183.84000005       0.00000000       0.00000000       0.00000000     2163        2        0        0        0
S      -19.98806547      36.26065513      10.49682777     183.84000005       0.00000000       0.00000000       0.00000000     2164        2        0        0        0
S      -17.22462149      34.66710606      13.60938634     183.84000005       0.00000000       0.00000000       0.00000000     2165        2        0        0        0
S      -17.24165207      34.71348071      10.47169390     183.84000005       0.00000000       0.00000000       0.00000000     2166        2        0        0        0
S      -14.46558448      33.10158073      13.56233112     183.84000005       0.00000000       0.00000000       0.00000000     2167        2        0        0        0
S      -14.49338972      33.16987454      10.42497126     183.84000005       0.00000000       0.00000000       0.00000000     2168        2        0        0        0
S      -11.70679829      31.54100037      13.49644752     183.84000005       0.00000000       0.00000000       0.00000000     2169        2        0        0        0
S      -11.74141630      31.63158230      10.35952749     183.84000005       0.00000000       0.00000000       0.00000000     2170        2        0        0        0
S       -8.94794308      29.98668452      13.41595181     183.84000005       0.00000000       0.00000000       0.00000000     2171        2        0        0        0
S       -8.98383189      30.09989782      10.27954583     183.84000005       0.00000000       0.00000000       0.00000000     2172        2        0        0        0
S       -6.18845091      28.43978798      13.32635268     183.84000005       0.00000000       0.00000000       0.00000000     2173        2        0        0        0
S       -6.21887619      28.57539753      10.19052066     183.84000005       0.00000000       0.00000000       0.00000000     2174        2        0        0        0
S       -3.42738791      26.90121559      13.23420214     183.84000005       0.00000000       0.00000000       0.00000000     2175        2        0        0        0
S       -3.44523394      27.05778216      10.09898289     183.84000005       0.00000000       0.00000000       0.00000000     2176        2        0        0        0
S       -0.66340181      25.37148604      13.14645859     183.84000005       0.00000000       0.00000000       0.00000000     2177        2        0        0        0
S       -0.66237141      25.54591633      10.01186998     183.84000005       0.00000000       0.00000000       0.00000000     2178        2        0        0        0
S        2.10515259      23.85065066      13.06954379     183.84000005       0.00000000       0.00000000       0.00000000     2179        2        0        0        0
S        2.12932615      24.03808664       9.93555519     183.84000005       0.00000000       0.00000000       0.00000000     2180        2        0        0        0
S        4.87976744      22.33832848      13.00855855     183.84000005       0.00000000       0.00000000       0.00000000     2181        2        0        0        0
S        4.92873572      22.53230434       9.87503813     183.84000005       0.00000000       0.00000000       0.00000000     2182        2        0        0        0
S        7.66116216      20.83364092      12.96716611     183.84000005       0.00000000       0.00000000       0.00000000     2183        2        0        0        0
S        7.73437569      21.02637063       9.83386244     183.84000005       0.00000000       0.00000000       0.00000000     2184        2        0        0        0
S       10.44888139      19.33494860      12.94813685     183.84000005       0.00000000       0.00000000       0.00000000     2185        2        0        0        0
S       10.54459777      19.51779863       9.81474382     183.84000005       0.00000000       0.00000000       0.00000000     2186        2        0        0        0
S       35.13156024      56.51784411      12.80932878     183.84000005       0.00000000       0.00000000       0.00000000     2187        2        0        0        0
S       35.03571608      56.32016862       9.67575895     183.84000005       0.00000000       0.00000000       0.00000000     2188        2        0        0        0
S       37.92103833      55.00216170      12.84034651     183.84000005       0.00000000       0.00000000       0.00000000     2189        2        0        0        0
S       37.85338227      54.79808118       9.70663271     183.84000005       0.00000000       0.00000000       0.00000000     2190        2        0        0        0
S       40.70295736      53.47861371      12.89982243     183.84000005       0.00000000       0.00000000       0.00000000     2191        2        0        0        0
S       40.66503243      53.27722023       9.76579305     183.84000005       0.00000000       0.00000000       0.00000000     2192        2        0        0        0
S       43.47800882      51.94732896      12.98355354     183.84000005       0.00000000       0.00000000       0.00000000     2193        2        0        0        0
S       43.46926361      51.75668378       9.84909864     183.84000005       0.00000000       0.00000000       0.00000000     2194        2        0        0        0
S       46.24773795      50.40848562      13.08549857     183.84000005       0.00000000       0.00000000       0.00000000     2195        2        0        0        0
S       46.26467674      50.23521486       9.95058063     183.84000005       0.00000000       0.00000000       0.00000000     2196        2        0        0        0
S       49.01397852      48.86224949      13.19772611     183.84000005       0.00000000       0.00000000       0.00000000     2197        2        0        0        0
S       49.05030263      48.71128363      10.06233036     183.84000005       0.00000000       0.00000000       0.00000000     2198        2        0        0        0
S       51.77828669      47.30896688      13.31120387     183.84000005       0.00000000       0.00000000       0.00000000     2199        2        0        0        0
S       51.82599460      47.18342424      10.17530601     183.84000005       0.00000000       0.00000000       0.00000000     2200        2        0        0        0
S       54.54164849      45.74933369      13.41709452     183.84000005       0.00000000       0.00000000       0.00000000     2201        2        0        0        0
S       54.59252055      45.65064231      10.28067245     183.84000005       0.00000000       0.00000000       0.00000000     2202        2        0        0        0
S       57.30449250      44.18445963      13.50792444     183.84000005       0.00000000       0.00000000       0.00000000     2203        2        0        0        0
S       57.35134451      44.11270651      10.37099484     183.84000005       0.00000000       0.00000000       0.00000000     2204        2        0        0        0
S       60.06685390      42.61579287      13.57826093     183.84000005       0.00000000       0.00000000       0.00000000     2205        2        0        0        0
S       60.10429543      42.57016359      10.44089623     183.84000005       0.00000000       0.00000000       0.00000000     2206        2        0        0        0
S      -22.79003375      41.04496597      13.62489771     183.84000005       0.00000000       0.00000000       0.00000000     2207        2        0        0        0
S      -22.76531923      41.02418866      10.48722554     183.84000005       0.00000000       0.00000000       0.00000000     2208        2        0        0        0
S      -20.02910958      39.47365219      13.64668543     183.84000005       0.00000000       0.00000000       0.00000000     2209        2        0        0        0
S      -20.01840498      39.47636812      10.50886342     183.84000005       0.00000000       0.00000000       0.00000000     2210        2        0        0        0
S      -17.26907696      37.90349092      13.64422673     183.84000005       0.00000000       0.00000000       0.00000000     2211        2        0        0        0
S      -17.27178802      37.92852525      10.50641242     183.84000005       0.00000000       0.00000000       0.00000000     2212        2        0        0        0
S      -14.50988245      36.33601346      13.61957522     183.84000005       0.00000000       0.00000000       0.00000000     2213        2        0        0        0
S      -14.52372391      36.38252637      10.48191385     183.84000005       0.00000000       0.00000000       0.00000000     2214        2        0        0        0
S      -11.75131174      34.77261611      13.57601591     183.84000005       0.00000000       0.00000000       0.00000000     2215        2        0        0        0
S      -11.77248752      34.84009956      10.43862274     183.84000005       0.00000000       0.00000000       0.00000000     2216        2        0        0        0
S       -8.99294260      33.21455044      13.51790003     183.84000005       0.00000000       0.00000000       0.00000000     2217        2        0        0        0
S       -9.01639553      33.30266367      10.38085803     183.84000005       0.00000000       0.00000000       0.00000000     2218        2        0        0        0
S       -6.23407616      31.66285883      13.45043096     183.84000005       0.00000000       0.00000000       0.00000000     2219        2        0        0        0
S       -6.25393993      31.77111257      10.31381356     183.84000005       0.00000000       0.00000000       0.00000000     2220        2        0        0        0
S       -3.47365217      30.11834455      13.37928817     183.84000005       0.00000000       0.00000000       0.00000000     2221        2        0        0        0
S       -3.48398907      30.24570412      10.24317201     183.84000005       0.00000000       0.00000000       0.00000000     2222        2        0        0        0
S       -0.71024604      28.58154775      13.31005513     183.84000005       0.00000000       0.00000000       0.00000000     2223        2        0        0        0
S       -0.70600250      28.72603526      10.17451260     183.84000005       0.00000000       0.00000000       0.00000000     2224        2        0        0        0
S        2.05779119      27.05273356      13.24754595     183.84000005       0.00000000       0.00000000       0.00000000     2225        2        0        0        0
S        2.07987463      27.21117044      10.11261804     183.84000005       0.00000000       0.00000000       0.00000000     2226        2        0        0        0
S        4.83197524      25.53194060      13.19532211     183.84000005       0.00000000       0.00000000       0.00000000     2227        2        0        0        0
S        4.87295244      25.69984339      10.06095328     183.84000005       0.00000000       0.00000000       0.00000000     2228        2        0        0        0
S        7.61314417      24.01891601      13.15576194     183.84000005       0.00000000       0.00000000       0.00000000     2229        2        0        0        0
S        7.67227419      24.19049061      10.02176370     183.84000005       0.00000000       0.00000000       0.00000000     2230        2        0        0        0
S       10.40103283      22.51278349      13.13073037     183.84000005       0.00000000       0.00000000       0.00000000     2231        2        0        0        0
S       10.47678196      22.68106036       9.99681120     183.84000005       0.00000000       0.00000000       0.00000000     2232        2        0        0        0
S       35.06014028      59.68678426      12.61134990     183.84000005       0.00000000       0.00000000       0.00000000     2233        2        0        0        0
S       34.94666092      59.48940163       9.47752785     183.84000005       0.00000000       0.00000000       0.00000000     2234        2        0        0        0
S       37.85070213      58.18043279      12.62983939     183.84000005       0.00000000       0.00000000       0.00000000     2235        2        0        0        0
S       37.77132280      57.96800160       9.49598454     183.84000005       0.00000000       0.00000000       0.00000000     2236        2        0        0        0
S       40.63422551      56.66701643      12.68643548     183.84000005       0.00000000       0.00000000       0.00000000     2237        2        0        0        0
S       40.59072242      56.44944625       9.55253338     183.84000005       0.00000000       0.00000000       0.00000000     2238        2        0        0        0
S       43.41118893      55.14594427      12.77645456     183.84000005       0.00000000       0.00000000       0.00000000     2239        2        0        0        0
S       43.40285031      54.93290751       9.64246209     183.84000005       0.00000000       0.00000000       0.00000000     2240        2        0        0        0
S       46.18295080      53.61681918      12.89273458     183.84000005       0.00000000       0.00000000       0.00000000     2241        2        0        0        0
S       46.20578290      53.41692276       9.75858486     183.84000005       0.00000000       0.00000000       0.00000000     2242        2        0        0        0
S       48.95129008      52.07934855      13.02572384     183.84000005       0.00000000       0.00000000       0.00000000     2243        2        0        0        0
S       48.99810129      51.89946867       9.89130900     183.84000005       0.00000000       0.00000000       0.00000000     2244        2        0        0        0
S       51.71781994      50.53350586      13.16445404     183.84000005       0.00000000       0.00000000       0.00000000     2245        2        0        0        0
S       51.77937269      50.37840468      10.02961930     183.84000005       0.00000000       0.00000000       0.00000000     2246        2        0        0        0
S       54.48357558      48.97975280      13.29809283     183.84000005       0.00000000       0.00000000       0.00000000     2247        2        0        0        0
S       54.55030302      48.85206138      10.16268969     183.84000005       0.00000000       0.00000000       0.00000000     2248        2        0        0        0
S       57.24895030      47.41911940      13.41743695     183.84000005       0.00000000       0.00000000       0.00000000     2249        2        0        0        0
S       57.31247557      47.31965685      10.28138414     183.84000005       0.00000000       0.00000000       0.00000000     2250        2        0        0        0
S      -25.60472771      45.85310686      13.51579371     183.84000005       0.00000000       0.00000000       0.00000000     2251        2        0        0        0
S      -25.55068393      45.78138752      10.37911036     183.84000005       0.00000000       0.00000000       0.00000000     2252        2        0        0        0
S      -22.84051081      44.28349112      13.58919978     183.84000005       0.00000000       0.00000000       0.00000000     2253        2        0        0        0
S      -22.79982028      44.23823314      10.45199540     183.84000005       0.00000000       0.00000000       0.00000000     2254        2        0        0        0
S      -20.07730024      42.71212438      13.63619528     183.84000005       0.00000000       0.00000000       0.00000000     2255        2        0        0        0
S      -20.05153162      42.69167981      10.49863451     183.84000005       0.00000000       0.00000000       0.00000000     2256        2        0        0        0
S      -17.31527252      41.14081053      13.65740594     183.84000005       0.00000000       0.00000000       0.00000000     2257        2        0        0        0
S      -17.30395024      41.14347646      10.51966679     183.84000005       0.00000000       0.00000000       0.00000000     2258        2        0        0        0
S      -14.55442770      39.57122176      13.65512951     183.84000005       0.00000000       0.00000000       0.00000000     2259        2        0        0        0
S      -14.55532545      39.59544899      10.51737046     183.84000005       0.00000000       0.00000000       0.00000000     2260        2        0        0        0
S      -11.79454303      38.00484645      13.63295948     183.84000005       0.00000000       0.00000000       0.00000000     2261        2        0        0        0
S      -11.80399617      38.04932241      10.49530623     183.84000005       0.00000000       0.00000000       0.00000000     2262        2        0        0        0
S       -9.03514899      36.44297299      13.59546280     183.84000005       0.00000000       0.00000000       0.00000000     2263        2        0        0        0
S       -9.04840966      36.50658920      10.45801106     183.84000005       0.00000000       0.00000000       0.00000000     2264        2        0        0        0
S       -6.27547974      34.88664291      13.54783359     183.84000005       0.00000000       0.00000000       0.00000000     2265        2        0        0        0
S       -6.28722066      34.96836735      10.41065981     183.84000005       0.00000000       0.00000000       0.00000000     2266        2        0        0        0
S       -3.51441568      33.33664548      13.49541828     183.84000005       0.00000000       0.00000000       0.00000000     2267        2        0        0        0
S       -3.51943335      33.43531103      10.35860420     183.84000005       0.00000000       0.00000000       0.00000000     2268        2        0        0        0
S       -0.75049975      31.79354154      13.44312018     183.84000005       0.00000000       0.00000000       0.00000000     2269        2        0        0        0
S       -0.74456016      31.90760794      10.30674945     183.84000005       0.00000000       0.00000000       0.00000000     2270        2        0        0        0
S        2.01790578      30.25771585      13.39479561     183.84000005       0.00000000       0.00000000       0.00000000     2271        2        0        0        0
S        2.03734464      30.38503079      10.25893605     183.84000005       0.00000000       0.00000000       0.00000000     2272        2        0        0        0
S        4.79229233      28.72944237      13.35292217     183.84000005       0.00000000       0.00000000       0.00000000     2273        2        0        0        0
S        4.82580473      28.86704314      10.21757519     183.84000005       0.00000000       0.00000000       0.00000000     2274        2        0        0        0
S        7.57354379      27.20884853      13.31879162     183.84000005       0.00000000       0.00000000       0.00000000     2275        2        0        0        0
S        7.62016921      27.35278074      10.18384527     183.84000005       0.00000000       0.00000000       0.00000000     2276        2        0        0        0
S       10.36154088      25.69558965      13.29326451     183.84000005       0.00000000       0.00000000       0.00000000     2277        2        0        0        0
S       10.41976156      25.84078382      10.15850315     183.84000005       0.00000000       0.00000000       0.00000000     2278        2        0        0        0
S       13.15509403      24.18830594      13.27769363     183.84000005       0.00000000       0.00000000       0.00000000     2279        2        0        0        0
S       13.22375688      24.32867540      10.14285582     183.84000005       0.00000000       0.00000000       0.00000000     2280        2        0        0        0
S       37.76802579      61.34903583      12.42015285     183.84000005       0.00000000       0.00000000       0.00000000     2281        2        0        0        0
S       37.67711600      61.14654762       9.28535100     183.84000005       0.00000000       0.00000000       0.00000000     2282        2        0        0        0
S       40.55297167      59.84520705      12.46498870     183.84000005       0.00000000       0.00000000       0.00000000     2283        2        0        0        0
S       40.50408463      59.62833907       9.33033293     183.84000005       0.00000000       0.00000000       0.00000000     2284        2        0        0        0
S       43.33204083      58.33468191      12.55342585     183.84000005       0.00000000       0.00000000       0.00000000     2285        2        0        0        0
S       43.32452017      58.11342648       9.41908377     183.84000005       0.00000000       0.00000000       0.00000000     2286        2        0        0        0
S       46.10635502      56.81631026      12.67790762     183.84000005       0.00000000       0.00000000       0.00000000     2287        2        0        0        0
S       46.13585253      56.60063780       9.54390804     183.84000005       0.00000000       0.00000000       0.00000000     2288        2        0        0        0
S       48.87757390      55.28904971      12.82759546     183.84000005       0.00000000       0.00000000       0.00000000     2289        2        0        0        0
S       48.93604768      55.08783317       9.69378522     183.84000005       0.00000000       0.00000000       0.00000000     2290        2        0        0        0
S       51.64731133      53.75221823      12.98949161     183.84000005       0.00000000       0.00000000       0.00000000     2291        2        0        0        0
S       51.72421497      53.57233473       9.85557478     183.84000005       0.00000000       0.00000000       0.00000000     2292        2        0        0        0
S       54.41661870      52.20580096      13.15040994     183.84000005       0.00000000       0.00000000       0.00000000     2293        2        0        0        0
S       54.50087017      52.05172195      10.01605099     183.84000005       0.00000000       0.00000000       0.00000000     2294        2        0        0        0
S      -28.43278870      50.65061445      13.29892441     183.84000005       0.00000000       0.00000000       0.00000000     2295        2        0        0        0
S      -28.35095556      50.52453224      10.16387478     183.84000005       0.00000000       0.00000000       0.00000000     2296        2        0        0        0
S      -25.66390270      49.08816780      13.42659450     183.84000005       0.00000000       0.00000000       0.00000000     2297        2        0        0        0
S      -25.59181361      48.99047384      10.29076407     183.84000005       0.00000000       0.00000000       0.00000000     2298        2        0        0        0
S      -22.89578740      47.52038546      13.52828959     183.84000005       0.00000000       0.00000000       0.00000000     2299        2        0        0        0
S      -22.83799959      47.45023516      10.39173629     183.84000005       0.00000000       0.00000000       0.00000000     2300        2        0        0        0
S      -20.12888139      45.94933896      13.60189758     183.84000005       0.00000000       0.00000000       0.00000000     2301        2        0        0        0
S      -20.08735723      45.90515674      10.46477913     183.84000005       0.00000000       0.00000000       0.00000000     2302        2        0        0        0
S      -17.36345895      44.37704295      13.64778828     183.84000005       0.00000000       0.00000000       0.00000000     2303        2        0        0        0
S      -17.33794014      44.35690030      10.51029965     183.84000005       0.00000000       0.00000000       0.00000000     2304        2        0        0        0
S      -14.59957108      42.80536997      13.66826555     183.84000005       0.00000000       0.00000000       0.00000000     2305        2        0        0        0
S      -14.58797128      42.80723488      10.53059412     183.84000005       0.00000000       0.00000000       0.00000000     2306        2        0        0        0
S      -11.83700742      41.23596820      13.66708383     183.84000005       0.00000000       0.00000000       0.00000000     2307        2        0        0        0
S      -11.83581294      41.25787466      10.52937867     183.84000005       0.00000000       0.00000000       0.00000000     2308        2        0        0        0
S       -9.07527314      39.67024711      13.64900500     183.84000005       0.00000000       0.00000000       0.00000000     2309        2        0        0        0
S       -9.07996500      39.71037316      10.51136966     183.84000005       0.00000000       0.00000000       0.00000000     2310        2        0        0        0
S       -6.31357322      38.10934716      13.61934029     183.84000005       0.00000000       0.00000000       0.00000000     2311        2        0        0        0
S       -6.31915382      38.16601575      10.48185310     183.84000005       0.00000000       0.00000000       0.00000000     2312        2        0        0        0
S       -3.55077465      36.55413096      13.58341664     183.84000005       0.00000000       0.00000000       0.00000000     2313        2        0        0        0
S       -3.55245315      36.62576782      10.44615399     183.84000005       0.00000000       0.00000000       0.00000000     2314        2        0        0        0
S       -0.78542317      35.00523911      13.54594185     183.84000005       0.00000000       0.00000000       0.00000000     2315        2        0        0        0
S       -0.77939150      35.09027855      10.40897901     183.84000005       0.00000000       0.00000000       0.00000000     2316        2        0        0        0
S        1.98408964      33.46316794      13.51039597     183.84000005       0.00000000       0.00000000       0.00000000     2317        2        0        0        0
S        2.00001018      33.55991752      10.37379592     183.84000005       0.00000000       0.00000000       0.00000000     2318        2        0        0        0
S        4.75922195      31.92835863      13.47871494     183.84000005       0.00000000       0.00000000       0.00000000     2319        2        0        0        0
S        4.78537977      32.03481336      10.34250302     183.84000005       0.00000000       0.00000000       0.00000000     2320        2        0        0        0
S        7.54087187      30.40116664      13.45152017     183.84000005       0.00000000       0.00000000       0.00000000     2321        2        0        0        0
S        7.57621478      30.51477409      10.31564758     183.84000005       0.00000000       0.00000000       0.00000000     2322        2        0        0        0
S       10.32902864      28.88156753      13.42889207     183.84000005       0.00000000       0.00000000       0.00000000     2323        2        0        0        0
S       10.37203062      28.99896581      10.29322294     183.84000005       0.00000000       0.00000000       0.00000000     2324        2        0        0        0
S       13.12269175      27.36862715      13.41134575     183.84000005       0.00000000       0.00000000       0.00000000     2325        2        0        0        0
S       13.17228557      27.48547861      10.27568964     183.84000005       0.00000000       0.00000000       0.00000000     2326        2        0        0        0
S       37.67470368      64.50902466      12.23077004     183.84000005       0.00000000       0.00000000       0.00000000     2327        2        0        0        0
S       37.57316106      64.33574043       9.09436214     183.84000005       0.00000000       0.00000000       0.00000000     2328        2        0        0        0
S       40.46067710      63.01305042      12.25456497     183.84000005       0.00000000       0.00000000       0.00000000     2329        2        0        0        0
S       40.40658560      62.81683397       9.11831917     183.84000005       0.00000000       0.00000000       0.00000000     2330        2        0        0        0
S       43.24164339      61.51207608      12.33150937     183.84000005       0.00000000       0.00000000       0.00000000     2331        2        0        0        0
S       43.23480608      61.30148897       9.19589774     183.84000005       0.00000000       0.00000000       0.00000000     2332        2        0        0        0
S       46.01854065      60.00436522      12.45492409     183.84000005       0.00000000       0.00000000       0.00000000     2333        2        0        0        0
S       46.05466743      59.78925710       9.32020060     183.84000005       0.00000000       0.00000000       0.00000000     2334        2        0        0        0
S       48.79289452      58.48802962      12.61373802     183.84000005       0.00000000       0.00000000       0.00000000     2335        2        0        0        0
S       48.86344151      58.27849849       9.47983201     183.84000005       0.00000000       0.00000000       0.00000000     2336        2        0        0        0
S       51.56633946      56.96144344      12.79345532     183.84000005       0.00000000       0.00000000       0.00000000     2337        2        0        0        0
S       51.65958105      56.76645635       9.65999564     183.84000005       0.00000000       0.00000000       0.00000000     2338        2        0        0        0
S      -31.27862263      55.42379806      12.97848716     183.84000005       0.00000000       0.00000000       0.00000000     2339        2        0        0        0
S      -31.17539596      55.25010823       9.84495172     183.84000005       0.00000000       0.00000000       0.00000000     2340        2        0        0        0
S      -28.50449419      53.87544680      13.15479478     183.84000005       0.00000000       0.00000000       0.00000000     2341        2        0        0        0
S      -28.40267609      53.72722545      10.02071080     183.84000005       0.00000000       0.00000000       0.00000000     2342        2        0        0        0
S      -25.73032877      52.31777688      13.31167381     183.84000005       0.00000000       0.00000000       0.00000000     2343        2        0        0        0
S      -25.63852673      52.19689648      10.17676271     183.84000005       0.00000000       0.00000000       0.00000000     2344        2        0        0        0
S      -22.95686030      50.75280515      13.44231841     183.84000005       0.00000000       0.00000000       0.00000000     2345        2        0        0        0
S      -22.88048419      50.65941558      10.30653010     183.84000005       0.00000000       0.00000000       0.00000000     2346        2        0        0        0
S      -20.18477222      49.18280293      13.54352846     183.84000005       0.00000000       0.00000000       0.00000000     2347        2        0        0        0
S      -20.12629379      49.11588900      10.40698225     183.84000005       0.00000000       0.00000000       0.00000000     2348        2        0        0        0
S      -17.41450308      47.61002347      13.61505308     183.84000005       0.00000000       0.00000000       0.00000000     2349        2        0        0        0
S      -17.37396760      47.56784445      10.47795459     183.84000005       0.00000000       0.00000000       0.00000000     2350        2        0        0        0
S      -14.64618354      46.03657218      13.65890519     183.84000005       0.00000000       0.00000000       0.00000000     2351        2        0        0        0
S      -14.62172985      46.01696029      10.52146485     183.84000005       0.00000000       0.00000000       0.00000000     2352        2        0        0        0
S      -11.87963641      44.46432702      13.67876177     183.84000005       0.00000000       0.00000000       0.00000000     2353        2        0        0        0
S      -11.86795351      44.46490465      10.54115516     183.84000005       0.00000000       0.00000000       0.00000000     2354        2        0        0        0
S       -9.11437074      42.89488482      13.67944876     183.84000005       0.00000000       0.00000000       0.00000000     2355        2        0        0        0
S       -9.11115422      42.91324838      10.54180546     183.84000005       0.00000000       0.00000000       0.00000000     2356        2        0        0        0
S       -6.34957057      41.32955019      13.66640889     183.84000005       0.00000000       0.00000000       0.00000000     2357        2        0        0        0
S       -6.35005005      41.36339867      10.52881322     183.84000005       0.00000000       0.00000000       0.00000000     2358        2        0        0        0
S       -3.58410246      39.76934682      13.64510824     183.84000005       0.00000000       0.00000000       0.00000000     2359        2        0        0        0
S       -3.58369333      39.81656646      10.50762155     183.84000005       0.00000000       0.00000000       0.00000000     2360        2        0        0        0
S       -0.81653561      38.21506810      13.62035999     183.84000005       0.00000000       0.00000000       0.00000000     2361        2        0        0        0
S       -0.81157348      38.27378056      10.48304478     183.84000005       0.00000000       0.00000000       0.00000000     2362        2        0        0        0
S        1.95470347      36.66734898      13.59569787     183.84000005       0.00000000       0.00000000       0.00000000     2363        2        0        0        0
S        1.96635492      36.73590400      10.45860443     183.84000005       0.00000000       0.00000000       0.00000000     2364        2        0        0        0
S        4.73104354      35.12678705      13.57300719     183.84000005       0.00000000       0.00000000       0.00000000     2365        2        0        0        0
S        4.74979273      35.20364628      10.43616508     183.84000005       0.00000000       0.00000000       0.00000000     2366        2        0        0        0
S        7.51339606      33.59390764      13.55271077     183.84000005       0.00000000       0.00000000       0.00000000     2367        2        0        0        0
S        7.53831303      33.67741847      10.41610021     183.84000005       0.00000000       0.00000000       0.00000000     2368        2        0        0        0
S       10.30185221      32.06888287      13.53448305     183.84000005       0.00000000       0.00000000       0.00000000     2369        2        0        0        0
S       10.33151016      32.15698070      10.39802656     183.84000005       0.00000000       0.00000000       0.00000000     2370        2        0        0        0
S       13.09560117      30.55102543      13.51819453     183.84000005       0.00000000       0.00000000       0.00000000     2371        2        0        0        0
S       13.12895923      30.64094441      10.38177323     183.84000005       0.00000000       0.00000000       0.00000000     2372        2        0        0        0
S       15.89311710      29.03827527      13.50466166     183.84000005       0.00000000       0.00000000       0.00000000     2373        2        0        0        0
S       15.92999617      29.12647617      10.36814249     183.84000005       0.00000000       0.00000000       0.00000000     2374        2        0        0        0
S       40.35989814      66.17257980      12.07547320     183.84000005       0.00000000       0.00000000       0.00000000     2375        2        0        0        0
S       40.30092656      66.01587160       8.93704258     183.84000005       0.00000000       0.00000000       0.00000000     2376        2        0        0        0
S       43.14224343      64.67915372      12.13115237     183.84000005       0.00000000       0.00000000       0.00000000     2377        2        0        0        0
S       43.13549997      64.49939054       8.99348480     183.84000005       0.00000000       0.00000000       0.00000000     2378        2        0        0        0
S       45.92117767      63.18064647      12.24254916     183.84000005       0.00000000       0.00000000       0.00000000     2379        2        0        0        0
S       45.96304261      62.98587832       9.10624322     183.84000005       0.00000000       0.00000000       0.00000000     2380        2        0        0        0
S       48.69819731      61.67466529      12.39994956     183.84000005       0.00000000       0.00000000       0.00000000     2381        2        0        0        0
S       48.78027527      61.47459233       9.26512602     183.84000005       0.00000000       0.00000000       0.00000000     2382        2        0        0        0
S      -34.14357649      60.15864777      12.58873228     183.84000005       0.00000000       0.00000000       0.00000000     2383        2        0        0        0
S      -34.03373460      59.96338659       9.45503442     183.84000005       0.00000000       0.00000000       0.00000000     2384        2        0        0        0
S      -31.36559838      58.63072065      12.79149223     183.84000005       0.00000000       0.00000000       0.00000000     2385        2        0        0        0
S      -31.24225814      58.44914738       9.65829551     183.84000005       0.00000000       0.00000000       0.00000000     2386        2        0        0        0
S      -28.58613175      57.09043687      12.99148963     183.84000005       0.00000000       0.00000000       0.00000000     2387        2        0        0        0
S      -28.46256419      56.92901422       9.85810928     183.84000005       0.00000000       0.00000000       0.00000000     2388        2        0        0        0
S      -25.80579850      55.53884009      13.17533077     183.84000005       0.00000000       0.00000000       0.00000000     2389        2        0        0        0
S      -25.69224448      55.40138208      10.04124444     183.84000005       0.00000000       0.00000000       0.00000000     2390        2        0        0        0
S      -23.02571494      53.97791598      13.33403121     183.84000005       0.00000000       0.00000000       0.00000000     2391        2        0        0        0
S      -22.92871441      53.86604533      10.19900814     183.84000005       0.00000000       0.00000000       0.00000000     2392        2        0        0        0
S      -20.24696983      52.41004411      13.46283632     183.84000005       0.00000000       0.00000000       0.00000000     2393        2        0        0        0
S      -20.16967288      52.32381891      10.32690419     183.84000005       0.00000000       0.00000000       0.00000000     2394        2        0        0        0
S      -17.47031661      50.83767187      13.56045020     183.84000005       0.00000000       0.00000000       0.00000000     2395        2        0        0        0
S      -17.41316791      50.77605230      10.42379642     183.84000005       0.00000000       0.00000000       0.00000000     2396        2        0        0        0
S      -14.69607919      49.26312030      13.62821595     183.84000005       0.00000000       0.00000000       0.00000000     2397        2        0        0        0
S      -14.65750783      49.22428361      10.49107222     183.84000005       0.00000000       0.00000000       0.00000000     2398        2        0        0        0
S      -11.92416966      47.68851135      13.66940573     183.84000005       0.00000000       0.00000000       0.00000000     2399        2        0        0        0
S      -11.90113153      47.67007763      10.53197919     183.84000005       0.00000000       0.00000000       0.00000000     2400        2        0        0        0
S       -9.15413881      46.11569629      13.68865905     183.84000005       0.00000000       0.00000000       0.00000000     2401        2        0        0        0
S       -9.14257407      46.11494638      10.55110479     183.84000005       0.00000000       0.00000000       0.00000000     2402        2        0        0        0
S       -6.38518151      44.54621304      13.69142962     183.84000005       0.00000000       0.00000000       0.00000000     2403        2        0        0        0
S       -6.38052030      44.56033930      10.55384850     183.84000005       0.00000000       0.00000000       0.00000000     2404        2        0        0        0
S       -3.61616157      42.98130731      13.68334128     183.84000005       0.00000000       0.00000000       0.00000000     2405        2        0        0        0
S       -3.61393093      43.00763446      10.54579157     183.84000005       0.00000000       0.00000000       0.00000000     2406        2        0        0        0
S       -0.84566216      41.42198853      13.66947556     183.84000005       0.00000000       0.00000000       0.00000000     2407        2        0        0        0
S       -0.84216790      41.45815864      10.53200173     183.84000005       0.00000000       0.00000000       0.00000000     2408        2        0        0        0
S        1.92787280      39.86909721      13.65370296     183.84000005       0.00000000       0.00000000       0.00000000     2409        2        0        0        0
S        1.93495418      39.91319035      10.51633938     183.84000005       0.00000000       0.00000000       0.00000000     2410        2        0        0        0
S        4.70586349      38.32340341      13.63825081     183.84000005       0.00000000       0.00000000       0.00000000     2411        2        0        0        0
S        4.71724887      38.37393972      10.50101779     183.84000005       0.00000000       0.00000000       0.00000000     2412        2        0        0        0
S        7.48925546      36.78558910      13.62376147     183.84000005       0.00000000       0.00000000       0.00000000     2413        2        0        0        0
S        7.50435946      36.84135959      10.48665077     183.84000005       0.00000000       0.00000000       0.00000000     2414        2        0        0        0
S       10.27824510      35.25597046      13.60991110     183.84000005       0.00000000       0.00000000       0.00000000     2415        2        0        0        0
S       10.29591749      35.31575723      10.47287953     183.84000005       0.00000000       0.00000000       0.00000000     2416        2        0        0        0
S       13.07220409      33.73400494      13.59627240     183.84000005       0.00000000       0.00000000       0.00000000     2417        2        0        0        0
S       13.09153013      33.79626903      10.45924944     183.84000005       0.00000000       0.00000000       0.00000000     2418        2        0        0        0
S       15.86981303      32.21782260      13.58307011     183.84000005       0.00000000       0.00000000       0.00000000     2419        2        0        0        0
S       15.89063318      32.28047400      10.44598230     183.84000005       0.00000000       0.00000000       0.00000000     2420        2        0        0        0
S       40.25352453      69.32651492      11.94471096     183.84000005       0.00000000       0.00000000       0.00000000     2421        2        0        0        0
S       40.19046948      69.22374108       8.80411440     183.84000005       0.00000000       0.00000000       0.00000000     2422        2        0        0        0
S       43.03683536      67.83857067      11.97191909     183.84000005       0.00000000       0.00000000       0.00000000     2423        2        0        0        0
S       43.02948578      67.70682569       8.83182028     183.84000005       0.00000000       0.00000000       0.00000000     2424        2        0        0        0
S       45.81709814      66.34711832      12.06141948     183.84000005       0.00000000       0.00000000       0.00000000     2425        2        0        0        0
S       45.86308314      66.19183987       8.92286496     183.84000005       0.00000000       0.00000000       0.00000000     2426        2        0        0        0
S      -37.02282340      64.84971692      12.20594342     183.84000005       0.00000000       0.00000000       0.00000000     2427        2        0        0        0
S      -36.93091548      64.67866988       9.06943976     183.84000005       0.00000000       0.00000000       0.00000000     2428        2        0        0        0
S      -34.24371948      63.34335163      12.39256512     183.84000005       0.00000000       0.00000000       0.00000000     2429        2        0        0        0
S      -34.11819951      63.16611592       9.25791167     183.84000005       0.00000000       0.00000000       0.00000000     2430        2        0        0        0
S      -31.46246626      61.82516560      12.60364278     183.84000005       0.00000000       0.00000000       0.00000000     2431        2        0        0        0
S      -31.31870576      61.65166182       9.47016428     183.84000005       0.00000000       0.00000000       0.00000000     2432        2        0        0        0
S      -28.67834424      60.29363066      12.82027444     183.84000005       0.00000000       0.00000000       0.00000000     2433        2        0        0        0
S      -28.53158991      60.13229952       9.68714296     183.84000005       0.00000000       0.00000000       0.00000000     2434        2        0        0        0
S      -25.89192840      58.74911937      13.02620440     183.84000005       0.00000000       0.00000000       0.00000000     2435        2        0        0        0
S      -25.75448177      58.60584318       9.89267390     183.84000005       0.00000000       0.00000000       0.00000000     2436        2        0        0        0
S      -23.10466448      57.19341715      13.20985135     183.84000005       0.00000000       0.00000000       0.00000000     2437        2        0        0        0
S      -22.98463291      57.07154796      10.07546551     183.84000005       0.00000000       0.00000000       0.00000000     2438        2        0        0        0
S      -20.31817300      55.62891868      13.36449738     183.84000005       0.00000000       0.00000000       0.00000000     2439        2        0        0        0
S      -20.21966444      55.52989095      10.22913611     183.84000005       0.00000000       0.00000000       0.00000000     2440        2        0        0        0
S      -17.53372414      54.05814969      13.48745646     183.84000005       0.00000000       0.00000000       0.00000000     2441        2        0        0        0
S      -17.45772550      53.98205537      10.35123550     183.84000005       0.00000000       0.00000000       0.00000000     2442        2        0        0        0
S      -14.75202640      52.48355740      13.57902869     183.84000005       0.00000000       0.00000000       0.00000000     2443        2        0        0        0
S      -14.69731943      52.42944678      10.44217993     183.84000005       0.00000000       0.00000000       0.00000000     2444        2        0        0        0
S      -11.97323811      50.90743723      13.64170025     183.84000005       0.00000000       0.00000000       0.00000000     2445        2        0        0        0
S      -11.93709441      50.87347490      10.50446061     183.84000005       0.00000000       0.00000000       0.00000000     2446        2        0        0        0
S       -9.19704239      49.33188613      13.67955271     183.84000005       0.00000000       0.00000000       0.00000000     2447        2        0        0        0
S       -9.17570628      49.31551709      10.54211071     183.84000005       0.00000000       0.00000000       0.00000000     2448        2        0        0        0
S       -6.42271347      47.75872862      13.69775493     183.84000005       0.00000000       0.00000000       0.00000000     2449        2        0        0        0
S       -6.41184781      47.75693838      10.56023565     183.84000005       0.00000000       0.00000000       0.00000000     2450        2        0        0        0
S       -3.64914165      46.18949955      13.70194426     183.84000005       0.00000000       0.00000000       0.00000000     2451        2        0        0        0
S       -3.64437525      46.19915783      10.56441266     183.84000005       0.00000000       0.00000000       0.00000000     2452        2        0        0        0
S       -0.87491105      44.62548300      13.69747962     183.84000005       0.00000000       0.00000000       0.00000000     2453        2        0        0        0
S       -0.87245864      44.64368824      10.55996662     183.84000005       0.00000000       0.00000000       0.00000000     2454        2        0        0        0
S        1.90154619      43.06778814      13.68871280     183.84000005       0.00000000       0.00000000       0.00000000     2455        2        0        0        0
S        1.90431715      43.09213729      10.55123801     183.84000005       0.00000000       0.00000000       0.00000000     2456        2        0        0        0
S        4.68168698      41.51741179      13.67847829     183.84000005       0.00000000       0.00000000       0.00000000     2457        2        0        0        0
S        4.68597519      41.54613802      10.54104486     183.84000005       0.00000000       0.00000000       0.00000000     2458        2        0        0        0
S        7.46653330      39.97521134      13.66799548     183.84000005       0.00000000       0.00000000       0.00000000     2459        2        0        0        0
S        7.47229209      40.00713962      10.53059711     183.84000005       0.00000000       0.00000000       0.00000000     2460        2        0        0        0
S       10.25640266      38.44164565      13.65733078     183.84000005       0.00000000       0.00000000       0.00000000     2461        2        0        0        0
S       10.26295821      38.47597474      10.51993982     183.84000005       0.00000000       0.00000000       0.00000000     2462        2        0        0        0
S       13.05084169      36.91628297      13.64615043     183.84000005       0.00000000       0.00000000       0.00000000     2463        2        0        0        0
S       13.05759550      36.95230024      10.50872769     183.84000005       0.00000000       0.00000000       0.00000000     2464        2        0        0        0
S       15.84873429      35.39736335      13.63441624     183.84000005       0.00000000       0.00000000       0.00000000     2465        2        0        0        0
S       15.85564777      35.43416578      10.49693102     183.84000005       0.00000000       0.00000000       0.00000000     2466        2        0        0        0
S       18.64855119      33.88169004      13.62276731     183.84000005       0.00000000       0.00000000       0.00000000     2467        2        0        0        0
S       18.65618125      33.91804042      10.48518090     183.84000005       0.00000000       0.00000000       0.00000000     2468        2        0        0        0
S       42.92826299      70.99298104      11.86833714     183.84000005       0.00000000       0.00000000       0.00000000     2469        2        0        0        0
S       42.91993372      70.92107371       8.72625458     183.84000005       0.00000000       0.00000000       0.00000000     2470        2        0        0        0
S      -39.90916079      69.50669540      11.92914292     183.84000005       0.00000000       0.00000000       0.00000000     2471        2        0        0        0
S      -39.86090873      69.40560472       8.78830048     183.84000005       0.00000000       0.00000000       0.00000000     2472        2        0        0        0
S      -37.12956732      68.01578109      12.05127901     183.84000005       0.00000000       0.00000000       0.00000000     2473        2        0        0        0
S      -37.03057630      67.89079535       8.91264600     183.84000005       0.00000000       0.00000000       0.00000000     2474        2        0        0        0
S      -34.34952033      66.51726769      12.22445805     183.84000005       0.00000000       0.00000000       0.00000000     2475        2        0        0        0
S      -34.21092705      66.37609155       9.08824837     183.84000005       0.00000000       0.00000000       0.00000000     2476        2        0        0        0
S      -31.56673958      65.00783268      12.43268952     183.84000005       0.00000000       0.00000000       0.00000000     2477        2        0        0        0
S      -31.40400494      64.85984775       9.29835691     183.84000005       0.00000000       0.00000000       0.00000000     2478        2        0        0        0
S      -28.77975178      63.48492522      12.65643805     183.84000005       0.00000000       0.00000000       0.00000000     2479        2        0        0        0
S      -28.60972687      63.33946964       9.52307868     183.84000005       0.00000000       0.00000000       0.00000000     2480        2        0        0        0
S      -25.98862543      61.94794693      12.87703978     183.84000005       0.00000000       0.00000000       0.00000000     2481        2        0        0        0
S      -25.82595786      61.81255614       9.74372179     183.84000005       0.00000000       0.00000000       0.00000000     2482        2        0        0        0
S      -23.19483505      60.39822801      13.08011641     183.84000005       0.00000000       0.00000000       0.00000000     2483        2        0        0        0
S      -23.04974384      60.27793080       9.94615790     183.84000005       0.00000000       0.00000000       0.00000000     2484        2        0        0        0
S      -20.40047757      58.83809949      13.25664137     183.84000005       0.00000000       0.00000000       0.00000000     2485        2        0        0        0
S      -20.27846802      58.73575127      10.12174171     183.84000005       0.00000000       0.00000000       0.00000000     2486        2        0        0        0
S      -17.60746897      57.27011572      13.40230087     183.84000005       0.00000000       0.00000000       0.00000000     2487        2        0        0        0
S      -17.51028758      57.18705677      10.26646546     183.84000005       0.00000000       0.00000000       0.00000000     2488        2        0        0        0
S      -14.81709985      55.69673653      13.51617234     183.84000005       0.00000000       0.00000000       0.00000000     2489        2        0        0        0
S      -14.74397306      55.63320390      10.37959254     183.84000005       0.00000000       0.00000000       0.00000000     2490        2        0        0        0
S      -12.02997684      54.12028714      13.59967192     183.84000005       0.00000000       0.00000000       0.00000000     2491        2        0        0        0
S      -11.97854151      54.07549995      10.46259475     183.84000005       0.00000000       0.00000000       0.00000000     2492        2        0        0        0
S       -9.24610804      52.54298507      13.65593343     183.84000005       0.00000000       0.00000000       0.00000000     2493        2        0        0        0
S       -9.21297505      52.51514122      10.51857972     183.84000005       0.00000000       0.00000000       0.00000000     2494        2        0        0        0
S       -6.46497529      50.96689598      13.68940464     183.84000005       0.00000000       0.00000000       0.00000000     2495        2        0        0        0
S       -6.44613155      50.95330730      10.55193331     183.84000005       0.00000000       0.00000000       0.00000000     2496        2        0        0        0
S       -3.68559856      49.39387093      13.70536806     183.84000005       0.00000000       0.00000000       0.00000000     2497        2        0        0        0
S       -3.67684763      49.39129307      10.56786543     183.84000005       0.00000000       0.00000000       0.00000000     2498        2        0        0        0
S       -0.90661153      47.82552971      13.70925941     183.84000005       0.00000000       0.00000000       0.00000000     2499        2        0        0        0
S       -0.90411070      47.83062423      10.57175408     183.84000005       0.00000000       0.00000000       0.00000000     2500        2        0        0        0
S        1.87358018      46.26331244      13.70588965     183.84000005       0.00000000       0.00000000       0.00000000     2501        2        0        0        0
S        1.87279063      46.27309813      10.56838804     183.84000005       0.00000000       0.00000000       0.00000000     2502        2        0        0        0
S        4.65651912      44.70851786      13.69881729     183.84000005       0.00000000       0.00000000       0.00000000     2503        2        0        0        0
S        4.65419335      44.72068144      10.56130968     183.84000005       0.00000000       0.00000000       0.00000000     2504        2        0        0        0
S        7.44335080      43.16224235      13.69010318     183.84000005       0.00000000       0.00000000       0.00000000     2505        2        0        0        0
S        7.44012435      43.17526494      10.55257268     183.84000005       0.00000000       0.00000000       0.00000000     2506        2        0        0        0
S       10.23455732      41.62512741      13.68055932     183.84000005       0.00000000       0.00000000       0.00000000     2507        2        0        0        0
S       10.23042019      41.63820010      10.54298728     183.84000005       0.00000000       0.00000000       0.00000000     2508        2        0        0        0
S       13.02986701      40.09687300      13.67034967     183.84000005       0.00000000       0.00000000       0.00000000     2509        2        0        0        0
S       13.02476123      40.10968827      10.53271914     183.84000005       0.00000000       0.00000000       0.00000000     2510        2        0        0        0
S       15.82836442      38.57581166      13.65958420     183.84000005       0.00000000       0.00000000       0.00000000     2511        2        0        0        0
S       15.82258773      38.58829881      10.52188630     183.84000005       0.00000000       0.00000000       0.00000000     2512        2        0        0        0
S       18.62868971      37.05880646      13.64867331     183.84000005       0.00000000       0.00000000       0.00000000     2513        2        0        0        0
S       18.62294925      37.07089470      10.51089752     183.84000005       0.00000000       0.00000000       0.00000000     2514        2        0        0        0
S      -42.79956314      74.14432209      11.82894793     183.84000005       0.00000000       0.00000000       0.00000000     2515        2        0        0        0
S       42.80966469      74.13838535       8.68603911     183.84000005       0.00000000       0.00000000       0.00000000     2516        2        0        0        0
S      -40.01772482      72.66180238      11.85728429     183.84000005       0.00000000       0.00000000       0.00000000     2517        2        0        0        0
S      -39.96890496      72.62375226       8.71497917     183.84000005       0.00000000       0.00000000       0.00000000     2518        2        0        0        0
S      -37.23749626      71.17576792      11.95065904     183.84000005       0.00000000       0.00000000       0.00000000     2519        2        0        0        0
S      -37.13461047      71.10840912       8.81022092     183.84000005       0.00000000       0.00000000       0.00000000     2520        2        0        0        0
S      -34.45719079      69.68330960      12.10144860     183.84000005       0.00000000       0.00000000       0.00000000     2521        2        0        0        0
S      -34.30958731      69.59204851       8.96355163     183.84000005       0.00000000       0.00000000       0.00000000     2522        2        0        0        0
S      -31.67432522      68.18110781      12.29626595     183.84000005       0.00000000       0.00000000       0.00000000     2523        2        0        0        0
S      -31.49637587      68.07368724       9.16072881     183.84000005       0.00000000       0.00000000       0.00000000     2524        2        0        0        0
S      -28.88660559      66.66600640      12.51666392     183.84000005       0.00000000       0.00000000       0.00000000     2525        2        0        0        0
S      -28.69572360      66.55138446       9.38269529     183.84000005       0.00000000       0.00000000       0.00000000     2526        2        0        0        0
S      -26.09311901      65.13639558      12.74276653     183.84000005       0.00000000       0.00000000       0.00000000     2527        2        0        0        0
S      -25.90602255      65.02287720       9.60936692     183.84000005       0.00000000       0.00000000       0.00000000     2528        2        0        0        0
S      -23.29479171      63.59289250      12.95774898     183.84000005       0.00000000       0.00000000       0.00000000     2529        2        0        0        0
S      -23.12418778      63.48675463       9.82403249     183.84000005       0.00000000       0.00000000       0.00000000     2530        2        0        0        0
S      -20.49382884      62.03761988      13.15013807     183.84000005       0.00000000       0.00000000       0.00000000     2531        2        0        0        0
S      -20.34716574      61.94293917      10.01559219     183.84000005       0.00000000       0.00000000       0.00000000     2532        2        0        0        0
S      -17.69269884      60.47318170      13.31379643     183.84000005       0.00000000       0.00000000       0.00000000     2533        2        0        0        0
S      -17.57284311      60.39239999      10.17829538     183.84000005       0.00000000       0.00000000       0.00000000     2534        2        0        0        0
S      -14.89337042      58.90205949      13.44655115     183.84000005       0.00000000       0.00000000       0.00000000     2535        2        0        0        0
S      -14.80011740      58.83654796      10.31021810     183.84000005       0.00000000       0.00000000       0.00000000     2536        2        0        0        0
S      -12.09704890      57.32650927      13.54872305     183.84000005       0.00000000       0.00000000       0.00000000     2537        2        0        0        0
S      -12.02844636      57.27672007      10.41179168     183.84000005       0.00000000       0.00000000       0.00000000     2538        2        0        0        0
S       -9.30424632      55.74868588      13.62230150     183.84000005       0.00000000       0.00000000       0.00000000     2539        2        0        0        0
S       -9.25734312      55.71402120      10.48501160     183.84000005       0.00000000       0.00000000       0.00000000     2540        2        0        0        0
S       -6.51486869      54.17071625      13.67061002     183.84000005       0.00000000       0.00000000       0.00000000     2541        2        0        0        0
S       -6.48609335      54.14941409      10.53315440     183.84000005       0.00000000       0.00000000       0.00000000     2542        2        0        0        0
S       -3.72824541      52.59466569      13.69806698     183.84000005       0.00000000       0.00000000       0.00000000     2543        2        0        0        0
S       -3.71372838      52.58393841      10.56056359     183.84000005       0.00000000       0.00000000       0.00000000     2544        2        0        0        0
S       -0.94319889      51.02249031      13.70972994     183.84000005       0.00000000       0.00000000       0.00000000     2545        2        0        0        0
S       -0.93917552      51.01894072      10.57222727     183.84000005       0.00000000       0.00000000       0.00000000     2546        2        0        0        0
S        1.84180826      49.45601129      13.71059723     183.84000005       0.00000000       0.00000000       0.00000000     2547        2        0        0        0
S        1.83853273      49.45619203      10.57309497     183.84000005       0.00000000       0.00000000       0.00000000     2548        2        0        0        0
S        4.62840612      47.89691052      13.70487924     183.84000005       0.00000000       0.00000000       0.00000000     2549        2        0        0        0
S        4.62011137      47.89784513      10.56735851     183.84000005       0.00000000       0.00000000       0.00000000     2550        2        0        0        0
S        7.41791422      46.34662284      13.69558266     183.84000005       0.00000000       0.00000000       0.00000000     2551        2        0        0        0
S        7.40596935      46.34614038      10.55801909     183.84000005       0.00000000       0.00000000       0.00000000     2552        2        0        0        0
S       10.21102946      44.80606474      13.68454904     183.84000005       0.00000000       0.00000000       0.00000000     2553        2        0        0        0
S       10.19623526      44.80292555      10.54692633     183.84000005       0.00000000       0.00000000       0.00000000     2554        2        0        0        0
S       13.00770238      43.27514773      13.67283418     183.84000005       0.00000000       0.00000000       0.00000000     2555        2        0        0        0
S       12.99075720      43.26898608      10.53514696     183.84000005       0.00000000       0.00000000       0.00000000     2556        2        0        0        0
S       15.80721810      41.75233102      13.66114727     183.84000005       0.00000000       0.00000000       0.00000000     2557        2        0        0        0
S       15.78901707      41.74347910      10.52340031     183.84000005       0.00000000       0.00000000       0.00000000     2558        2        0        0        0
S       18.60840275      40.23452088      13.65009498     183.84000005       0.00000000       0.00000000       0.00000000     2559        2        0        0        0
S       18.59002971      40.22375927      10.51229062     183.84000005       0.00000000       0.00000000       0.00000000     2560        2        0        0        0
S       21.40987612      38.71749810      13.64013674     183.84000005       0.00000000       0.00000000       0.00000000     2561        2        0        0        0
S       21.39230687      38.70578975      10.50225945     183.84000005       0.00000000       0.00000000       0.00000000     2562        2        0        0        0
S      -34.56374161      72.84414339      12.03470874     183.84000005       0.00000000       0.00000000       0.00000000     2563        2        0        0        0
S      -34.41188727      72.81084556       8.89569567     183.84000005       0.00000000       0.00000000       0.00000000     2564        2        0        0        0
S      -31.78128241      71.34785500      12.20766572     183.84000005       0.00000000       0.00000000       0.00000000     2565        2        0        0        0
S      -31.59368483      71.29090252       9.07107754     183.84000005       0.00000000       0.00000000       0.00000000     2566        2        0        0        0
S      -28.99420877      69.83954797      12.41509298     183.84000005       0.00000000       0.00000000       0.00000000     2567        2        0        0        0
S      -28.78761946      69.76666849       9.28040809     183.84000005       0.00000000       0.00000000       0.00000000     2568        2        0        0        0
S      -26.20060330      68.31679239      12.63727373     183.84000005       0.00000000       0.00000000       0.00000000     2569        2        0        0        0
S      -25.99288001      68.23624992       9.50359623     183.84000005       0.00000000       0.00000000       0.00000000     2570        2        0        0        0
S      -23.40038817      66.77933663      12.85567823     183.84000005       0.00000000       0.00000000       0.00000000     2571        2        0        0        0
S      -23.20653474      66.69813881       9.72205807     183.84000005       0.00000000       0.00000000       0.00000000     2572        2        0        0        0
S      -20.59528109      65.22893050      13.05656776     183.84000005       0.00000000       0.00000000       0.00000000     2573        2        0        0        0
S      -20.42503443      65.15203691       9.92231511     183.84000005       0.00000000       0.00000000       0.00000000     2574        2        0        0        0
S      -17.78788277      63.66822566      13.23194219     183.84000005       0.00000000       0.00000000       0.00000000     2575        2        0        0        0
S      -17.64566313      63.59887465      10.09676614     183.84000005       0.00000000       0.00000000       0.00000000     2576        2        0        0        0
S      -14.98066826      62.09984953      13.37840935     183.84000005       0.00000000       0.00000000       0.00000000     2577        2        0        0        0
S      -14.86707188      62.04022807      10.24233276     183.84000005       0.00000000       0.00000000       0.00000000     2578        2        0        0        0
S      -12.17544492      60.52605133      13.49535217     183.84000005       0.00000000       0.00000000       0.00000000     2579        2        0        0        0
S      -12.08898204      60.47764579      10.35857551     183.84000005       0.00000000       0.00000000       0.00000000     2580        2        0        0        0
S       -9.37330553      58.94883586      13.58370651     183.84000005       0.00000000       0.00000000       0.00000000     2581        2        0        0        0
S       -9.31149086      58.91230903      10.44647770     183.84000005       0.00000000       0.00000000       0.00000000     2582        2        0        0        0
S       -6.57471887      57.37018648      13.64553226     183.84000005       0.00000000       0.00000000       0.00000000     2583        2        0        0        0
S       -6.53453514      57.34507153      10.50807259     183.84000005       0.00000000       0.00000000       0.00000000     2584        2        0        0        0
S       -3.77954702      55.79215654      13.68396843     183.84000005       0.00000000       0.00000000       0.00000000     2585        2        0        0        0
S       -3.75764482      55.77670368      10.54643660     183.84000005       0.00000000       0.00000000       0.00000000     2586        2        0        0        0
S       -0.98704146      54.21687822      13.70311852     183.84000005       0.00000000       0.00000000       0.00000000     2587        2        0        0        0
S       -0.97996725      54.20821882      10.56559567     183.84000005       0.00000000       0.00000000       0.00000000     2588        2        0        0        0
S        1.80409148      52.64651246      13.70762496     183.84000005       0.00000000       0.00000000       0.00000000     2589        2        0        0        0
S        1.79955295      52.64114389      10.57012234     183.84000005       0.00000000       0.00000000       0.00000000     2590        2        0        0        0
S        4.59544789      51.08316827      13.70200103     183.84000005       0.00000000       0.00000000       0.00000000     2591        2        0        0        0
S        4.58195336      51.07757770      10.56449159     183.84000005       0.00000000       0.00000000       0.00000000     2592        2        0        0        0
S        7.38851276      49.52873350      13.69007601     183.84000005       0.00000000       0.00000000       0.00000000     2593        2        0        0        0
S        7.36809763      49.51995219      10.55253327     183.84000005       0.00000000       0.00000000       0.00000000     2594        2        0        0        0
S       10.18423628      47.98454602      13.67483118     183.84000005       0.00000000       0.00000000       0.00000000     2595        2        0        0        0
S       10.15855787      47.97053161      10.53724028     183.84000005       0.00000000       0.00000000       0.00000000     2596        2        0        0        0
S       12.98284363      46.45086847      13.65853943     183.84000005       0.00000000       0.00000000       0.00000000     2597        2        0        0        0
S       12.95352032      46.43069794      10.52089963     183.84000005       0.00000000       0.00000000       0.00000000     2598        2        0        0        0
S       15.78386331      44.92639408      13.64296010     183.84000005       0.00000000       0.00000000       0.00000000     2599        2        0        0        0
S       15.75264550      44.90027215      10.50528872     183.84000005       0.00000000       0.00000000       0.00000000     2600        2        0        0        0
S       18.58631789      43.40811209      13.62940703     183.84000005       0.00000000       0.00000000       0.00000000     2601        2        0        0        0
S       18.55495715      43.37721608      10.49171844     183.84000005       0.00000000       0.00000000       0.00000000     2602        2        0        0        0
S       21.38897173      41.89171551      13.61859846     183.84000005       0.00000000       0.00000000       0.00000000     2603        2        0        0        0
S       21.35886700      41.85790293      10.48087888     183.84000005       0.00000000       0.00000000       0.00000000     2604        2        0        0        0
S      -29.09870186      73.00801032      12.36063009     183.84000005       0.00000000       0.00000000       0.00000000     2605        2        0        0        0
S      -28.88354040      72.98255939       9.22547035     183.84000005       0.00000000       0.00000000       0.00000000     2606        2        0        0        0
S      -26.30617498      71.49169600      12.57018780     183.84000005       0.00000000       0.00000000       0.00000000     2607        2        0        0        0
S      -26.08441184      71.45043208       9.43624664     183.84000005       0.00000000       0.00000000       0.00000000     2608        2        0        0        0
S      -23.50621548      69.96010985      12.78374146     183.84000005       0.00000000       0.00000000       0.00000000     2609        2        0        0        0
S      -23.29440960      69.91047513       9.65013823     183.84000005       0.00000000       0.00000000       0.00000000     2610        2        0        0        0
S      -20.69969359      68.41439408      12.98558714     183.84000005       0.00000000       0.00000000       0.00000000     2611        2        0        0        0
S      -20.50976251      68.36215308       9.85156137     183.84000005       0.00000000       0.00000000       0.00000000     2612        2        0        0        0
S      -17.88882397      66.85720302      13.16580556     183.84000005       0.00000000       0.00000000       0.00000000     2613        2        0        0        0
S      -17.72699012      66.80621982      10.03094218     183.84000005       0.00000000       0.00000000       0.00000000     2614        2        0        0        0
S      -15.07613394      65.29146911      13.31979858     183.84000005       0.00000000       0.00000000       0.00000000     2615        2        0        0        0
S      -14.94406160      65.24437196      10.18401287     183.84000005       0.00000000       0.00000000       0.00000000     2616        2        0        0        0
S      -12.26374436      63.71964424      13.44626283     183.84000005       0.00000000       0.00000000       0.00000000     2617        2        0        0        0
S      -12.16050971      63.67849022      10.30968420     183.84000005       0.00000000       0.00000000       0.00000000     2618        2        0        0        0
S       -9.45319142      62.14368402      13.54539521     183.84000005       0.00000000       0.00000000       0.00000000     2619        2        0        0        0
S       -9.37678969      62.11006206      10.40825543     183.84000005       0.00000000       0.00000000       0.00000000     2620        2        0        0        0
S       -6.64549945      60.56534462      13.61815970     183.84000005       0.00000000       0.00000000       0.00000000     2621        2        0        0        0
S       -6.59351573      60.54003357      10.48070234     183.84000005       0.00000000       0.00000000       0.00000000     2622        2        0        0        0
S       -3.84116833      58.98645980      13.66630679     183.84000005       0.00000000       0.00000000       0.00000000     2623        2        0        0        0
S       -3.81093206      58.96903688      10.52873425     183.84000005       0.00000000       0.00000000       0.00000000     2624        2        0        0        0
S       -1.04010186      57.40906976      13.69255856     183.84000005       0.00000000       0.00000000       0.00000000     2625        2        0        0        0
S       -1.02874283      57.39774410      10.55499057     183.84000005       0.00000000       0.00000000       0.00000000     2626        2        0        0        0
S        1.75845595      55.83545701      13.70056077     183.84000005       0.00000000       0.00000000       0.00000000     2627        2        0        0        0
S        1.75386094      55.82727030      10.56304189     183.84000005       0.00000000       0.00000000       0.00000000     2628        2        0        0        0
S        4.55582336      54.26806964      13.69451027     183.84000005       0.00000000       0.00000000       0.00000000     2629        2        0        0        0
S        4.53802013      54.25941027      10.55702517     183.84000005       0.00000000       0.00000000       0.00000000     2630        2        0        0        0
S        7.35350225      52.70930162      13.67863592     183.84000005       0.00000000       0.00000000       0.00000000     2631        2        0        0        0
S        7.32498038      52.69654344      10.54115216     183.84000005       0.00000000       0.00000000       0.00000000     2632        2        0        0        0
S       10.15267652      51.16107206      13.65688918     183.84000005       0.00000000       0.00000000       0.00000000     2633        2        0        0        0
S       10.11584717      51.14118186      10.51938677     183.84000005       0.00000000       0.00000000       0.00000000     2634        2        0        0        0
S       12.95387299      49.62420210      13.63287797     183.84000005       0.00000000       0.00000000       0.00000000     2635        2        0        0        0
S       12.91132196      49.59524003      10.49536065     183.84000005       0.00000000       0.00000000       0.00000000     2636        2        0        0        0
S       15.75692557      48.09781138      13.60979206     183.84000005       0.00000000       0.00000000       0.00000000     2637        2        0        0        0
S       15.71144773      48.05924477      10.47228959     183.84000005       0.00000000       0.00000000       0.00000000     2638        2        0        0        0
S       18.56110112      46.57909931      13.59019382     183.84000005       0.00000000       0.00000000       0.00000000     2639        2        0        0        0
S       18.51541859      46.53188418      10.45273529     183.84000005       0.00000000       0.00000000       0.00000000     2640        2        0        0        0
S       21.36532575      45.06370153      13.57565255     183.84000005       0.00000000       0.00000000       0.00000000     2641        2        0        0        0
S       21.32159130      45.01010153      10.43822645     183.84000005       0.00000000       0.00000000       0.00000000     2642        2        0        0        0
S       24.16843571      43.54671366      13.56632138     183.84000005       0.00000000       0.00000000       0.00000000     2643        2        0        0        0
S       24.12779655      43.48980165      10.42889188     183.84000005       0.00000000       0.00000000       0.00000000     2644        2        0        0        0
S      -23.60747188      73.13730023      12.74687304     183.84000005       0.00000000       0.00000000       0.00000000     2645        2        0        0        0
S      -23.38543079      73.12133479       9.61329214     183.84000005       0.00000000       0.00000000       0.00000000     2646        2        0        0        0
S      -20.80155937      71.59639648      12.94262185     183.84000005       0.00000000       0.00000000       0.00000000     2647        2        0        0        0
S      -20.59835898      71.57129654       9.80877212     183.84000005       0.00000000       0.00000000       0.00000000     2648        2        0        0        0
S      -17.98995879      70.04253842      13.12129749     183.84000005       0.00000000       0.00000000       0.00000000     2649        2        0        0        0
S      -17.81363195      70.01307883       9.98669398     183.84000005       0.00000000       0.00000000       0.00000000     2650        2        0        0        0
S      -15.17483449      68.47903067      13.27679156     183.84000005       0.00000000       0.00000000       0.00000000     2651        2        0        0        0
S      -15.02829410      68.44828990      10.14127850     183.84000005       0.00000000       0.00000000       0.00000000     2652        2        0        0        0
S      -12.35817164      66.90883183      13.40712105     183.84000005       0.00000000       0.00000000       0.00000000     2653        2        0        0        0
S      -12.24117333      66.87903834      10.27076804     183.84000005       0.00000000       0.00000000       0.00000000     2654        2        0        0        0
S       -9.54155294      65.33411834      13.51212977     183.84000005       0.00000000       0.00000000       0.00000000     2655        2        0        0        0
S       -9.45257922      65.30721901      10.37512696     183.84000005       0.00000000       0.00000000       0.00000000     2656        2        0        0        0
S       -6.72627552      63.75654657      13.59212969     183.84000005       0.00000000       0.00000000       0.00000000     2657        2        0        0        0
S       -6.66350887      63.73412539      10.45471018     183.84000005       0.00000000       0.00000000       0.00000000     2658        2        0        0        0
S       -3.91338668      62.17765770      13.64771352     183.84000005       0.00000000       0.00000000       0.00000000     2659        2        0        0        0
S       -3.87491045      62.16047513      10.51010401     183.84000005       0.00000000       0.00000000       0.00000000     2660        2        0        0        0
S       -1.10350513      60.59918588      13.68012268     183.84000005       0.00000000       0.00000000       0.00000000     2661        2        0        0        0
S       -1.08724369      60.58675664      10.54249493     183.84000005       0.00000000       0.00000000       0.00000000     2662        2        0        0        0
S        1.70335412      59.02323659      13.69156275     183.84000005       0.00000000       0.00000000       0.00000000     2663        2        0        0        0
S        1.69969508      59.01366738      10.55400753     183.84000005       0.00000000       0.00000000       0.00000000     2664        2        0        0        0
S        4.50788943      57.45232585      13.68523109     183.84000005       0.00000000       0.00000000       0.00000000     2665        2        0        0        0
S        4.48676568      57.44252159      10.54776694     183.84000005       0.00000000       0.00000000       0.00000000     2666        2        0        0        0
S        7.31132197      55.88922600      13.66506232     183.84000005       0.00000000       0.00000000       0.00000000     2667        2        0        0        0
S        7.27531749      55.87537553      10.52766375     183.84000005       0.00000000       0.00000000       0.00000000     2668        2        0        0        0
S       10.11490374      54.33649612      13.63546599     183.84000005       0.00000000       0.00000000       0.00000000     2669        2        0        0        0
S       10.06690307      54.31472696      10.49810747     183.84000005       0.00000000       0.00000000       0.00000000     2670        2        0        0        0
S       12.91944579      52.79574308      13.60116726     183.84000005       0.00000000       0.00000000       0.00000000     2671        2        0        0        0
S       12.86285860      52.76285089      10.46384538     183.84000005       0.00000000       0.00000000       0.00000000     2672        2        0        0        0
S       15.72510642      51.26679058      13.56693247     183.84000005       0.00000000       0.00000000       0.00000000     2673        2        0        0        0
S       15.66382462      51.22093658      10.42967543     183.84000005       0.00000000       0.00000000       0.00000000     2674        2        0        0        0
S       18.53145441      49.74728912      13.53702768     183.84000005       0.00000000       0.00000000       0.00000000     2675        2        0        0        0
S       18.46940960      49.68846720      10.39988135     183.84000005       0.00000000       0.00000000       0.00000000     2676        2        0        0        0
S       21.33763232      48.23295551      13.51453110     183.84000005       0.00000000       0.00000000       0.00000000     2677        2        0        0        0
S       21.27809949      48.16311082      10.37750221     183.84000005       0.00000000       0.00000000       0.00000000     2678        2        0        0        0
S       24.14259960      46.71857630      13.50059696     183.84000005       0.00000000       0.00000000       0.00000000     2679        2        0        0        0
S       24.08754006      46.64125588      10.36363806     183.84000005       0.00000000       0.00000000       0.00000000     2680        2        0        0        0
S      -18.08609504      73.22618345      13.10007356     183.84000005       0.00000000       0.00000000       0.00000000     2681        2        0        0        0
S      -17.90203420      73.21772874       9.96565301     183.84000005       0.00000000       0.00000000       0.00000000     2682        2        0        0        0
S      -15.27127285      71.66474428      13.25197215     183.84000005       0.00000000       0.00000000       0.00000000     2683        2        0        0        0
S      -15.11583093      71.65072655      10.11666361     183.84000005       0.00000000       0.00000000       0.00000000     2684        2        0        0        0
S      -12.45354408      70.09563787      13.38125005     183.84000005       0.00000000       0.00000000       0.00000000     2685        2        0        0        0
S      -12.32730546      70.07861279      10.24508438     183.84000005       0.00000000       0.00000000       0.00000000     2686        2        0        0        0
S       -9.63412252      68.52165209      13.48735863     183.84000005       0.00000000       0.00000000       0.00000000     2687        2        0        0        0
S       -9.53605626      68.50356239      10.35049857     183.84000005       0.00000000       0.00000000       0.00000000     2688        2        0        0        0
S       -6.81410940      66.94466670      13.57039232     183.84000005       0.00000000       0.00000000       0.00000000     2689        2        0        0        0
S       -6.74292467      66.92728501      10.43304133     183.84000005       0.00000000       0.00000000       0.00000000     2690        2        0        0        0
S       -3.99469566      65.36607516      13.63030987     183.84000005       0.00000000       0.00000000       0.00000000     2691        2        0        0        0
S       -3.94921424      65.35083579      10.49268609     183.84000005       0.00000000       0.00000000       0.00000000     2692        2        0        0        0
S       -1.17704031      63.78725739      13.66715297     183.84000005       0.00000000       0.00000000       0.00000000     2693        2        0        0        0
S       -1.15607356      63.77477066      10.52946469     183.84000005       0.00000000       0.00000000       0.00000000     2694        2        0        0        0
S        1.63804611      62.20992335      13.68160973     183.84000005       0.00000000       0.00000000       0.00000000     2695        2        0        0        0
S        1.63591269      62.19954193      10.54400185     183.84000005       0.00000000       0.00000000       0.00000000     2696        2        0        0        0
S        4.45039635      60.63633037      13.67541721     183.84000005       0.00000000       0.00000000       0.00000000     2697        2        0        0        0
S        4.42694438      60.62598115      10.53796267     183.84000005       0.00000000       0.00000000       0.00000000     2698        2        0        0        0
S        7.26056659      59.06928671      13.65150050     183.84000005       0.00000000       0.00000000       0.00000000     2699        2        0        0        0
S        7.21803637      59.05562756      10.51420004     183.84000005       0.00000000       0.00000000       0.00000000     2700        2        0        0        0
S       10.06954682      57.51183489      13.61394715     183.84000005       0.00000000       0.00000000       0.00000000     2701        2        0        0        0
S       10.01086100      57.49068389      10.47677585     183.84000005       0.00000000       0.00000000       0.00000000     2702        2        0        0        0
S       12.87825509      55.96645303      13.56797692     183.84000005       0.00000000       0.00000000       0.00000000     2703        2        0        0        0
S       12.80728879      55.93350619      10.43091995     183.84000005       0.00000000       0.00000000       0.00000000     2704        2        0        0        0
S       15.68714986      54.43397715      13.51966948     183.84000005       0.00000000       0.00000000       0.00000000     2705        2        0        0        0
S       15.60872312      54.38577665      10.38273884     183.84000005       0.00000000       0.00000000       0.00000000     2706        2        0        0        0
S       18.49612708      52.91286053      13.47518550     183.84000005       0.00000000       0.00000000       0.00000000     2707        2        0        0        0
S       18.41545804      52.84773541      10.33842574     183.84000005       0.00000000       0.00000000       0.00000000     2708        2        0        0        0
S       21.30460301      51.39918789      13.43967579     183.84000005       0.00000000       0.00000000       0.00000000     2709        2        0        0        0
S       21.22639960      51.31786849      10.30311750     183.84000005       0.00000000       0.00000000       0.00000000     2710        2        0        0        0
S       24.11170413      49.88758100      13.41612542     183.84000005       0.00000000       0.00000000       0.00000000     2711        2        0        0        0
S       24.03921506      49.79324646      10.27973307     183.84000005       0.00000000       0.00000000       0.00000000     2712        2        0        0        0
S       26.91643043      48.37273365      13.40466539     183.84000005       0.00000000       0.00000000       0.00000000     2713        2        0        0        0
S       26.85108837      48.27028531      10.26836977     183.84000005       0.00000000       0.00000000       0.00000000     2714        2        0        0        0
S      -12.54472667      73.28189214      13.36889051     183.84000005       0.00000000       0.00000000       0.00000000     2715        2        0        0        0
S      -12.41447581      73.27641415      10.23284034     183.84000005       0.00000000       0.00000000       0.00000000     2716        2        0        0        0
S       -9.72578087      71.70807971      13.47237672     183.84000005       0.00000000       0.00000000       0.00000000     2717        2        0        0        0
S       -9.62292037      71.69872235      10.33560658     183.84000005       0.00000000       0.00000000       0.00000000     2718        2        0        0        0
S       -6.90454391      70.13107178      13.55472498     183.84000005       0.00000000       0.00000000       0.00000000     2719        2        0        0        0
S       -6.82823254      70.11952505      10.41742639     183.84000005       0.00000000       0.00000000       0.00000000     2720        2        0        0        0
S       -4.08182842      68.55248292      13.61566715     183.84000005       0.00000000       0.00000000       0.00000000     2721        2        0        0        0
S       -4.03150090      68.54025240      10.47804491     183.84000005       0.00000000       0.00000000       0.00000000     2722        2        0        0        0
S       -1.25884415      66.97351752      13.65461637     183.84000005       0.00000000       0.00000000       0.00000000     2723        2        0        0        0
S       -1.23416419      66.96176298      10.51687691     183.84000005       0.00000000       0.00000000       0.00000000     2724        2        0        0        0
S        1.56306614      65.39546234      13.67106351     183.84000005       0.00000000       0.00000000       0.00000000     2725        2        0        0        0
S        1.56253021      65.38453900      10.53339132     183.84000005       0.00000000       0.00000000       0.00000000     2726        2        0        0        0
S        4.38286802      63.82009286      13.66522093     183.84000005       0.00000000       0.00000000       0.00000000     2727        2        0        0        0
S        4.35795364      63.80910942      10.52774988     183.84000005       0.00000000       0.00000000       0.00000000     2728        2        0        0        0
S        7.20019492      62.24988403      13.63854079     183.84000005       0.00000000       0.00000000       0.00000000     2729        2        0        0        0
S        7.15239354      62.23648169      10.50132760     183.84000005       0.00000000       0.00000000       0.00000000     2730        2        0        0        0
S       10.01536212      60.68795149      13.59403863     183.84000005       0.00000000       0.00000000       0.00000000     2731        2        0        0        0
S        9.94713503      60.66836005      10.45707676     183.84000005       0.00000000       0.00000000       0.00000000     2732        2        0        0        0
S       12.82904838      59.13745591      13.53653482     183.84000005       0.00000000       0.00000000       0.00000000     2733        2        0        0        0
S       12.74420968      59.10688990      10.39979900     183.84000005       0.00000000       0.00000000       0.00000000     2734        2        0        0        0
S       15.64183039      57.60039782      13.47267128     183.84000005       0.00000000       0.00000000       0.00000000     2735        2        0        0        0
S       15.54569752      57.55396009      10.33614795     183.84000005       0.00000000       0.00000000       0.00000000     2736        2        0        0        0
S       18.45389883      56.07643113      13.41020918     183.84000005       0.00000000       0.00000000       0.00000000     2737        2        0        0        0
S       18.35279688      56.01040260      10.27391639     183.84000005       0.00000000       0.00000000       0.00000000     2738        2        0        0        0
S       21.26497637      54.56244682      13.35661703     183.84000005       0.00000000       0.00000000       0.00000000     2739        2        0        0        0
S       21.16517836      54.47549152      10.22059489     183.84000005       0.00000000       0.00000000       0.00000000     2740        2        0        0        0
S       24.07439619      53.05321151      13.31744375     183.84000005       0.00000000       0.00000000       0.00000000     2741        2        0        0        0
S       23.98087622      52.94707291      10.18167792     183.84000005       0.00000000       0.00000000       0.00000000     2742        2        0        0        0
S       26.88130131      51.54292533      13.29493151     183.84000005       0.00000000       0.00000000       0.00000000     2743        2        0        0        0
S       26.79690212      51.42219115      10.15935559     183.84000005       0.00000000       0.00000000       0.00000000     2744        2        0        0        0
S       -6.99269310      73.31727677      13.54525633     183.84000005       0.00000000       0.00000000       0.00000000     2745        2        0        0        0
S       -6.91478785      73.31089150      10.40796960     183.84000005       0.00000000       0.00000000       0.00000000     2746        2        0        0        0
S       -4.17031224      71.73807039      13.60457031     183.84000005       0.00000000       0.00000000       0.00000000     2747        2        0        0        0
S       -4.11775468      71.72907156      10.46693076     183.84000005       0.00000000       0.00000000       0.00000000     2748        2        0        0        0
S       -1.34547788      70.15860846      13.64326102     183.84000005       0.00000000       0.00000000       0.00000000     2749        2        0        0        0
S       -1.31861814      70.14816301      10.50547354     183.84000005       0.00000000       0.00000000       0.00000000     2750        2        0        0        0
S        1.48049971      68.57997698      13.66019321     183.84000005       0.00000000       0.00000000       0.00000000     2751        2        0        0        0
S        1.48116986      68.56889146      10.52245401     183.84000005       0.00000000       0.00000000       0.00000000     2752        2        0        0        0
S        4.30605950      67.00346394      13.65441729     183.84000005       0.00000000       0.00000000       0.00000000     2753        2        0        0        0
S        4.28033206      66.99176904      10.51689937     183.84000005       0.00000000       0.00000000       0.00000000     2754        2        0        0        0
S        7.12992694      65.43098048      13.62586127     183.84000005       0.00000000       0.00000000       0.00000000     2755        2        0        0        0
S        7.07827634      65.41746111      10.48869341     183.84000005       0.00000000       0.00000000       0.00000000     2756        2        0        0        0
S        9.95147067      63.86527662      13.57601109     183.84000005       0.00000000       0.00000000       0.00000000     2757        2        0        0        0
S        9.87547763      63.84713754      10.43923665     183.84000005       0.00000000       0.00000000       0.00000000     2758        2        0        0        0
S       12.77070895      62.30971285      13.50847255     183.84000005       0.00000000       0.00000000       0.00000000     2759        2        0        0        0
S       12.67355981      62.28252262      10.37207816     183.84000005       0.00000000       0.00000000       0.00000000     2760        2        0        0        0
S       15.58798468      60.76726683      13.42940637     183.84000005       0.00000000       0.00000000       0.00000000     2761        2        0        0        0
S       15.47486563      60.72541910      10.29335268     183.84000005       0.00000000       0.00000000       0.00000000     2762        2        0        0        0
S       18.40359010      59.23904022      13.34730562     183.84000005       0.00000000       0.00000000       0.00000000     2763        2        0        0        0
S       18.28145613      59.17697869      10.21155864     183.84000005       0.00000000       0.00000000       0.00000000     2764        2        0        0        0
S       21.21751818      57.72322980      13.27163847     183.84000005       0.00000000       0.00000000       0.00000000     2765        2        0        0        0
S       21.09404722      57.63709646      10.13620591     183.84000005       0.00000000       0.00000000       0.00000000     2766        2        0        0        0
S       24.02934517      56.21525147      13.21084914     183.84000005       0.00000000       0.00000000       0.00000000     2767        2        0        0        0
S       23.91148207      56.10434176      10.07572950     183.84000005       0.00000000       0.00000000       0.00000000     2768        2        0        0        0
S       26.83836749      54.70911867      13.17028605     183.84000005       0.00000000       0.00000000       0.00000000     2769        2        0        0        0
S       26.73099858      54.57647388      10.03542654     183.84000005       0.00000000       0.00000000       0.00000000     2770        2        0        0        0
S       29.64366084      53.19936765      13.15120079     183.84000005       0.00000000       0.00000000       0.00000000     2771        2        0        0        0
S       29.54936651      53.05104279      10.01652053     183.84000005       0.00000000       0.00000000       0.00000000     2772        2        0        0        0
S       -1.43250214      73.34354035      13.63350545     183.84000005       0.00000000       0.00000000       0.00000000     2773        2        0        0        0
S       -1.40511350      73.33462824      10.49565384     183.84000005       0.00000000       0.00000000       0.00000000     2774        2        0        0        0
S        1.39390466      71.76396704      13.64945626     183.84000005       0.00000000       0.00000000       0.00000000     2775        2        0        0        0
S        1.39514550      71.75331511      10.51164248     183.84000005       0.00000000       0.00000000       0.00000000     2776        2        0        0        0
S        4.22223291      70.18643972      13.64304207     183.84000005       0.00000000       0.00000000       0.00000000     2777        2        0        0        0
S        4.19615701      70.17446095      10.50545669     183.84000005       0.00000000       0.00000000       0.00000000     2778        2        0        0        0
S        7.05070020      68.61232243      13.61306206     183.84000005       0.00000000       0.00000000       0.00000000     2779        2        0        0        0
S        6.99668188      68.59867517      10.47587998     183.84000005       0.00000000       0.00000000       0.00000000     2780        2        0        0        0
S        9.87776944      67.04373685      13.55944969     183.84000005       0.00000000       0.00000000       0.00000000     2781        2        0        0        0
S        9.79625626      67.02677884      10.42279165     183.84000005       0.00000000       0.00000000       0.00000000     2782        2        0        0        0
S       12.70251343      65.48371068      13.48414223     183.84000005       0.00000000       0.00000000       0.00000000     2783        2        0        0        0
S       12.59562726      65.46002104      10.34804061     183.84000005       0.00000000       0.00000000       0.00000000     2784        2        0        0        0
S       15.52462507      63.93565640      13.39189683     183.84000005       0.00000000       0.00000000       0.00000000     2785        2        0        0        0
S       15.39677013      63.89991754      10.25631235     183.84000005       0.00000000       0.00000000       0.00000000     2786        2        0        0        0
S       18.34413517      62.40198456      13.29072553     183.84000005       0.00000000       0.00000000       0.00000000     2787        2        0        0        0
S       18.20218736      62.34766870      10.15556978     183.84000005       0.00000000       0.00000000       0.00000000     2788        2        0        0        0
S       21.16110432      60.88254660      13.19113245     183.84000005       0.00000000       0.00000000       0.00000000     2789        2        0        0        0
S       21.01365519      60.80354078      10.05632608     183.84000005       0.00000000       0.00000000       0.00000000     2790        2        0        0        0
S       23.97532606      59.37401581      13.10411133     183.84000005       0.00000000       0.00000000       0.00000000     2791        2        0        0        0
S       23.83119973      59.26664121       9.96961809     183.84000005       0.00000000       0.00000000       0.00000000     2792        2        0        0        0
S       26.78626082      57.87074727      13.03862692     183.84000005       0.00000000       0.00000000       0.00000000     2793        2        0        0        0
S       26.65282279      57.73532461       9.90439320     183.84000005       0.00000000       0.00000000       0.00000000     2794        2        0        0        0
S       29.59318435      56.36676209      12.99946446     183.84000005       0.00000000       0.00000000       0.00000000     2795        2        0        0        0
S       29.47529171      56.20779513       9.86543456     183.84000005       0.00000000       0.00000000       0.00000000     2796        2        0        0        0
S        4.13506608      73.36939584      13.63170879     183.84000005       0.00000000       0.00000000       0.00000000     2797        2        0        0        0
S        4.10907033      73.35812447      10.49402431     183.84000005       0.00000000       0.00000000       0.00000000     2798        2        0        0        0
S        6.96496471      71.79378134      13.60036788     183.84000005       0.00000000       0.00000000       0.00000000     2799        2        0        0        0
S        6.91009713      71.78086301      10.46311503     183.84000005       0.00000000       0.00000000       0.00000000     2800        2        0        0        0
S        9.79540225      70.22298024      13.54417801     183.84000005       0.00000000       0.00000000       0.00000000     2801        2        0        0        0
S        9.71092568      70.20763477      10.40753220     183.84000005       0.00000000       0.00000000       0.00000000     2802        2        0        0        0
S       12.62456996      68.65936310      13.46343762     183.84000005       0.00000000       0.00000000       0.00000000     2803        2        0        0        0
S       12.51130669      68.63938433      10.32750445     183.84000005       0.00000000       0.00000000       0.00000000     2804        2        0        0        0
S       15.45122236      67.10613767      13.36102827     183.84000005       0.00000000       0.00000000       0.00000000     2805        2        0        0        0
S       15.31232105      67.07729180      10.22580856     183.84000005       0.00000000       0.00000000       0.00000000     2806        2        0        0        0
S       18.27472297      65.56646627      13.24341033     183.84000005       0.00000000       0.00000000       0.00000000     2807        2        0        0        0
S       18.11624130      65.52243605      10.10879218     183.84000005       0.00000000       0.00000000       0.00000000     2808        2        0        0        0
S       21.09483183      64.04179920      13.12075913     183.84000005       0.00000000       0.00000000       0.00000000     2809        2        0        0        0
S       20.92551896      63.97523133       9.98656481     183.84000005       0.00000000       0.00000000       0.00000000     2810        2        0        0        0
S       23.91137057      62.53052939      13.00556381     183.84000005       0.00000000       0.00000000       0.00000000     2811        2        0        0        0
S       23.74145213      62.43509676       9.87164799     183.84000005       0.00000000       0.00000000       0.00000000     2812        2        0        0        0
S       26.72394300      61.02802967      12.91008420     183.84000005       0.00000000       0.00000000       0.00000000     2813        2        0        0        0
S       26.56329744      60.90073152       9.77633367     183.84000005       0.00000000       0.00000000       0.00000000     2814        2        0        0        0
S       29.53200651      59.52828290      12.84339256     183.84000005       0.00000000       0.00000000       0.00000000     2815        2        0        0        0
S       29.38839519      59.37077172       9.70973470     183.84000005       0.00000000       0.00000000       0.00000000     2816        2        0        0        0
S       32.33487968      58.02602570      12.80972101     183.84000005       0.00000000       0.00000000       0.00000000     2817        2        0        0        0
S       32.21343866      57.84417634       9.67614015     183.84000005       0.00000000       0.00000000       0.00000000     2818        2        0        0        0
S        9.70706291      73.40278429      13.53095617     183.84000005       0.00000000       0.00000000       0.00000000     2819        2        0        0        0
S        9.62236444      73.39058099      10.39420996     183.84000005       0.00000000       0.00000000       0.00000000     2820        2        0        0        0
S       12.53830653      71.83625335      13.44676047     183.84000005       0.00000000       0.00000000       0.00000000     2821        2        0        0        0
S       12.42253812      71.82113815      10.31082701     183.84000005       0.00000000       0.00000000       0.00000000     2822        2        0        0        0
S       15.36818888      70.27866023      13.33738434     183.84000005       0.00000000       0.00000000       0.00000000     2823        2        0        0        0
S       15.22301648      70.25771457      10.20232838     183.84000005       0.00000000       0.00000000       0.00000000     2824        2        0        0        0
S       18.19513810      68.73318721      13.20720886     183.84000005       0.00000000       0.00000000       0.00000000     2825        2        0        0        0
S       18.02525326      68.70124225      10.07294607     183.84000005       0.00000000       0.00000000       0.00000000     2826        2        0        0        0
S       21.01822040      67.20236605      13.06485337     183.84000005       0.00000000       0.00000000       0.00000000     2827        2        0        0        0
S       20.83170556      67.15217383       9.93114573     183.84000005       0.00000000       0.00000000       0.00000000     2828        2        0        0        0
S       23.83694291      65.68637622      12.92282462     183.84000005       0.00000000       0.00000000       0.00000000     2829        2        0        0        0
S       23.64462760      65.61009215       9.78937678     183.84000005       0.00000000       0.00000000       0.00000000     2830        2        0        0        0
S       26.65089774      64.18217776      12.79553003     183.84000005       0.00000000       0.00000000       0.00000000     2831        2        0        0        0
S       26.46472182      64.07381573       9.66209519     183.84000005       0.00000000       0.00000000       0.00000000     2832        2        0        0        0
S       29.45966547      62.68435062      12.69612425     183.84000005       0.00000000       0.00000000       0.00000000     2833        2        0        0        0
S       29.29048087      62.54205942       9.56253287     183.84000005       0.00000000       0.00000000       0.00000000     2834        2        0        0        0
S       32.26290546      61.18727418      12.63345770     183.84000005       0.00000000       0.00000000       0.00000000     2835        2        0        0        0
S       32.11885371      61.01402713       9.49970789     183.84000005       0.00000000       0.00000000       0.00000000     2836        2        0        0        0
S       15.27737343      73.45282664      13.32217107     183.84000005       0.00000000       0.00000000       0.00000000     2837        2        0        0        0
S       15.13131469      73.44173120      10.18703640     183.84000005       0.00000000       0.00000000       0.00000000     2838        2        0        0        0
S       18.10627948      71.90220893      13.18365122     183.84000005       0.00000000       0.00000000       0.00000000     2839        2        0        0        0
S       17.93139431      71.88427206      10.04946458     183.84000005       0.00000000       0.00000000       0.00000000     2840        2        0        0        0
S       20.93160137      70.36514053      13.02648458     183.84000005       0.00000000       0.00000000       0.00000000     2841        2        0        0        0
S       20.73464891      70.33425805       9.89301089     183.84000005       0.00000000       0.00000000       0.00000000     2842        2        0        0        0
S       23.75215063      68.84316171      12.86183385     183.84000005       0.00000000       0.00000000       0.00000000     2843        2        0        0        0
S       23.54364217      68.79140911       9.72865999     183.84000005       0.00000000       0.00000000       0.00000000     2844        2        0        0        0
S       26.56724258      67.33504634      12.70465408     183.84000005       0.00000000       0.00000000       0.00000000     2845        2        0        0        0
S       26.36031707      67.25459257       9.57135367     183.84000005       0.00000000       0.00000000       0.00000000     2846        2        0        0        0
S       29.37644814      65.83659081      12.57103892     183.84000005       0.00000000       0.00000000       0.00000000     2847        2        0        0        0
S       29.18465096      65.72235477       9.43727304     183.84000005       0.00000000       0.00000000       0.00000000     2848        2        0        0        0
S       32.17963886      64.34228311      12.47442010     183.84000005       0.00000000       0.00000000       0.00000000     2849        2        0        0        0
S       32.01440679      64.19370570       9.34008728     183.84000005       0.00000000       0.00000000       0.00000000     2850        2        0        0        0
S       34.97686757      62.84744992      12.42305124     183.84000005       0.00000000       0.00000000       0.00000000     2851        2        0        0        0
S       34.84628708      62.66838277       9.28834382     183.84000005       0.00000000       0.00000000       0.00000000     2852        2        0        0        0
S       20.83657423      73.53038135      13.00810408     183.84000005       0.00000000       0.00000000       0.00000000     2853        2        0        0        0
S       20.63718636      73.52143526       9.87455068     183.84000005       0.00000000       0.00000000       0.00000000     2854        2        0        0        0
S       23.65812761      72.00200592      12.82677251     183.84000005       0.00000000       0.00000000       0.00000000     2855        2        0        0        0
S       23.44168663      71.97858868       9.69361231     183.84000005       0.00000000       0.00000000       0.00000000     2856        2        0        0        0
S       26.47393673      70.48845036      12.64473549     183.84000005       0.00000000       0.00000000       0.00000000     2857        2        0        0        0
S       26.25372948      70.44230640       9.51139018     183.84000005       0.00000000       0.00000000       0.00000000     2858        2        0        0        0
S       29.28337919      68.98712540      12.47934004     183.84000005       0.00000000       0.00000000       0.00000000     2859        2        0        0        0
S       29.07474170      68.91094031       9.34527875     183.84000005       0.00000000       0.00000000       0.00000000     2860        2        0        0        0
S       32.08638696      67.49317967      12.34766289     183.84000005       0.00000000       0.00000000       0.00000000     2861        2        0        0        0
S       31.90374901      67.38303821       9.21256496     183.84000005       0.00000000       0.00000000       0.00000000     2862        2        0        0        0
S       34.88335155      66.00166213      12.26246602     183.84000005       0.00000000       0.00000000       0.00000000     2863        2        0        0        0
S       34.73775189      65.85794583       9.12646581     183.84000005       0.00000000       0.00000000       0.00000000     2864        2        0        0        0
S       26.37309483      73.64369931      12.62053573     183.84000005       0.00000000       0.00000000       0.00000000     2865        2        0        0        0
S       26.14871675      73.63583851       9.48700048     183.84000005       0.00000000       0.00000000       0.00000000     2866        2        0        0        0
S       29.18242102      72.13784438      12.42888623     183.84000005       0.00000000       0.00000000       0.00000000     2867        2        0        0        0
S       28.96484241      72.10622925       9.29451562     183.84000005       0.00000000       0.00000000       0.00000000     2868        2        0        0        0
S       31.98516338      70.64217682      12.26477377     183.84000005       0.00000000       0.00000000       0.00000000     2869        2        0        0        0
S       31.79097603      70.58028537       9.12900082     183.84000005       0.00000000       0.00000000       0.00000000     2870        2        0        0        0
S       34.78185611      69.15185004      12.14487354     183.84000005       0.00000000       0.00000000       0.00000000     2871        2        0        0        0
S       34.62489709      69.05671031       9.00757361     183.84000005       0.00000000       0.00000000       0.00000000     2872        2        0        0        0
S       37.57325658      67.66285684      12.08008949     183.84000005       0.00000000       0.00000000       0.00000000     2873        2        0        0        0
S       37.46284436      67.53514110       8.94178101     183.84000005       0.00000000       0.00000000       0.00000000     2874        2        0        0        0
S       31.87874457      73.79112094      12.23302156     183.84000005       0.00000000       0.00000000       0.00000000     2875        2        0        0        0
S       31.68015599      73.78293924       9.09686452     183.84000005       0.00000000       0.00000000       0.00000000     2876        2        0        0        0
S       34.67505270      72.30013380      12.08077127     183.84000005       0.00000000       0.00000000       0.00000000     2877        2        0        0        0
S       34.51163656      72.26194310       8.94260808     183.84000005       0.00000000       0.00000000       0.00000000     2878        2        0        0        0
S       37.46641462      70.81296776      11.98191645     183.84000005       0.00000000       0.00000000       0.00000000     2879        2        0        0        0
S       37.34983017      70.74223740       8.84204578     183.84000005       0.00000000       0.00000000       0.00000000     2880        2        0        0        0
S       37.35700720      73.96128916      11.94455871     183.84000005       0.00000000       0.00000000       0.00000000     2881        2        0        0        0
S       37.23758791      73.95362797       8.80401940     183.84000005       0.00000000       0.00000000       0.00000000     2882        2        0        0        0
S       40.14427996      72.47707622      11.87359841     183.84000005       0.00000000       0.00000000       0.00000000     2883        2        0        0        0
S       40.07850979      72.43715896       8.73163037     183.84000005       0.00000000       0.00000000       0.00000000     2884        2        0        0        0
S        2.79036977       1.51872664      18.62459993     183.84000005       0.00000000       0.00000000       0.00000000     2885        2        0        0        0
S        2.82137425       1.53433018      15.47033112     183.84000005       0.00000000       0.00000000       0.00000000     2886        2        0        0        0
S        2.89362436       4.69371848      18.66259287     183.84000005       0.00000000       0.00000000       0.00000000     2887        2        0        0        0
S        2.92605589       4.75006354      15.50852821     183.84000005       0.00000000       0.00000000       0.00000000     2888        2        0        0        0
S        5.59284036       3.01295206      18.67929709     183.84000005       0.00000000       0.00000000       0.00000000     2889        2        0        0        0
S        5.65800885       3.04626664      15.52522029     183.84000005       0.00000000       0.00000000       0.00000000     2890        2        0        0        0
S        8.29465276       1.33668417      18.73543162     183.84000005       0.00000000       0.00000000       0.00000000     2891        2        0        0        0
S        8.38877606       1.34688190      15.58133868     183.84000005       0.00000000       0.00000000       0.00000000     2892        2        0        0        0
S        5.69223459       6.18834434      18.73572336     183.84000005       0.00000000       0.00000000       0.00000000     2893        2        0        0        0
S        5.75744474       6.26034626      15.58192060     183.84000005       0.00000000       0.00000000       0.00000000     2894        2        0        0        0
S        8.39408856       4.50991075      18.77010352     183.84000005       0.00000000       0.00000000       0.00000000     2895        2        0        0        0
S        8.48781467       4.55912449      15.61615413     183.84000005       0.00000000       0.00000000       0.00000000     2896        2        0        0        0
S       11.09899112       2.83795645      18.83967933     183.84000005       0.00000000       0.00000000       0.00000000     2897        2        0        0        0
S       11.21576578       2.86403703      15.68550492     183.84000005       0.00000000       0.00000000       0.00000000     2898        2        0        0        0
S       13.80765552       1.17459758      18.93927090     183.84000005       0.00000000       0.00000000       0.00000000     2899        2        0        0        0
S       13.94153192       1.17822484      15.78488252     183.84000005       0.00000000       0.00000000       0.00000000     2900        2        0        0        0
S        5.78563540       9.36664497      18.82872609     183.84000005       0.00000000       0.00000000       0.00000000     2901        2        0        0        0
S        5.85040795       9.47234151      15.67522636     183.84000005       0.00000000       0.00000000       0.00000000     2902        2        0        0        0
S        8.48844881       7.68651497      18.84257543     183.84000005       0.00000000       0.00000000       0.00000000     2903        2        0        0        0
S        8.58070039       7.77179775      15.68891935     183.84000005       0.00000000       0.00000000       0.00000000     2904        2        0        0        0
S       11.19346816       6.01231555      18.89025314     183.84000005       0.00000000       0.00000000       0.00000000     2905        2        0        0        0
S       11.30778507       6.07528063      15.73627101     183.84000005       0.00000000       0.00000000       0.00000000     2906        2        0        0        0
S       13.90190610       4.34660096      18.96743288     183.84000005       0.00000000       0.00000000       0.00000000     2907        2        0        0        0
S       14.03228122       4.38616340      15.81304432     183.84000005       0.00000000       0.00000000       0.00000000     2908        2        0        0        0
S       16.61400524       2.69125863      19.06953458     183.84000005       0.00000000       0.00000000       0.00000000     2909        2        0        0        0
S       16.75542393       2.70729319      15.91482871     183.84000005       0.00000000       0.00000000       0.00000000     2910        2        0        0        0
S       19.32979685       1.04681979      19.19207255     183.84000005       0.00000000       0.00000000       0.00000000     2911        2        0        0        0
S       19.47782957       1.04112003      16.03720398     183.84000005       0.00000000       0.00000000       0.00000000     2912        2        0        0        0
S        8.57616306      10.86716203      18.94845560     183.84000005       0.00000000       0.00000000       0.00000000     2913        2        0        0        0
S        8.66617889      10.98254047      15.79509164     183.84000005       0.00000000       0.00000000       0.00000000     2914        2        0        0        0
S       11.28203337       9.19109269      18.97590367     183.84000005       0.00000000       0.00000000       0.00000000     2915        2        0        0        0
S       11.39256339       9.28691904      15.82224041     183.84000005       0.00000000       0.00000000       0.00000000     2916        2        0        0        0
S       13.99089626       7.52292220      19.03069033     183.84000005       0.00000000       0.00000000       0.00000000     2917        2        0        0        0
S       14.11564536       7.59662957      15.87651325     183.84000005       0.00000000       0.00000000       0.00000000     2918        2        0        0        0
S       16.70324996       5.86510554      19.10893639     183.84000005       0.00000000       0.00000000       0.00000000     2919        2        0        0        0
S       16.83734712       5.91464924      15.95420180     183.84000005       0.00000000       0.00000000       0.00000000     2920        2        0        0        0
S       19.41899586       4.21900174      19.20780564     183.84000005       0.00000000       0.00000000       0.00000000     2921        2        0        0        0
S       19.55924305       4.24368043      16.05267258     183.84000005       0.00000000       0.00000000       0.00000000     2922        2        0        0        0
S       22.13811641       2.58412692      19.32416690     183.84000005       0.00000000       0.00000000       0.00000000     2923        2        0        0        0
S       22.28123274       2.58580277      16.16875485     183.84000005       0.00000000       0.00000000       0.00000000     2924        2        0        0        0
S       24.86068249       0.95807683      19.45231134     183.84000005       0.00000000       0.00000000       0.00000000     2925        2        0        0        0
S       25.00154854       0.94178369      16.29652225     183.84000005       0.00000000       0.00000000       0.00000000     2926        2        0        0        0
S        8.65621085      14.05260661      19.08030539     183.84000005       0.00000000       0.00000000       0.00000000     2927        2        0        0        0
S        8.74303953      14.18937673      15.92706088     183.84000005       0.00000000       0.00000000       0.00000000     2928        2        0        0        0
S       11.36369617      12.37528896      19.09087279     183.84000005       0.00000000       0.00000000       0.00000000     2929        2        0        0        0
S       11.46914718      12.49669019      15.93744349     183.84000005       0.00000000       0.00000000       0.00000000     2930        2        0        0        0
S       14.07358450      10.70484852      19.12537294     183.84000005       0.00000000       0.00000000       0.00000000     2931        2        0        0        0
S       14.19097514      10.80723709      15.97143299     183.84000005       0.00000000       0.00000000       0.00000000     2932        2        0        0        0
S       16.78673484       9.04417426      19.18023420     183.84000005       0.00000000       0.00000000       0.00000000     2933        2        0        0        0
S       16.91100710       9.12411040      16.02558265     183.84000005       0.00000000       0.00000000       0.00000000     2934        2        0        0        0
S       19.50308736       7.39536550      19.25360320     183.84000005       0.00000000       0.00000000       0.00000000     2935        2        0        0        0
S       19.63173586       7.45013798      16.09830867     183.84000005       0.00000000       0.00000000       0.00000000     2936        2        0        0        0
S       22.22250644       5.75890668      19.34469473     183.84000005       0.00000000       0.00000000       0.00000000     2937        2        0        0        0
S       22.35410421       5.78772003      16.18895665     183.84000005       0.00000000       0.00000000       0.00000000     2938        2        0        0        0
S       24.94502877       4.13318630      19.45117225     183.84000005       0.00000000       0.00000000       0.00000000     2939        2        0        0        0
S       25.07683716       4.13827464      16.29506561     183.84000005       0.00000000       0.00000000       0.00000000     2940        2        0        0        0
S       27.67054808       2.51492850      19.56716003     183.84000005       0.00000000       0.00000000       0.00000000     2941        2        0        0        0
S       27.79742907       2.50176714      16.41056514     183.84000005       0.00000000       0.00000000       0.00000000     2942        2        0        0        0
S       30.39853547       0.90038382      19.68358104     183.84000005       0.00000000       0.00000000       0.00000000     2943        2        0        0        0
S       30.51385888       0.87666125      16.52626573     183.84000005       0.00000000       0.00000000       0.00000000     2944        2        0        0        0
S       11.43793100      15.56573856      19.22631034     183.84000005       0.00000000       0.00000000       0.00000000     2945        2        0        0        0
S       11.53682566      15.70286892      16.07279416     183.84000005       0.00000000       0.00000000       0.00000000     2946        2        0        0        0
S       14.14946608      13.89343731      19.24418710     183.84000005       0.00000000       0.00000000       0.00000000     2947        2        0        0        0
S       14.25787676      14.01588053      16.09025264     183.84000005       0.00000000       0.00000000       0.00000000     2948        2        0        0        0
S       16.86387939      12.22984176      19.27826223     183.84000005       0.00000000       0.00000000       0.00000000     2949        2        0        0        0
S       16.97639391      12.33329908      16.12359744     183.84000005       0.00000000       0.00000000       0.00000000     2950        2        0        0        0
S       19.58124454      10.57762750      19.32708460     183.84000005       0.00000000       0.00000000       0.00000000     2951        2        0        0        0
S       19.69560230      10.65808169      16.17163861     183.84000005       0.00000000       0.00000000       0.00000000     2952        2        0        0        0
S       22.30140294       8.93817279      19.39142021     183.84000005       0.00000000       0.00000000       0.00000000     2953        2        0        0        0
S       22.41750689       8.99278910      16.23537679     183.84000005       0.00000000       0.00000000       0.00000000     2954        2        0        0        0
S       25.02442724       7.31086550      19.47185386     183.84000005       0.00000000       0.00000000       0.00000000     2955        2        0        0        0
S       25.14177641       7.33919606      16.31538874     183.84000005       0.00000000       0.00000000       0.00000000     2956        2        0        0        0
S       27.75036155       5.69309083      19.56599881     183.84000005       0.00000000       0.00000000       0.00000000     2957        2        0        0        0
S       27.86606357       5.69787542      16.40913062     183.84000005       0.00000000       0.00000000       0.00000000     2958        2        0        0        0
S       30.47880942       4.08107294      19.66755061     183.84000005       0.00000000       0.00000000       0.00000000     2959        2        0        0        0
S       30.58756765       4.06802541      16.51013895     183.84000005       0.00000000       0.00000000       0.00000000     2960        2        0        0        0
S       33.20890684       2.47111713      19.76756212     183.84000005       0.00000000       0.00000000       0.00000000     2961        2        0        0        0
S       33.30443731       2.44776203      16.60942493     183.84000005       0.00000000       0.00000000       0.00000000     2962        2        0        0        0
S       35.93970473       0.86053188      19.85657770     183.84000005       0.00000000       0.00000000       0.00000000     2963        2        0        0        0
S       36.01610510       0.83468841      16.69763807     183.84000005       0.00000000       0.00000000       0.00000000     2964        2        0        0        0
S       11.50455918      18.76286540      19.37138653     183.84000005       0.00000000       0.00000000       0.00000000     2965        2        0        0        0
S       11.59538304      18.90466499      16.21732792     183.84000005       0.00000000       0.00000000       0.00000000     2966        2        0        0        0
S       14.21833391      17.08923511      19.37723469     183.84000005       0.00000000       0.00000000       0.00000000     2967        2        0        0        0
S       14.31626398      17.22125540      16.22289280     183.84000005       0.00000000       0.00000000       0.00000000     2968        2        0        0        0
S       16.93448069      15.42292530      19.39456444     183.84000005       0.00000000       0.00000000       0.00000000     2969        2        0        0        0
S       17.03374030      15.54045832      16.23959219     183.84000005       0.00000000       0.00000000       0.00000000     2970        2        0        0        0
S       19.65319389      13.76701072      19.42195555     183.84000005       0.00000000       0.00000000       0.00000000     2971        2        0        0        0
S       19.75149346      13.86538333      16.26621072     183.84000005       0.00000000       0.00000000       0.00000000     2972        2        0        0        0
S       22.37433086      12.12358575      19.46098617     183.84000005       0.00000000       0.00000000       0.00000000     2973        2        0        0        0
S       22.47240051      12.19872323      16.30458850     183.84000005       0.00000000       0.00000000       0.00000000     2974        2        0        0        0
S       25.09804417      10.49300472      19.51436686     183.84000005       0.00000000       0.00000000       0.00000000     2975        2        0        0        0
S       25.19718716      10.54245293      16.35751678     183.84000005       0.00000000       0.00000000       0.00000000     2976        2        0        0        0
S       27.82462264       8.87357891      19.58286382     183.84000005       0.00000000       0.00000000       0.00000000     2977        2        0        0        0
S       27.92419465       8.89749611      16.42566367     183.84000005       0.00000000       0.00000000       0.00000000     2978        2        0        0        0
S       30.55395168       7.26201653      19.66337595     183.84000005       0.00000000       0.00000000       0.00000000     2979        2        0        0        0
S       30.65048106       7.26356003      16.50577946     183.84000005       0.00000000       0.00000000       0.00000000     2980        2        0        0        0
S       33.28528278       5.65445725      19.74921002     183.84000005       0.00000000       0.00000000       0.00000000     2981        2        0        0        0
S       33.37335256       5.63928072      16.59106891     183.84000005       0.00000000       0.00000000       0.00000000     2982        2        0        0        0
S       36.01752640       4.04752009      19.83178466     183.84000005       0.00000000       0.00000000       0.00000000     2983        2        0        0        0
S       36.09118698       4.02270450      16.67296954     183.84000005       0.00000000       0.00000000       0.00000000     2984        2        0        0        0
S       38.74973420       2.43886418      19.90230829     183.84000005       0.00000000       0.00000000       0.00000000     2985        2        0        0        0
S       38.80341061       2.41175080      16.74280565     183.84000005       0.00000000       0.00000000       0.00000000     2986        2        0        0        0
S       41.48131686       0.82727169      19.95282037     183.84000005       0.00000000       0.00000000       0.00000000     2987        2        0        0        0
S       41.51020061       0.80433922      16.79278843     183.84000005       0.00000000       0.00000000       0.00000000     2988        2        0        0        0
S       14.28020010      20.29213720      19.51359554     183.84000005       0.00000000       0.00000000       0.00000000     2989        2        0        0        0
S       14.36648025      20.42306337      16.35842610     183.84000005       0.00000000       0.00000000       0.00000000     2990        2        0        0        0
S       16.99849162      18.62353495      19.51893647     183.84000005       0.00000000       0.00000000       0.00000000     2991        2        0        0        0
S       17.08348860      18.74478646      16.36329067     183.84000005       0.00000000       0.00000000       0.00000000     2992        2        0        0        0
S       19.71887202      16.96398026      19.52932899     183.84000005       0.00000000       0.00000000       0.00000000     2993        2        0        0        0
S       19.80016479      17.07076165      16.37303494     183.84000005       0.00000000       0.00000000       0.00000000     2994        2        0        0        0
S       22.44118569      15.31610339      19.54663090     183.84000005       0.00000000       0.00000000       0.00000000     2995        2        0        0        0
S       22.51996174      15.40382370      16.38974730     183.84000005       0.00000000       0.00000000       0.00000000     2996        2        0        0        0
S       25.16564031      13.68107927      19.57487262     183.84000005       0.00000000       0.00000000       0.00000000     2997        2        0        0        0
S       25.24452398      13.74609676      16.41758147     183.84000005       0.00000000       0.00000000       0.00000000     2998        2        0        0        0
S       27.89278549      12.05816636      19.61727269     183.84000005       0.00000000       0.00000000       0.00000000     2999        2        0        0        0
S       27.97308952      12.09872267      16.45970380     183.84000005       0.00000000       0.00000000       0.00000000     3000        2        0        0        0
S       30.62292839      10.44484982      19.67371931     183.84000005       0.00000000       0.00000000       0.00000000     3001        2        0        0        0
S       30.70310446      10.46173335      16.51588344     183.84000005       0.00000000       0.00000000       0.00000000     3002        2        0        0        0
S       33.35565002       8.83757362      19.74016661     183.84000005       0.00000000       0.00000000       0.00000000     3003        2        0        0        0
S       33.43156408       8.83411694      16.58196197     183.84000005       0.00000000       0.00000000       0.00000000     3004        2        0        0        0
S       36.08988382       7.23272252      19.80976792     183.84000005       0.00000000       0.00000000       0.00000000     3005        2        0        0        0
S       36.15609376       7.21421761      16.65105743     183.84000005       0.00000000       0.00000000       0.00000000     3006        2        0        0        0
S       38.82443583       5.62734068      19.87445529     183.84000005       0.00000000       0.00000000       0.00000000     3007        2        0        0        0
S       38.87525562       5.60024221      16.71515548     183.84000005       0.00000000       0.00000000       0.00000000     3008        2        0        0        0
S       41.55840341       4.01938491      19.92600585     183.84000005       0.00000000       0.00000000       0.00000000     3009        2        0        0        0
S       41.58839264       3.99047900      16.76615576     183.84000005       0.00000000       0.00000000       0.00000000     3010        2        0        0        0
S       44.29125466       2.40775876      19.95668878     183.84000005       0.00000000       0.00000000       0.00000000     3011        2        0        0        0
S       44.29549308       2.38322019      16.79650215     183.84000005       0.00000000       0.00000000       0.00000000     3012        2        0        0        0
S       47.02258996       0.79232749      19.96010079     183.84000005       0.00000000       0.00000000       0.00000000     3013        2        0        0        0
S       46.99729068       0.77654663      16.79995538     183.84000005       0.00000000       0.00000000       0.00000000     3014        2        0        0        0
S       14.33534303      23.50139528      19.64299030     183.84000005       0.00000000       0.00000000       0.00000000     3015        2        0        0        0
S       14.40933644      23.62187620      16.48671996     183.84000005       0.00000000       0.00000000       0.00000000     3016        2        0        0        0
S       17.05602405      21.83109195      19.64112124     183.84000005       0.00000000       0.00000000       0.00000000     3017        2        0        0        0
S       17.12634566      21.94638364      16.48451829     183.84000005       0.00000000       0.00000000       0.00000000     3018        2        0        0        0
S       19.77830352      20.16824864      19.63946032     183.84000005       0.00000000       0.00000000       0.00000000     3019        2        0        0        0
S       19.84241823      20.27386192      16.48238150     183.84000005       0.00000000       0.00000000       0.00000000     3020        2        0        0        0
S       22.50196755      18.51587846      19.63978947     183.84000005       0.00000000       0.00000000       0.00000000     3021        2        0        0        0
S       22.56129468      18.60728543      16.48226941     183.84000005       0.00000000       0.00000000       0.00000000     3022        2        0        0        0
S       25.22721033      16.87580474      19.64680135     183.84000005       0.00000000       0.00000000       0.00000000     3023        2        0        0        0
S       25.28528211      16.94891031      16.48899345     183.84000005       0.00000000       0.00000000       0.00000000     3024        2        0        0        0
S       27.95478226      15.24813580      19.66540149     183.84000005       0.00000000       0.00000000       0.00000000     3025        2        0        0        0
S       28.01447359      15.30004383      16.50743132     183.84000005       0.00000000       0.00000000       0.00000000     3026        2        0        0        0
S       30.68542048      13.63120841      19.69791662     183.84000005       0.00000000       0.00000000       0.00000000     3027        2        0        0        0
S       30.74695822      13.66094416      16.53981312     183.84000005       0.00000000       0.00000000       0.00000000     3028        2        0        0        0
S       33.41921051      12.02204943      19.74282366     183.84000005       0.00000000       0.00000000       0.00000000     3029        2        0        0        0
S       33.47988019      12.03085613      16.58451489     183.84000005       0.00000000       0.00000000       0.00000000     3030        2        0        0        0
S       36.15536931      10.41720260      19.79529419     183.84000005       0.00000000       0.00000000       0.00000000     3031        2        0        0        0
S       36.21053742      10.40830822      16.63665234     183.84000005       0.00000000       0.00000000       0.00000000     3032        2        0        0        0
S       38.89262608       8.81348000      19.84860269     183.84000005       0.00000000       0.00000000       0.00000000     3033        2        0        0        0
S       38.93690507       8.79161666      16.68951492     183.84000005       0.00000000       0.00000000       0.00000000     3034        2        0        0        0
S       41.62976753       7.20833314      19.89522596     183.84000005       0.00000000       0.00000000       0.00000000     3035        2        0        0        0
S       41.65763601       7.17925124      16.73565209     183.84000005       0.00000000       0.00000000       0.00000000     3036        2        0        0        0
S       44.36592815       5.59994097      19.92738382     183.84000005       0.00000000       0.00000000       0.00000000     3037        2        0        0        0
S       44.37195345       5.56984843      16.76741646     183.84000005       0.00000000       0.00000000       0.00000000     3038        2        0        0        0
S       47.10052133       3.98726693      19.93751214     183.84000005       0.00000000       0.00000000       0.00000000     3039        2        0        0        0
S       47.07972315       3.96199199      16.77742312     183.84000005       0.00000000       0.00000000       0.00000000     3040        2        0        0        0
S       49.83293756       2.37015744      19.91929501     183.84000005       0.00000000       0.00000000       0.00000000     3041        2        0        0        0
S       49.78166531       2.35389605      16.75952074     183.84000005       0.00000000       0.00000000       0.00000000     3042        2        0        0        0
S       52.56225417       0.74925339      19.86937203     183.84000005       0.00000000       0.00000000       0.00000000     3043        2        0        0        0
S       52.47945121       0.74315817      16.71039482     183.84000005       0.00000000       0.00000000       0.00000000     3044        2        0        0        0
S       17.10743848      25.04450419      19.75219762     183.84000005       0.00000000       0.00000000       0.00000000     3045        2        0        0        0
S       17.16328489      25.14594864      16.59452732     183.84000005       0.00000000       0.00000000       0.00000000     3046        2        0        0        0
S       19.83166991      23.37893724      19.74326265     183.84000005       0.00000000       0.00000000       0.00000000     3047        2        0        0        0
S       19.87914130      23.47503051      16.58527528     183.84000005       0.00000000       0.00000000       0.00000000     3048        2        0        0        0
S       22.55677136      21.72238014      19.73171715     183.84000005       0.00000000       0.00000000       0.00000000     3049        2        0        0        0
S       22.59739301      21.80906948      16.57346312     183.84000005       0.00000000       0.00000000       0.00000000     3050        2        0        0        0
S       25.28284951      20.07715079      19.72242949     183.84000005       0.00000000       0.00000000       0.00000000     3051        2        0        0        0
S       25.32075583      20.15045846      16.56404655     183.84000005       0.00000000       0.00000000       0.00000000     3052        2        0        0        0
S       28.01073910      18.44405641      19.72130997     183.84000005       0.00000000       0.00000000       0.00000000     3053        2        0        0        0
S       28.04998741      18.50064873      16.56291279     183.84000005       0.00000000       0.00000000       0.00000000     3054        2        0        0        0
S       30.74153607      16.82223893      19.73247957     183.84000005       0.00000000       0.00000000       0.00000000     3055        2        0        0        0
S       30.78386804      16.86008097      16.57409303     183.84000005       0.00000000       0.00000000       0.00000000     3056        2        0        0        0
S       33.47585375      15.20941265      19.75654796     183.84000005       0.00000000       0.00000000       0.00000000     3057        2        0        0        0
S       33.51993879      15.22820775      16.59811237     183.84000005       0.00000000       0.00000000       0.00000000     3058        2        0        0        0
S       36.21340080      13.60251870      19.79061452     183.84000005       0.00000000       0.00000000       0.00000000     3059        2        0        0        0
S       36.25552549      13.60371865      16.63201088     183.84000005       0.00000000       0.00000000       0.00000000     3060        2        0        0        0
S       38.95310062      11.99844420      19.82942844     183.84000005       0.00000000       0.00000000       0.00000000     3061        2        0        0        0
S       38.98835903      11.98496101      16.67053053     183.84000005       0.00000000       0.00000000       0.00000000     3062        2        0        0        0
S       41.69359474      10.39446567      19.86656291     183.84000005       0.00000000       0.00000000       0.00000000     3063        2        0        0        0
S       41.71668294      10.37038715      16.70728918     183.84000005       0.00000000       0.00000000       0.00000000     3064        2        0        0        0
S       44.43367955       8.78837238      19.89498844     183.84000005       0.00000000       0.00000000       0.00000000     3065        2        0        0        0
S       44.43916571       8.75874342      16.73534384     183.84000005       0.00000000       0.00000000       0.00000000     3066        2        0        0        0
S       47.17245031       7.17849058      19.90729085     183.84000005       0.00000000       0.00000000       0.00000000     3067        2        0        0        0
S       47.15493828       7.14894816      16.74742486     183.84000005       0.00000000       0.00000000       0.00000000     3068        2        0        0        0
S       49.90914619       5.56380908      19.89617060     183.84000005       0.00000000       0.00000000       0.00000000     3069        2        0        0        0
S       49.86382030       5.53978607      16.73641963     183.84000005       0.00000000       0.00000000       0.00000000     3070        2        0        0        0
S       52.64284508       3.94411264      19.85571288     183.84000005       0.00000000       0.00000000       0.00000000     3071        2        0        0        0
S       52.56657386       3.92951464      16.69656503     183.84000005       0.00000000       0.00000000       0.00000000     3072        2        0        0        0
S       55.37228510       2.31995228      19.78333174     183.84000005       0.00000000       0.00000000       0.00000000     3073        2        0        0        0
S       55.26500626       2.31563422      16.62527258     183.84000005       0.00000000       0.00000000       0.00000000     3074        2        0        0        0
S       58.09599940       0.69216201      19.68159401     183.84000005       0.00000000       0.00000000       0.00000000     3075        2        0        0        0
S       57.96166256       0.69494117      16.52490015     183.84000005       0.00000000       0.00000000       0.00000000     3076        2        0        0        0
S       17.15346599      28.26241146      19.84537670     183.84000005       0.00000000       0.00000000       0.00000000     3077        2        0        0        0
S       17.19550365      28.34441382      16.68671732     183.84000005       0.00000000       0.00000000       0.00000000     3078        2        0        0        0
S       19.87944223      26.59482813      19.83329224     183.84000005       0.00000000       0.00000000       0.00000000     3079        2        0        0        0
S       19.91134580      26.67496241      16.67442768     183.84000005       0.00000000       0.00000000       0.00000000     3080        2        0        0        0
S       22.60589021      24.93463143      19.81467507     183.84000005       0.00000000       0.00000000       0.00000000     3081        2        0        0        0
S       22.62920390      25.00960984      16.65569166     183.84000005       0.00000000       0.00000000       0.00000000     3082        2        0        0        0
S       25.33277826      23.28451654      19.79421760     183.84000005       0.00000000       0.00000000       0.00000000     3083        2        0        0        0
S       25.35201057      23.35087140      16.63525700     183.84000005       0.00000000       0.00000000       0.00000000     3084        2        0        0        0
S       28.06091107      21.64585223      19.77829910     183.84000005       0.00000000       0.00000000       0.00000000     3085        2        0        0        0
S       28.08098983      21.70034067      16.61947037     183.84000005       0.00000000       0.00000000       0.00000000     3086        2        0        0        0
S       30.79159723      20.01846211      19.77222533     183.84000005       0.00000000       0.00000000       0.00000000     3087        2        0        0        0
S       30.81550210      20.05862087      16.61355107     183.84000005       0.00000000       0.00000000       0.00000000     3088        2        0        0        0
S       33.52590578      18.40074548      19.77826266     183.84000005       0.00000000       0.00000000       0.00000000     3089        2        0        0        0
S       33.55356845      18.42535400      16.61968330     183.84000005       0.00000000       0.00000000       0.00000000     3090        2        0        0        0
S       36.26409442      16.79014950      19.79517528     183.84000005       0.00000000       0.00000000       0.00000000     3091        2        0        0        0
S       36.29274344      16.79939346      16.63657835     183.84000005       0.00000000       0.00000000       0.00000000     3092        2        0        0        0
S       39.00550548      15.18381581      19.81907087     183.84000005       0.00000000       0.00000000       0.00000000     3093        2        0        0        0
S       39.03077305      15.17914588      16.66032638     183.84000005       0.00000000       0.00000000       0.00000000     3094        2        0        0        0
S       41.74889823      13.57907670      19.84459723     183.84000005       0.00000000       0.00000000       0.00000000     3095        2        0        0        0
S       41.76577554      13.56298677      16.68560054     183.84000005       0.00000000       0.00000000       0.00000000     3096        2        0        0        0
S       44.49289335      11.97363035      19.86568371     183.84000005       0.00000000       0.00000000       0.00000000     3097        2        0        0        0
S       44.49615891      11.94956739      16.70638949     183.84000005       0.00000000       0.00000000       0.00000000     3098        2        0        0        0
S       47.23626184      10.36552000      19.87573391     183.84000005       0.00000000       0.00000000       0.00000000     3099        2        0        0        0
S       47.22059308      10.33786415      16.71619805     183.84000005       0.00000000       0.00000000       0.00000000     3100        2        0        0        0
S       49.97795784       8.75317933      19.86774358     183.84000005       0.00000000       0.00000000       0.00000000     3101        2        0        0        0
S       49.93817807       8.72699709      16.70817459     183.84000005       0.00000000       0.00000000       0.00000000     3102        2        0        0        0
S       52.71693150       7.13558420      19.83493275     183.84000005       0.00000000       0.00000000       0.00000000     3103        2        0        0        0
S       52.64875928       7.11584790      16.67572621     183.84000005       0.00000000       0.00000000       0.00000000     3104        2        0        0        0
S       55.45189701       5.51243647      19.77221415     183.84000005       0.00000000       0.00000000       0.00000000     3105        2        0        0        0
S       55.35319091       5.50265995      16.61388275     183.84000005       0.00000000       0.00000000       0.00000000     3106        2        0        0        0
S       58.18128270       3.88415254      19.67824479     183.84000005       0.00000000       0.00000000       0.00000000     3107        2        0        0        0
S       58.05341717       3.88482109      16.52122673     183.84000005       0.00000000       0.00000000       0.00000000     3108        2        0        0        0
S       60.90351489       2.25136333      19.55714747     183.84000005       0.00000000       0.00000000       0.00000000     3109        2        0        0        0
S       60.75207630       2.25896954      16.40158148     183.84000005       0.00000000       0.00000000       0.00000000     3110        2        0        0        0
S       63.61753413       0.61414755      19.41862963     183.84000005       0.00000000       0.00000000       0.00000000     3111        2        0        0        0
S       63.45170477       0.62161394      16.26427793     183.84000005       0.00000000       0.00000000       0.00000000     3112        2        0        0        0
S       19.92246906      29.81458985      19.90416319     183.84000005       0.00000000       0.00000000       0.00000000     3113        2        0        0        0
S       19.94015734      29.87444167      16.74458530     183.84000005       0.00000000       0.00000000       0.00000000     3114        2        0        0        0
S       22.64994530      28.15146029      19.88254943     183.84000005       0.00000000       0.00000000       0.00000000     3115        2        0        0        0
S       22.65770288      28.20952480      16.72295011     183.84000005       0.00000000       0.00000000       0.00000000     3116        2        0        0        0
S       25.37746253      26.49698784      19.85565966     183.84000005       0.00000000       0.00000000       0.00000000     3117        2        0        0        0
S       25.37999078      26.55056613      16.69619453     183.84000005       0.00000000       0.00000000       0.00000000     3118        2        0        0        0
S       28.10571914      24.85299236      19.82993474     183.84000005       0.00000000       0.00000000       0.00000000     3119        2        0        0        0
S       28.10856492      24.89930121      16.67071650     183.84000005       0.00000000       0.00000000       0.00000000     3120        2        0        0        0
S       30.83608684      23.21985823      19.81137133     183.84000005       0.00000000       0.00000000       0.00000000     3121        2        0        0        0
S       30.84322372      23.25648919      16.65242422     183.84000005       0.00000000       0.00000000       0.00000000     3122        2        0        0        0
S       33.56994816      21.59659227      19.80341985     183.84000005       0.00000000       0.00000000       0.00000000     3123        2        0        0        0
S       33.58242152      21.62194739      16.64468632     183.84000005       0.00000000       0.00000000       0.00000000     3124        2        0        0        0
S       36.30805053      19.98116504      19.80618768     183.84000005       0.00000000       0.00000000       0.00000000     3125        2        0        0        0
S       36.32400791      19.99469735      16.64756217     183.84000005       0.00000000       0.00000000       0.00000000     3126        2        0        0        0
S       39.05024141      18.37106805      19.81695142     183.84000005       0.00000000       0.00000000       0.00000000     3127        2        0        0        0
S       39.06587744      18.37325557      16.65830845     183.84000005       0.00000000       0.00000000       0.00000000     3128        2        0        0        0
S       41.79561360      16.76381075      19.83126156     183.84000005       0.00000000       0.00000000       0.00000000     3129        2        0        0        0
S       41.80621029      16.75597931      16.67248798     183.84000005       0.00000000       0.00000000       0.00000000     3130        2        0        0        0
S       44.54286013      15.15716842      19.84384960     183.84000005       0.00000000       0.00000000       0.00000000     3131        2        0        0        0
S       44.54340797      15.14138311      16.68487206     183.84000005       0.00000000       0.00000000       0.00000000     3132        2        0        0        0
S       47.29058930      13.54917766      19.84899148     183.84000005       0.00000000       0.00000000       0.00000000     3133        2        0        0        0
S       47.27598464      13.52830616      16.68980660     183.84000005       0.00000000       0.00000000       0.00000000     3134        2        0        0        0
S       50.03747025      11.93808393      19.84053190     183.84000005       0.00000000       0.00000000       0.00000000     3135        2        0        0        0
S       50.00264283      11.91588650      16.68124768     183.84000005       0.00000000       0.00000000       0.00000000     3136        2        0        0        0
S       52.78221520      10.32239047      19.81205567     183.84000005       0.00000000       0.00000000       0.00000000     3137        2        0        0        0
S       52.72252519      10.30333996      16.65293609     183.84000005       0.00000000       0.00000000       0.00000000     3138        2        0        0        0
S       55.52341666       8.70104862      19.75768109     183.84000005       0.00000000       0.00000000       0.00000000     3139        2        0        0        0
S       55.43556437       8.68955941      16.59915532     183.84000005       0.00000000       0.00000000       0.00000000     3140        2        0        0        0
S       58.25942382       7.07366011      19.67363444     183.84000005       0.00000000       0.00000000       0.00000000     3141        2        0        0        0
S       58.14273519       7.07273168      16.51619127     183.84000005       0.00000000       0.00000000       0.00000000     3142        2        0        0        0
S       60.98845667       5.44045578      19.56026043     183.84000005       0.00000000       0.00000000       0.00000000     3143        2        0        0        0
S       60.84608539       5.45012345      16.40423120     183.84000005       0.00000000       0.00000000       0.00000000     3144        2        0        0        0
S       63.70901439       3.80185920      19.42344631     183.84000005       0.00000000       0.00000000       0.00000000     3145        2        0        0        0
S       63.54828065       3.81831699      16.26879687     183.84000005       0.00000000       0.00000000       0.00000000     3146        2        0        0        0
S       66.42043451       2.15786685      19.27430478     183.84000005       0.00000000       0.00000000       0.00000000     3147        2        0        0        0
S       66.25176874       2.17395905      16.12062402     183.84000005       0.00000000       0.00000000       0.00000000     3148        2        0        0        0
S       69.12329111       0.50778042      19.12680258     183.84000005       0.00000000       0.00000000       0.00000000     3149        2        0        0        0
S       68.95805103       0.51491924      15.97352354     183.84000005       0.00000000       0.00000000       0.00000000     3150        2        0        0        0
S       19.96197889      33.03693700      19.95255270     183.84000005       0.00000000       0.00000000       0.00000000     3151        2        0        0        0
S       19.96680762      33.07417289      16.79251006     183.84000005       0.00000000       0.00000000       0.00000000     3152        2        0        0        0
S       22.68994835      31.37166095      19.93102696     183.84000005       0.00000000       0.00000000       0.00000000     3153        2        0        0        0
S       22.68393294      31.40943608      16.77100760     183.84000005       0.00000000       0.00000000       0.00000000     3154        2        0        0        0
S       25.41772481      29.71352689      19.90165622     183.84000005       0.00000000       0.00000000       0.00000000     3155        2        0        0        0
S       25.40563642      29.75003468      16.74182847     183.84000005       0.00000000       0.00000000       0.00000000     3156        2        0        0        0
S       28.14585477      28.06469600      19.87065694     183.84000005       0.00000000       0.00000000       0.00000000     3157        2        0        0        0
S       28.13366473      28.09786365      16.71113962     183.84000005       0.00000000       0.00000000       0.00000000     3158        2        0        0        0
S       30.87567661      26.42602035      19.84433100     183.84000005       0.00000000       0.00000000       0.00000000     3159        2        0        0        0
S       30.86814661      26.45384453      16.68515485     183.84000005       0.00000000       0.00000000       0.00000000     3160        2        0        0        0
S       33.60873761      24.79701362      19.82690368     183.84000005       0.00000000       0.00000000       0.00000000     3161        2        0        0        0
S       33.60786990      24.81795374      16.66802353     183.84000005       0.00000000       0.00000000       0.00000000     3162        2        0        0        0
S       36.34614606      23.17613843      19.81950146     183.84000005       0.00000000       0.00000000       0.00000000     3163        2        0        0        0
S       36.35096212      23.18937298      16.66082038     183.84000005       0.00000000       0.00000000       0.00000000     3164        2        0        0        0
S       39.08822059      21.56126045      19.82036122     183.84000005       0.00000000       0.00000000       0.00000000     3165        2        0        0        0
S       39.09549957      21.56675140      16.66176328     183.84000005       0.00000000       0.00000000       0.00000000     3166        2        0        0        0
S       41.83448145      19.95013414      19.82576922     183.84000005       0.00000000       0.00000000       0.00000000     3167        2        0        0        0
S       41.83979674      19.94851263      16.66714393     183.84000005       0.00000000       0.00000000       0.00000000     3168        2        0        0        0
S       44.58388766      18.34068473      19.83102906     183.84000005       0.00000000       0.00000000       0.00000000     3169        2        0        0        0
S       44.58237819      18.33311011      16.67229173     183.84000005       0.00000000       0.00000000       0.00000000     3170        2        0        0        0
S       47.33510710      16.73107278      19.83103109     183.84000005       0.00000000       0.00000000       0.00000000     3171        2        0        0        0
S       47.32184171      16.71922632      16.67214747     183.84000005       0.00000000       0.00000000       0.00000000     3172        2        0        0        0
S       50.08668701      15.11959996      19.82040491     183.84000005       0.00000000       0.00000000       0.00000000     3173        2        0        0        0
S       50.05680606      15.10583999      16.66141792     183.84000005       0.00000000       0.00000000       0.00000000     3174        2        0        0        0
S       52.83711853      13.50466135      19.79355665     183.84000005       0.00000000       0.00000000       0.00000000     3175        2        0        0        0
S       52.78605944      13.49215778      16.63462190     183.84000005       0.00000000       0.00000000       0.00000000     3176        2        0        0        0
S       55.58479841      11.88481782      19.74495199     183.84000005       0.00000000       0.00000000       0.00000000     3177        2        0        0        0
S       55.50885678      11.87739435      16.58637235     183.84000005       0.00000000       0.00000000       0.00000000     3178        2        0        0        0
S       58.32794924      10.25899637      19.67004522     183.84000005       0.00000000       0.00000000       0.00000000     3179        2        0        0        0
S       58.22525169      10.26038077      16.51223805     183.84000005       0.00000000       0.00000000       0.00000000     3180        2        0        0        0
S       61.06462221       8.62667909      19.56685233     183.84000005       0.00000000       0.00000000       0.00000000     3181        2        0        0        0
S       60.93633593       8.63919544      16.41022318     183.84000005       0.00000000       0.00000000       0.00000000     3182        2        0        0        0
S       63.79299864       6.98789527      19.43772797     183.84000005       0.00000000       0.00000000       0.00000000     3183        2        0        0        0
S       63.64418569       7.01103430      16.28245535     183.84000005       0.00000000       0.00000000       0.00000000     3184        2        0        0        0
S       66.51188425       5.34289362      19.29029878     183.84000005       0.00000000       0.00000000       0.00000000     3185        2        0        0        0
S       66.35134446       5.37254392      16.13618198     183.84000005       0.00000000       0.00000000       0.00000000     3186        2        0        0        0
S       69.22121092       3.69170301      19.13666198     183.84000005       0.00000000       0.00000000       0.00000000     3187        2        0        0        0
S       69.06000707       3.72068380      15.98319174     183.84000005       0.00000000       0.00000000       0.00000000     3188        2        0        0        0
S       71.92228686       2.03403194      18.99077974     183.84000005       0.00000000       0.00000000       0.00000000     3189        2        0        0        0
S       71.77138760       2.05394367      15.83745533     183.84000005       0.00000000       0.00000000       0.00000000     3190        2        0        0        0
S       74.61763601       0.36978116      18.86515698     183.84000005       0.00000000       0.00000000       0.00000000     3191        2        0        0        0
S       74.48579838       0.37348396      15.71172708     183.84000005       0.00000000       0.00000000       0.00000000     3192        2        0        0        0
S       22.72728087      34.59411471      19.95750147     183.84000005       0.00000000       0.00000000       0.00000000     3193        2        0        0        0
S       22.70903275      34.60985649      16.79730159     183.84000005       0.00000000       0.00000000       0.00000000     3194        2        0        0        0
S       25.45475772      32.93308693      19.92858255     183.84000005       0.00000000       0.00000000       0.00000000     3195        2        0        0        0
S       25.42993547      32.94972644      16.76858471     183.84000005       0.00000000       0.00000000       0.00000000     3196        2        0        0        0
S       28.18235111      31.28008295      19.89602800     183.84000005       0.00000000       0.00000000       0.00000000     3197        2        0        0        0
S       28.15722453      31.29637758      16.73634872     183.84000005       0.00000000       0.00000000       0.00000000     3198        2        0        0        0
S       30.91130289      29.63630911      19.86616761     183.84000005       0.00000000       0.00000000       0.00000000     3199        2        0        0        0
S       30.89125816      29.65090908      16.70684498     183.84000005       0.00000000       0.00000000       0.00000000     3200        2        0        0        0
S       33.64321857      28.00171350      19.84367541     183.84000005       0.00000000       0.00000000       0.00000000     3201        2        0        0        0
S       33.63107993      28.01346093      16.68467944     183.84000005       0.00000000       0.00000000       0.00000000     3202        2        0        0        0
S       36.37943919      26.37518303      19.83038958     183.84000005       0.00000000       0.00000000       0.00000000     3203        2        0        0        0
S       36.37502413      26.38336267      16.67164199     183.84000005       0.00000000       0.00000000       0.00000000     3204        2        0        0        0
S       39.12064622      24.75495585      19.82529277     183.84000005       0.00000000       0.00000000       0.00000000     3205        2        0        0        0
S       39.12132037      24.75939056      16.66669192     183.84000005       0.00000000       0.00000000       0.00000000     3206        2        0        0        0
S       41.86677221      23.13905928      19.82526132     183.84000005       0.00000000       0.00000000       0.00000000     3207        2        0        0        0
S       41.86842061      23.14006954      16.66670556     183.84000005       0.00000000       0.00000000       0.00000000     3208        2        0        0        0
S       44.61712267      21.52560661      19.82600277     183.84000005       0.00000000       0.00000000       0.00000000     3209        2        0        0        0
S       44.61500296      21.52388912      16.66740867     183.84000005       0.00000000       0.00000000       0.00000000     3210        2        0        0        0
S       47.37058329      19.91291386      19.82275395     183.84000005       0.00000000       0.00000000       0.00000000     3211        2        0        0        0
S       47.35984017      19.90946629      16.66407499     183.84000005       0.00000000       0.00000000       0.00000000     3212        2        0        0        0
S       50.12578004      18.29944072      19.81061612     183.84000005       0.00000000       0.00000000       0.00000000     3213        2        0        0        0
S       50.10168633      18.29562676      16.65186138     183.84000005       0.00000000       0.00000000       0.00000000     3214        2        0        0        0
S       52.88114192      16.68368893      19.78466322     183.84000005       0.00000000       0.00000000       0.00000000     3215        2        0        0        0
S       52.83929374      16.68141360      16.62592151     183.84000005       0.00000000       0.00000000       0.00000000     3216        2        0        0        0
S       55.63492198      15.06417841      19.74007141     183.84000005       0.00000000       0.00000000       0.00000000     3217        2        0        0        0
S       55.57159913      15.06602077      16.58153852     183.84000005       0.00000000       0.00000000       0.00000000     3218        2        0        0        0
S       58.38518568      13.43951756      19.67254628     183.84000005       0.00000000       0.00000000       0.00000000     3219        2        0        0        0
S       58.29800933      13.44856355      16.51452659     183.84000005       0.00000000       0.00000000       0.00000000     3220        2        0        0        0
S       61.12982817      11.80860166      19.57930182     183.84000005       0.00000000       0.00000000       0.00000000     3221        2        0        0        0
S       61.01871214      11.82773186      16.42214943     183.84000005       0.00000000       0.00000000       0.00000000     3222        2        0        0        0
S       63.86676200      10.17079715      19.46050327     183.84000005       0.00000000       0.00000000       0.00000000     3223        2        0        0        0
S       63.73484141      10.20147852      16.30448989     183.84000005       0.00000000       0.00000000       0.00000000     3224        2        0        0        0
S       66.59434692       8.52596359      19.32057616     183.84000005       0.00000000       0.00000000       0.00000000     3225        2        0        0        0
S       66.44834662       8.56700551      16.16571865     183.84000005       0.00000000       0.00000000       0.00000000     3226        2        0        0        0
S       69.31189668       6.87425167      19.16853554     183.84000005       0.00000000       0.00000000       0.00000000     3227        2        0        0        0
S       69.16145957       6.92119264      16.01452627     183.84000005       0.00000000       0.00000000       0.00000000     3228        2        0        0        0
S       72.02003035       5.21584769      19.01675177     183.84000005       0.00000000       0.00000000       0.00000000     3229        2        0        0        0
S       71.87596176       5.26152995      15.86311708     183.84000005       0.00000000       0.00000000       0.00000000     3230        2        0        0        0
S       74.72067815       3.55097443      18.87833950     183.84000005       0.00000000       0.00000000       0.00000000     3231        2        0        0        0
S       74.59273088       3.58733585      15.72474564     183.84000005       0.00000000       0.00000000       0.00000000     3232        2        0        0        0
S       77.41653966       1.88027082      18.76437718     183.84000005       0.00000000       0.00000000       0.00000000     3233        2        0        0        0
S       77.31205147       1.90063549      15.61065996     183.84000005       0.00000000       0.00000000       0.00000000     3234        2        0        0        0
S       80.11014199       0.20517797      18.68269803     183.84000005       0.00000000       0.00000000       0.00000000     3235        2        0        0        0
S       80.03437228       0.20540472      15.52872652     183.84000005       0.00000000       0.00000000       0.00000000     3236        2        0        0        0
S       22.76361821      37.81781633      19.96084098     183.84000005       0.00000000       0.00000000       0.00000000     3237        2        0        0        0
S       22.73421575      37.81118959      16.80071665     183.84000005       0.00000000       0.00000000       0.00000000     3238        2        0        0        0
S       25.49009023      36.15469876      19.93418498     183.84000005       0.00000000       0.00000000       0.00000000     3239        2        0        0        0
S       25.45396491      36.15000589      16.77423539     183.84000005       0.00000000       0.00000000       0.00000000     3240        2        0        0        0
S       28.21657130      34.49825177      19.90276386     183.84000005       0.00000000       0.00000000       0.00000000     3241        2        0        0        0
S       28.18021484      34.49513969      16.74309931     183.84000005       0.00000000       0.00000000       0.00000000     3242        2        0        0        0
S       30.94419460      32.84997607      19.87278480     183.84000005       0.00000000       0.00000000       0.00000000     3243        2        0        0        0
S       30.91352693      32.84788810      16.71344123     183.84000005       0.00000000       0.00000000       0.00000000     3244        2        0        0        0
S       33.67455705      31.21015853      19.84913447     183.84000005       0.00000000       0.00000000       0.00000000     3245        2        0        0        0
S       33.65311874      31.20857258      16.69009274     183.84000005       0.00000000       0.00000000       0.00000000     3246        2        0        0        0
S       36.40913992      29.57805644      19.83409573     183.84000005       0.00000000       0.00000000       0.00000000     3247        2        0        0        0
S       36.39745068      29.57666817      16.67529927     183.84000005       0.00000000       0.00000000       0.00000000     3248        2        0        0        0
S       39.14887755      27.95225654      19.82716434     183.84000005       0.00000000       0.00000000       0.00000000     3249        2        0        0        0
S       39.14484781      27.95106376      16.66853280     183.84000005       0.00000000       0.00000000       0.00000000     3250        2        0        0        0
S       41.89402729      26.33106988      19.82565272     183.84000005       0.00000000       0.00000000       0.00000000     3251        2        0        0        0
S       41.89385457      26.33037677      16.66710039     183.84000005       0.00000000       0.00000000       0.00000000     3252        2        0        0        0
S       44.64422738      24.71282610      19.82555293     183.84000005       0.00000000       0.00000000       0.00000000     3253        2        0        0        0
S       44.64328160      24.71317763      16.66700594     183.84000005       0.00000000       0.00000000       0.00000000     3254        2        0        0        0
S       47.39864105      23.09601128      19.82228123     183.84000005       0.00000000       0.00000000       0.00000000     3255        2        0        0        0
S       47.39208184      23.09811117      16.66369370     183.84000005       0.00000000       0.00000000       0.00000000     3256        2        0        0        0
S       50.15608750      21.47925001      19.81113688     183.84000005       0.00000000       0.00000000       0.00000000     3257        2        0        0        0
S       50.13921434      21.48395296      16.65250609     183.84000005       0.00000000       0.00000000       0.00000000     3258        2        0        0        0
S       52.91510347      19.86121941      19.78753311     183.84000005       0.00000000       0.00000000       0.00000000     3259        2        0        0        0
S       52.88358881      19.86962317      16.62891521     183.84000005       0.00000000       0.00000000       0.00000000     3260        2        0        0        0
S       55.67395226      18.24057415      19.74716129     183.84000005       0.00000000       0.00000000       0.00000000     3261        2        0        0        0
S       55.62413552      18.25416844      16.58868482     183.84000005       0.00000000       0.00000000       0.00000000     3262        2        0        0        0
S       58.43063856      16.61592220      19.68624096     183.84000005       0.00000000       0.00000000       0.00000000     3263        2        0        0        0
S       58.35997714      16.63667119      16.52811752     183.84000005       0.00000000       0.00000000       0.00000000     3264        2        0        0        0
S       61.18294045      14.98591199      19.60205497     183.84000005       0.00000000       0.00000000       0.00000000     3265        2        0        0        0
S       61.09068378      15.01605397      16.44455480     183.84000005       0.00000000       0.00000000       0.00000000     3266        2        0        0        0
S       63.92856324      13.34942254      19.49389353     183.84000005       0.00000000       0.00000000       0.00000000     3267        2        0        0        0
S       63.81652439      13.39079921      16.33726752     183.84000005       0.00000000       0.00000000       0.00000000     3268        2        0        0        0
S       66.66547898      11.70574180      19.36416087     183.84000005       0.00000000       0.00000000       0.00000000     3269        2        0        0        0
S       66.53853858      11.75876660      16.20852349     183.84000005       0.00000000       0.00000000       0.00000000     3270        2        0        0        0
S       69.39242262      10.05462600      19.21907858     183.84000005       0.00000000       0.00000000       0.00000000     3271        2        0        0        0
S       69.25835855      10.11728234      16.06432217     183.84000005       0.00000000       0.00000000       0.00000000     3272        2        0        0        0
S       72.10930338       8.39623561      19.06842215     183.84000005       0.00000000       0.00000000       0.00000000     3273        2        0        0        0
S       71.97774536       8.46367256      15.91423349     183.84000005       0.00000000       0.00000000       0.00000000     3274        2        0        0        0
S       74.81733653       6.73102196      18.92404405     183.84000005       0.00000000       0.00000000       0.00000000     3275        2        0        0        0
S       74.69803704       6.79620496      15.77009362     183.84000005       0.00000000       0.00000000       0.00000000     3276        2        0        0        0
S       77.51873272       5.05973684      18.79762369     183.84000005       0.00000000       0.00000000       0.00000000     3277        2        0        0        0
S       77.41992760       5.11514504      15.64372302     183.84000005       0.00000000       0.00000000       0.00000000     3278        2        0        0        0
S       80.21594087       3.38364598      18.69880406     183.84000005       0.00000000       0.00000000       0.00000000     3279        2        0        0        0
S       80.14387096       3.42308851      15.54479501     183.84000005       0.00000000       0.00000000       0.00000000     3280        2        0        0        0
S       82.91107739       1.70456761      18.63477588     183.84000005       0.00000000       0.00000000       0.00000000     3281        2        0        0        0
S       82.87044279       1.72381431      15.48055699     183.84000005       0.00000000       0.00000000       0.00000000     3282        2        0        0        0
S       25.52551032      39.37745263      19.91742491     183.84000005       0.00000000       0.00000000       0.00000000     3283        2        0        0        0
S       25.47891232      39.35116875      16.75775646     183.84000005       0.00000000       0.00000000       0.00000000     3284        2        0        0        0
S       28.25017750      37.71830897      19.88869407     183.84000005       0.00000000       0.00000000       0.00000000     3285        2        0        0        0
S       28.20372041      37.69439074      16.72924648     183.84000005       0.00000000       0.00000000       0.00000000     3286        2        0        0        0
S       30.97587187      36.06619164      19.86099823     183.84000005       0.00000000       0.00000000       0.00000000     3287        2        0        0        0
S       30.93598313      36.04494523      16.70179517     183.84000005       0.00000000       0.00000000       0.00000000     3288        2        0        0        0
S       33.70416710      34.42165642      19.83931164     183.84000005       0.00000000       0.00000000       0.00000000     3289        2        0        0        0
S       33.67504855      34.40336263      16.68033584     183.84000005       0.00000000       0.00000000       0.00000000     3290        2        0        0        0
S       36.43662829      32.78426140      19.82616042     183.84000005       0.00000000       0.00000000       0.00000000     3291        2        0        0        0
S       36.41943073      32.76927245      16.66737313     183.84000005       0.00000000       0.00000000       0.00000000     3292        2        0        0        0
S       39.17437179      31.15289931      19.82132201     183.84000005       0.00000000       0.00000000       0.00000000     3293        2        0        0        0
S       39.16746740      31.14167004      16.66266688     183.84000005       0.00000000       0.00000000       0.00000000     3294        2        0        0        0
S       41.91788994      29.52617473      19.82234560     183.84000005       0.00000000       0.00000000       0.00000000     3295        2        0        0        0
S       41.91773251      29.51924320      16.66375798     183.84000005       0.00000000       0.00000000       0.00000000     3296        2        0        0        0
S       44.66708455      27.90266543      19.82537215     183.84000005       0.00000000       0.00000000       0.00000000     3297        2        0        0        0
S       44.66911773      27.90063556      16.66679541     183.84000005       0.00000000       0.00000000       0.00000000     3298        2        0        0        0
S       47.42136505      26.28105055      19.82588248     183.84000005       0.00000000       0.00000000       0.00000000     3299        2        0        0        0
S       47.42071534      26.28455700      16.66728030     183.84000005       0.00000000       0.00000000       0.00000000     3300        2        0        0        0
S       50.17976636      24.66012776      19.81922180     183.84000005       0.00000000       0.00000000       0.00000000     3301        2        0        0        0
S       50.17168671      24.66982262      16.66059230     183.84000005       0.00000000       0.00000000       0.00000000     3302        2        0        0        0
S       52.94100812      23.03873540      19.80090562     183.84000005       0.00000000       0.00000000       0.00000000     3303        2        0        0        0
S       52.92115681      23.05533585      16.64229579     183.84000005       0.00000000       0.00000000       0.00000000     3304        2        0        0        0
S       55.70349614      21.41568965      19.76684261     183.84000005       0.00000000       0.00000000       0.00000000     3305        2        0        0        0
S       55.66821330      21.44005812      16.60835167     183.84000005       0.00000000       0.00000000       0.00000000     3306        2        0        0        0
S       58.46532297      19.78973318      19.71357140     183.84000005       0.00000000       0.00000000       0.00000000     3307        2        0        0        0
S       58.41197971      19.82295964      16.55535750     183.84000005       0.00000000       0.00000000       0.00000000     3308        2        0        0        0
S       61.22428415      18.15954067      19.63861753     183.84000005       0.00000000       0.00000000       0.00000000     3309        2        0        0        0
S       61.15176696      18.20293101      16.48088563     183.84000005       0.00000000       0.00000000       0.00000000     3310        2        0        0        0
S       63.97799378      16.52380680      19.54108143     183.84000005       0.00000000       0.00000000       0.00000000     3311        2        0        0        0
S       63.88727208      16.57862857      16.38403593     183.84000005       0.00000000       0.00000000       0.00000000     3312        2        0        0        0
S       66.72415429      14.88142969      19.42239455     183.84000005       0.00000000       0.00000000       0.00000000     3313        2        0        0        0
S       66.61873441      14.94831573      16.26616393     183.84000005       0.00000000       0.00000000       0.00000000     3314        2        0        0        0
S       69.46099135      13.23167979      19.28695064     183.84000005       0.00000000       0.00000000       0.00000000     3315        2        0        0        0
S       69.34694111      13.30982478      16.13151869     183.84000005       0.00000000       0.00000000       0.00000000     3316        2        0        0        0
S       72.18771230      11.57432267      19.14220809     183.84000005       0.00000000       0.00000000       0.00000000     3317        2        0        0        0
S       72.07307421      11.66078926      15.98740703     183.84000005       0.00000000       0.00000000       0.00000000     3318        2        0        0        0
S       74.90473844       9.90965323      18.99799817     183.84000005       0.00000000       0.00000000       0.00000000     3319        2        0        0        0
S       74.79839282       9.99922502      15.84359034     183.84000005       0.00000000       0.00000000       0.00000000     3320        2        0        0        0
S       77.61359970       8.23843381      18.86511935     183.84000005       0.00000000       0.00000000       0.00000000     3321        2        0        0        0
S       77.52392048       8.32434622      15.71093823     183.84000005       0.00000000       0.00000000       0.00000000     3322        2        0        0        0
S       80.31639973       6.56188768      18.75375576     183.84000005       0.00000000       0.00000000       0.00000000     3323        2        0        0        0
S       80.25037796       6.63727448      15.59967263     183.84000005       0.00000000       0.00000000       0.00000000     3324        2        0        0        0
S       -2.60339562       4.88172355      18.67249827     183.84000005       0.00000000       0.00000000       0.00000000     3325        2        0        0        0
S       -2.64021937       4.94079043      15.51835408     183.84000005       0.00000000       0.00000000       0.00000000     3326        2        0        0        0
S        0.09342690       3.19996823      18.62804873     183.84000005       0.00000000       0.00000000       0.00000000     3327        2        0        0        0
S        0.08975518       3.23845611      15.47379383     183.84000005       0.00000000       0.00000000       0.00000000     3328        2        0        0        0
S       25.56296998      42.60046901      19.87840110     183.84000005       0.00000000       0.00000000       0.00000000     3329        2        0        0        0
S       25.50608255      42.55348439      16.71923702     183.84000005       0.00000000       0.00000000       0.00000000     3330        2        0        0        0
S       28.28504950      40.93934814      19.85274069     183.84000005       0.00000000       0.00000000       0.00000000     3331        2        0        0        0
S       28.22897065      40.89436189      16.69372377     183.84000005       0.00000000       0.00000000       0.00000000     3332        2        0        0        0
S       31.00810691      39.28405018      19.82860052     183.84000005       0.00000000       0.00000000       0.00000000     3333        2        0        0        0
S       30.95977966      39.24223545      16.66972813     183.84000005       0.00000000       0.00000000       0.00000000     3334        2        0        0        0
S       33.73370851      37.63536462      19.81101244     183.84000005       0.00000000       0.00000000       0.00000000     3335        2        0        0        0
S       33.69800920      37.59787994      16.65225501     183.84000005       0.00000000       0.00000000       0.00000000     3336        2        0        0        0
S       36.46349487      35.99307713      19.80263448     183.84000005       0.00000000       0.00000000       0.00000000     3337        2        0        0        0
S       36.44216518      35.96111439      16.64396165     183.84000005       0.00000000       0.00000000       0.00000000     3338        2        0        0        0
S       39.19872515      34.35633858      19.80333614     183.84000005       0.00000000       0.00000000       0.00000000     3339        2        0        0        0
S       39.19051600      34.33104502      16.64471169     183.84000005       0.00000000       0.00000000       0.00000000     3340        2        0        0        0
S       41.94006969      32.72402497      19.81067334     183.84000005       0.00000000       0.00000000       0.00000000     3341        2        0        0        0
S       41.94158083      32.70642297      16.65205488     183.84000005       0.00000000       0.00000000       0.00000000     3342        2        0        0        0
S       44.68762081      31.09498927      19.82073137     183.84000005       0.00000000       0.00000000       0.00000000     3343        2        0        0        0
S       44.69426748      31.08593437      16.66208409     183.84000005       0.00000000       0.00000000       0.00000000     3344        2        0        0        0
S       47.44097070      29.46815563      19.82891064     183.84000005       0.00000000       0.00000000       0.00000000     3345        2        0        0        0
S       47.44776292      29.46834891      16.67021388     183.84000005       0.00000000       0.00000000       0.00000000     3346        2        0        0        0
S       50.19931924      27.84251684      19.83049051     183.84000005       0.00000000       0.00000000       0.00000000     3347        2        0        0        0
S       50.20138483      27.85254592      16.67175239     183.84000005       0.00000000       0.00000000       0.00000000     3348        2        0        0        0
S       52.96155322      26.21707500      19.82097464     183.84000005       0.00000000       0.00000000       0.00000000     3349        2        0        0        0
S       52.95446470      26.23747799      16.66224353     183.84000005       0.00000000       0.00000000       0.00000000     3350        2        0        0        0
S       55.72625168      24.59078229      19.79631923     183.84000005       0.00000000       0.00000000       0.00000000     3351        2        0        0        0
S       55.70629320      24.62212061      16.63769176     183.84000005       0.00000000       0.00000000       0.00000000     3352        2        0        0        0
S       58.49168754      22.96250977      19.75316635     183.84000005       0.00000000       0.00000000       0.00000000     3353        2        0        0        0
S       58.45613226      23.00541215      16.59478362     183.84000005       0.00000000       0.00000000       0.00000000     3354        2        0        0        0
S       61.25581496      21.33104050      19.68913071     183.84000005       0.00000000       0.00000000       0.00000000     3355        2        0        0        0
S       61.20328664      21.38618572      16.53116758     183.84000005       0.00000000       0.00000000       0.00000000     3356        2        0        0        0
S       64.01632493      19.69509879      19.60323105     183.84000005       0.00000000       0.00000000       0.00000000     3357        2        0        0        0
S       63.94721629      19.76308575      16.44586233     183.84000005       0.00000000       0.00000000       0.00000000     3358        2        0        0        0
S       66.77083975      18.05344791      19.49640782     183.84000005       0.00000000       0.00000000       0.00000000     3359        2        0        0        0
S       66.68765280      18.13448489      16.33975960     183.84000005       0.00000000       0.00000000       0.00000000     3360        2        0        0        0
S       69.51724105      16.40506224      19.37198682     183.84000005       0.00000000       0.00000000       0.00000000     3361        2        0        0        0
S       69.42468389      16.49847465      16.21608403     183.84000005       0.00000000       0.00000000       0.00000000     3362        2        0        0        0
S       72.25412262      14.74929940      19.23582951     183.84000005       0.00000000       0.00000000       0.00000000     3363        2        0        0        0
S       72.15875342      14.85301111      16.08057586     183.84000005       0.00000000       0.00000000       0.00000000     3364        2        0        0        0
S       74.98110723      13.08607157      19.09598258     183.84000005       0.00000000       0.00000000       0.00000000     3365        2        0        0        0
S       74.89059224      13.19625980      15.94119994     183.84000005       0.00000000       0.00000000       0.00000000     3366        2        0        0        0
S       77.69890055      11.41588573      18.96183305     183.84000005       0.00000000       0.00000000       0.00000000     3367        2        0        0        0
S       77.62107728      11.52709294      15.80738202     183.84000005       0.00000000       0.00000000       0.00000000     3368        2        0        0        0
S       -5.20959892       9.73981026      18.84305810     183.84000005       0.00000000       0.00000000       0.00000000     3369        2        0        0        0
S       -5.26752125       9.84567930      15.68886669     183.84000005       0.00000000       0.00000000       0.00000000     3370        2        0        0        0
S       -2.50532993       8.05940777      18.74870762     183.84000005       0.00000000       0.00000000       0.00000000     3371        2        0        0        0
S       -2.53717663       8.15370827      15.59465940     183.84000005       0.00000000       0.00000000       0.00000000     3372        2        0        0        0
S        0.19501871       6.37664406      18.68660730     183.84000005       0.00000000       0.00000000       0.00000000     3373        2        0        0        0
S        0.19404795       6.45397104      15.53256970     183.84000005       0.00000000       0.00000000       0.00000000     3374        2        0        0        0
S       28.32318405      44.16040052      19.79500997     183.84000005       0.00000000       0.00000000       0.00000000     3375        2        0        0        0
S       28.25737768      44.09533084      16.63662558     183.84000005       0.00000000       0.00000000       0.00000000     3376        2        0        0        0
S       31.04286336      42.50254073      19.77451211     183.84000005       0.00000000       0.00000000       0.00000000     3377        2        0        0        0
S       30.98625420      42.43997153      16.61616657     183.84000005       0.00000000       0.00000000       0.00000000     3378        2        0        0        0
S       33.76507192      40.85027401      19.76201260     183.84000005       0.00000000       0.00000000       0.00000000     3379        2        0        0        0
S       33.72327096      40.79221954      16.60365345     183.84000005       0.00000000       0.00000000       0.00000000     3380        2        0        0        0
S       36.49155696      39.20357162      19.76030523     183.84000005       0.00000000       0.00000000       0.00000000     3381        2        0        0        0
S       36.46691905      39.15213456      16.60189355     183.84000005       0.00000000       0.00000000       0.00000000     3382        2        0        0        0
S       39.22372297      37.56177328      19.76922967     183.84000005       0.00000000       0.00000000       0.00000000     3383        2        0        0        0
S       39.21531988      37.51897359      16.61074057     183.84000005       0.00000000       0.00000000       0.00000000     3384        2        0        0        0
S       41.96239064      35.92399401      19.78614045     183.84000005       0.00000000       0.00000000       0.00000000     3385        2        0        0        0
S       41.96684810      35.89156439      16.62755206     183.84000005       0.00000000       0.00000000       0.00000000     3386        2        0        0        0
S       44.70778890      34.28935773      19.80681878     183.84000005       0.00000000       0.00000000       0.00000000     3387        2        0        0        0
S       44.72034138      34.26863102      16.64811372     183.84000005       0.00000000       0.00000000       0.00000000     3388        2        0        0        0
S       47.45963514      32.65707216      19.82635566     183.84000005       0.00000000       0.00000000       0.00000000     3389        2        0        0        0
S       47.47503338      32.64897715      16.66753345     183.84000005       0.00000000       0.00000000       0.00000000     3390        2        0        0        0
S       50.21723564      31.02637790      19.83980197     183.84000005       0.00000000       0.00000000       0.00000000     3391        2        0        0        0
S       50.23036059      31.03152407      16.68088409     183.84000005       0.00000000       0.00000000       0.00000000     3392        2        0        0        0
S       52.97957346      29.39647308      19.84254822     183.84000005       0.00000000       0.00000000       0.00000000     3393        2        0        0        0
S       52.98582818      29.41527686      16.68359361     183.84000005       0.00000000       0.00000000       0.00000000     3394        2        0        0        0
S       55.74535704      27.76644597      19.83053649     183.84000005       0.00000000       0.00000000       0.00000000     3395        2        0        0        0
S       55.74091705      27.79926651      16.67164714     183.84000005       0.00000000       0.00000000       0.00000000     3396        2        0        0        0
S       58.51302728      26.13526990      19.80043248     183.84000005       0.00000000       0.00000000       0.00000000     3397        2        0        0        0
S       58.49505418      26.18247667      16.64175207     183.84000005       0.00000000       0.00000000       0.00000000     3398        2        0        0        0
S       61.28074551      24.50180834      19.74984112     183.84000005       0.00000000       0.00000000       0.00000000     3399        2        0        0        0
S       61.24764904      24.56376522      16.59154440     183.84000005       0.00000000       0.00000000       0.00000000     3400        2        0        0        0
S       64.04641032      22.86484650      19.67762591     183.84000005       0.00000000       0.00000000       0.00000000     3401        2        0        0        0
S       63.99814197      22.94178880      16.51988967     183.84000005       0.00000000       0.00000000       0.00000000     3402        2        0        0        0
S       66.80775286      21.22316035      19.58431348     183.84000005       0.00000000       0.00000000       0.00000000     3403        2        0        0        0
S       66.74605391      21.31494431      16.42727418     183.84000005       0.00000000       0.00000000       0.00000000     3404        2        0        0        0
S       69.56254846      19.57562747      19.47245465     183.84000005       0.00000000       0.00000000       0.00000000     3405        2        0        0        0
S       69.49106190      19.68139358      16.31617044     183.84000005       0.00000000       0.00000000       0.00000000     3406        2        0        0        0
S       72.30898094      17.92138146      19.34679755     183.84000005       0.00000000       0.00000000       0.00000000     3407        2        0        0        0
S       72.23304321      18.03921374      16.19122663     183.84000005       0.00000000       0.00000000       0.00000000     3408        2        0        0        0
S       75.04598927      16.25998981      19.21407658     183.84000005       0.00000000       0.00000000       0.00000000     3409        2        0        0        0
S       74.97213408      16.38669421      16.05908151     183.84000005       0.00000000       0.00000000       0.00000000     3410        2        0        0        0
S       -7.84516749      14.59159120      19.08243929     183.84000005       0.00000000       0.00000000       0.00000000     3411        2        0        0        0
S       -7.90986809      14.72268544      15.92786026     183.84000005       0.00000000       0.00000000       0.00000000     3412        2        0        0        0
S       -5.12652093      12.91694150      18.96071534     183.84000005       0.00000000       0.00000000       0.00000000     3413        2        0        0        0
S       -5.17506780      13.04695109      15.80646827     183.84000005       0.00000000       0.00000000       0.00000000     3414        2        0        0        0
S       -2.41535706      11.23734529      18.85775774     183.84000005       0.00000000       0.00000000       0.00000000     3415        2        0        0        0
S       -2.44129449      11.36040709      15.70377909     183.84000005       0.00000000       0.00000000       0.00000000     3416        2        0        0        0
S        0.29001268       9.55457017      18.78182259     183.84000005       0.00000000       0.00000000       0.00000000     3417        2        0        0        0
S        0.29210130       9.66504161      15.62800682     183.84000005       0.00000000       0.00000000       0.00000000     3418        2        0        0        0
S        2.99170067       7.87076074      18.73975705     183.84000005       0.00000000       0.00000000       0.00000000     3419        2        0        0        0
S        3.02522161       7.96375573      15.58599636     183.84000005       0.00000000       0.00000000       0.00000000     3420        2        0        0        0
S       28.36656664      47.38041551      19.71697649     183.84000005       0.00000000       0.00000000       0.00000000     3421        2        0        0        0
S       28.29054112      47.29764477      16.55938611     183.84000005       0.00000000       0.00000000       0.00000000     3422        2        0        0        0
S       31.08219966      45.72052949      19.69903199     183.84000005       0.00000000       0.00000000       0.00000000     3423        2        0        0        0
S       31.01696012      45.63847846      16.54138730     183.84000005       0.00000000       0.00000000       0.00000000     3424        2        0        0        0
S       33.80033663      44.06520382      19.69135258     183.84000005       0.00000000       0.00000000       0.00000000     3425        2        0        0        0
S       33.75228025      43.98659560      16.53357080     183.84000005       0.00000000       0.00000000       0.00000000     3426        2        0        0        0
S       36.52286717      42.41459091      19.69697398     183.84000005       0.00000000       0.00000000       0.00000000     3427        2        0        0        0
S       36.49505347      42.34236044      16.53899918     183.84000005       0.00000000       0.00000000       0.00000000     3428        2        0        0        0
S       39.25137766      40.76816698      19.71572330     183.84000005       0.00000000       0.00000000       0.00000000     3429        2        0        0        0
S       39.24321094      40.70526698      16.55752721     183.84000005       0.00000000       0.00000000       0.00000000     3430        2        0        0        0
S       41.98684969      39.12521934      19.74461049     183.84000005       0.00000000       0.00000000       0.00000000     3431        2        0        0        0
S       41.99489381      39.07427525      16.58617787     183.84000005       0.00000000       0.00000000       0.00000000     3432        2        0        0        0
S       44.72962847      37.48511717      19.77886975     183.84000005       0.00000000       0.00000000       0.00000000     3433        2        0        0        0
S       44.74878841      37.44817350      16.62019514     183.84000005       0.00000000       0.00000000       0.00000000     3434        2        0        0        0
S       47.47951111      35.84734922      19.81301097     183.84000005       0.00000000       0.00000000       0.00000000     3435        2        0        0        0
S       47.50410041      35.82579195      16.65410566     183.84000005       0.00000000       0.00000000       0.00000000     3436        2        0        0        0
S       50.23586092      34.21144481      19.84160890     183.84000005       0.00000000       0.00000000       0.00000000     3437        2        0        0        0
S       50.26035731      34.20606845      16.68250796     183.84000005       0.00000000       0.00000000       0.00000000     3438        2        0        0        0
S       52.99769862      32.57684575      19.85976154     183.84000005       0.00000000       0.00000000       0.00000000     3439        2        0        0        0
S       53.01720495      32.58803081      16.70053744     183.84000005       0.00000000       0.00000000       0.00000000     3440        2        0        0        0
S       55.76379336      30.94282477      19.86330836     183.84000005       0.00000000       0.00000000       0.00000000     3441        2        0        0        0
S       55.77429278      30.97073879      16.70407491     183.84000005       0.00000000       0.00000000       0.00000000     3442        2        0        0        0
S       58.53268369      29.30846413      19.84892570     183.84000005       0.00000000       0.00000000       0.00000000     3443        2        0        0        0
S       58.53120830      29.35322292      16.68983548     183.84000005       0.00000000       0.00000000       0.00000000     3444        2        0        0        0
S       61.30269539      27.67268408      19.81422849     183.84000005       0.00000000       0.00000000       0.00000000     3445        2        0        0        0
S       61.28747903      27.73441103      16.65546464     183.84000005       0.00000000       0.00000000       0.00000000     3446        2        0        0        0
S       64.07194181      26.03429872      19.75795728     183.84000005       0.00000000       0.00000000       0.00000000     3447        2        0        0        0
S       64.04260279      26.11304031      16.59971181     183.84000005       0.00000000       0.00000000       0.00000000     3448        2        0        0        0
S       66.83836386      24.39209409      19.68026276     183.84000005       0.00000000       0.00000000       0.00000000     3449        2        0        0        0
S       66.79607700      24.48760078      16.52270492     183.84000005       0.00000000       0.00000000       0.00000000     3450        2        0        0        0
S       69.59983637      22.74492194      19.58301095     183.84000005       0.00000000       0.00000000       0.00000000     3451        2        0        0        0
S       69.54741642      22.85633750      16.42624741     183.84000005       0.00000000       0.00000000       0.00000000     3452        2        0        0        0
S       72.35439061      21.09183313      19.46999480     183.84000005       0.00000000       0.00000000       0.00000000     3453        2        0        0        0
S       72.29620596      21.21738071      16.31403619     183.84000005       0.00000000       0.00000000       0.00000000     3454        2        0        0        0
S      -10.51810566      19.43220732      19.34687747     183.84000005       0.00000000       0.00000000       0.00000000     3455        2        0        0        0
S      -10.57644757      19.56901836      16.19164213     183.84000005       0.00000000       0.00000000       0.00000000     3456        2        0        0        0
S       -7.78124370      17.76588799      19.22081703     183.84000005       0.00000000       0.00000000       0.00000000     3457        2        0        0        0
S       -7.83336010      17.91003847      16.06615794     183.84000005       0.00000000       0.00000000       0.00000000     3458        2        0        0        0
S       -5.05368627      16.09328127      19.09988893     183.84000005       0.00000000       0.00000000       0.00000000     3459        2        0        0        0
S       -5.09289450      16.24001504      15.94566554     183.84000005       0.00000000       0.00000000       0.00000000     3460        2        0        0        0
S       -2.33478006      14.41535752      18.99254773     183.84000005       0.00000000       0.00000000       0.00000000     3461        2        0        0        0
S       -2.35455823      14.55943418      15.83865588     183.84000005       0.00000000       0.00000000       0.00000000     3462        2        0        0        0
S        0.37671425      12.73358785      18.90707159     183.84000005       0.00000000       0.00000000       0.00000000     3463        2        0        0        0
S        0.38213291      12.86966812      15.75341836     183.84000005       0.00000000       0.00000000       0.00000000     3464        2        0        0        0
S        3.08267268      11.04990260      18.85076705     183.84000005       0.00000000       0.00000000       0.00000000     3465        2        0        0        0
S        3.11728668      11.17293152      15.69725314     183.84000005       0.00000000       0.00000000       0.00000000     3466        2        0        0        0
S       31.12813706      48.93679625      19.60411447     183.84000005       0.00000000       0.00000000       0.00000000     3467        2        0        0        0
S       31.05365136      48.83819441      16.44728251     183.84000005       0.00000000       0.00000000       0.00000000     3468        2        0        0        0
S       33.84166324      47.27883814      19.59971269     183.84000005       0.00000000       0.00000000       0.00000000     3469        2        0        0        0
S       33.78668867      47.18139592      16.44264452     183.84000005       0.00000000       0.00000000       0.00000000     3470        2        0        0        0
S       36.55965506      45.62478758      19.61187536     183.84000005       0.00000000       0.00000000       0.00000000     3471        2        0        0        0
S       36.52804900      45.53202513      16.45450523     183.84000005       0.00000000       0.00000000       0.00000000     3472        2        0        0        0
S       39.28391935      43.97425499      19.64059323     183.84000005       0.00000000       0.00000000       0.00000000     3473        2        0        0        0
S       39.27552987      43.88991881      16.48288365     183.84000005       0.00000000       0.00000000       0.00000000     3474        2        0        0        0
S       42.01563791      42.32662590      19.68256145     183.84000005       0.00000000       0.00000000       0.00000000     3475        2        0        0        0
S       42.02698293      42.25428946      16.52448577     183.84000005       0.00000000       0.00000000       0.00000000     3476        2        0        0        0
S       44.75529068      40.68143660      19.73231457     183.84000005       0.00000000       0.00000000       0.00000000     3477        2        0        0        0
S       44.78086386      40.62406907      16.57385636     183.84000005       0.00000000       0.00000000       0.00000000     3478        2        0        0        0
S       47.50274401      39.03841658      19.78352313     183.84000005       0.00000000       0.00000000       0.00000000     3479        2        0        0        0
S       47.53627801      38.99814488      16.62468288     183.84000005       0.00000000       0.00000000       0.00000000     3480        2        0        0        0
S       50.25738641      37.39737851      19.82998639     183.84000005       0.00000000       0.00000000       0.00000000     3481        2        0        0        0
S       50.29278610      37.37546875      16.67080429     183.84000005       0.00000000       0.00000000       0.00000000     3482        2        0        0        0
S       53.01824570      35.75805051      19.86624475     183.84000005       0.00000000       0.00000000       0.00000000     3483        2        0        0        0
S       53.05015376      35.75505560      16.70680247     183.84000005       0.00000000       0.00000000       0.00000000     3484        2        0        0        0
S       55.78408808      34.11993299      19.88784078     183.84000005       0.00000000       0.00000000       0.00000000     3485        2        0        0        0
S       55.80817585      34.13593978      16.72826544     183.84000005       0.00000000       0.00000000       0.00000000     3486        2        0        0        0
S       58.55348432      32.48227332      19.89137712     183.84000005       0.00000000       0.00000000       0.00000000     3487        2        0        0        0
S       58.56659100      32.51715331      16.73183447     183.84000005       0.00000000       0.00000000       0.00000000     3488        2        0        0        0
S       61.32483955      30.84407555      19.87450797     183.84000005       0.00000000       0.00000000       0.00000000     3489        2        0        0        0
S       61.32504264      30.89765571      16.71519215     183.84000005       0.00000000       0.00000000       0.00000000     3490        2        0        0        0
S       64.09641907      29.20417238      19.83596059     183.84000005       0.00000000       0.00000000       0.00000000     3491        2        0        0        0
S       64.08310098      29.27627507      16.67707984     183.84000005       0.00000000       0.00000000       0.00000000     3492        2        0        0        0
S       66.86635418      27.56132960      19.77566686     183.84000005       0.00000000       0.00000000       0.00000000     3493        2        0        0        0
S       66.84029256      27.65163765      16.61741902     183.84000005       0.00000000       0.00000000       0.00000000     3494        2        0        0        0
S       69.63269593      25.91435776      19.69497928     183.84000005       0.00000000       0.00000000       0.00000000     3495        2        0        0        0
S       69.59611775      26.02215250      16.53752159     183.84000005       0.00000000       0.00000000       0.00000000     3496        2        0        0        0
S      -13.22509669      24.26223184      19.59686741     183.84000005       0.00000000       0.00000000       0.00000000     3497        2        0        0        0
S      -13.26854816      24.38608946      16.44027985     183.84000005       0.00000000       0.00000000       0.00000000     3498        2        0        0        0
S      -10.47150925      22.60422656      19.48600529     183.84000005       0.00000000       0.00000000       0.00000000     3499        2        0        0        0
S      -10.51693668      22.74177844      16.33027354     183.84000005       0.00000000       0.00000000       0.00000000     3500        2        0        0        0
S       -7.72644163      20.94000839      19.36862619     183.84000005       0.00000000       0.00000000       0.00000000     3501        2        0        0        0
S       -7.76798804      21.08790543      16.21365540     183.84000005       0.00000000       0.00000000       0.00000000     3502        2        0        0        0
S       -4.99058214      19.26971436      19.25212816     183.84000005       0.00000000       0.00000000       0.00000000     3503        2        0        0        0
S       -5.02181477      19.42382632      16.09776925     183.84000005       0.00000000       0.00000000       0.00000000     3504        2        0        0        0
S       -2.26395391      17.59399401      19.14456203     183.84000005       0.00000000       0.00000000       0.00000000     3505        2        0        0        0
S       -2.27833583      17.74970445      15.99065521     183.84000005       0.00000000       0.00000000       0.00000000     3506        2        0        0        0
S        0.45412930      15.91400371      19.05406605     183.84000005       0.00000000       0.00000000       0.00000000     3507        2        0        0        0
S        0.46256162      16.06647968      15.90046828     183.84000005       0.00000000       0.00000000       0.00000000     3508        2        0        0        0
S        3.16515427      14.23137419      18.98806473     183.84000005       0.00000000       0.00000000       0.00000000     3509        2        0        0        0
S        3.20071134      14.37578658      15.83466556     183.84000005       0.00000000       0.00000000       0.00000000     3510        2        0        0        0
S        5.87149548      12.54822881      18.95208042     183.84000005       0.00000000       0.00000000       0.00000000     3511        2        0        0        0
S        5.93550232      12.68005679      15.79877725     183.84000005       0.00000000       0.00000000       0.00000000     3512        2        0        0        0
S       31.18244839      52.15013300      19.49356146     183.84000005       0.00000000       0.00000000       0.00000000     3513        2        0        0        0
S       31.09814585      52.03964655      16.33755858     183.84000005       0.00000000       0.00000000       0.00000000     3514        2        0        0        0
S       33.89110244      50.48983747      19.48973951     183.84000005       0.00000000       0.00000000       0.00000000     3515        2        0        0        0
S       33.82828575      50.37721781      16.33344198     183.84000005       0.00000000       0.00000000       0.00000000     3516        2        0        0        0
S       36.60416082      48.83273445      19.50614791     183.84000005       0.00000000       0.00000000       0.00000000     3517        2        0        0        0
S       36.56750889      48.72167938      16.34949758     183.84000005       0.00000000       0.00000000       0.00000000     3518        2        0        0        0
S       39.32367235      47.17861478      19.54321696     183.84000005       0.00000000       0.00000000       0.00000000     3519        2        0        0        0
S       39.31365196      47.07331631      16.38618059     183.84000005       0.00000000       0.00000000       0.00000000     3520        2        0        0        0
S       42.05106098      45.52693047      19.59759036     183.84000005       0.00000000       0.00000000       0.00000000     3521        2        0        0        0
S       42.06431356      45.43175164      16.44012152     183.84000005       0.00000000       0.00000000       0.00000000     3522        2        0        0        0
S       44.78699128      43.87728223      19.66317224     183.84000005       0.00000000       0.00000000       0.00000000     3523        2        0        0        0
S       44.81766651      43.79621090      16.50521348     183.84000005       0.00000000       0.00000000       0.00000000     3524        2        0        0        0
S       47.53143816      42.22954099      19.73264564     183.84000005       0.00000000       0.00000000       0.00000000     3525        2        0        0        0
S       47.57264112      42.16572954      16.57415590     183.84000005       0.00000000       0.00000000       0.00000000     3526        2        0        0        0
S       50.28382240      40.58375069      19.79876850     183.84000005       0.00000000       0.00000000       0.00000000     3527        2        0        0        0
S       50.32876832      40.53929891      16.63975541     183.84000005       0.00000000       0.00000000       0.00000000     3528        2        0        0        0
S       53.04317192      38.93991005      19.85520291     183.84000005       0.00000000       0.00000000       0.00000000     3529        2        0        0        0
S       53.08589354      38.91590921      16.69574050     183.84000005       0.00000000       0.00000000       0.00000000     3530        2        0        0        0
S       55.80822547      37.29778293      19.89689697     183.84000005       0.00000000       0.00000000       0.00000000     3531        2        0        0        0
S       55.84393455      37.29452987      16.73711867     183.84000005       0.00000000       0.00000000       0.00000000     3532        2        0        0        0
S       58.57752181      35.65683412      19.92016378     183.84000005       0.00000000       0.00000000       0.00000000     3533        2        0        0        0
S       58.60276137      35.67412177      16.76025117     183.84000005       0.00000000       0.00000000       0.00000000     3534        2        0        0        0
S       61.34948177      34.01621082      19.92260629     183.84000005       0.00000000       0.00000000       0.00000000     3535        2        0        0        0
S       61.36213519      34.05360793      16.76276900     183.84000005       0.00000000       0.00000000       0.00000000     3536        2        0        0        0
S       64.12243355      32.37481511      19.90299784     183.84000005       0.00000000       0.00000000       0.00000000     3537        2        0        0        0
S       64.12170567      32.43183633      16.74346053     183.84000005       0.00000000       0.00000000       0.00000000     3538        2        0        0        0
S       66.89462825      30.73140247      19.86123721     183.84000005       0.00000000       0.00000000       0.00000000     3539        2        0        0        0
S       66.88104632      30.80754280      16.70221927     183.84000005       0.00000000       0.00000000       0.00000000     3540        2        0        0        0
S      -15.95435676      29.08472615      19.79842259     183.84000005       0.00000000       0.00000000       0.00000000     3541        2        0        0        0
S      -15.97893417      29.17931676      16.64011506     183.84000005       0.00000000       0.00000000       0.00000000     3542        2        0        0        0
S      -13.18910670      27.43366618      19.71698114     183.84000005       0.00000000       0.00000000       0.00000000     3543        2        0        0        0
S      -13.22151168      27.54563286      16.55952264     183.84000005       0.00000000       0.00000000       0.00000000     3544        2        0        0        0
S      -10.42997151      25.77736599      19.62078925     183.84000005       0.00000000       0.00000000       0.00000000     3545        2        0        0        0
S      -10.46579363      25.90497889      16.46423722     183.84000005       0.00000000       0.00000000       0.00000000     3546        2        0        0        0
S       -7.67846250      24.11534481      19.51520344     183.84000005       0.00000000       0.00000000       0.00000000     3547        2        0        0        0
S       -7.71221631      24.25605801      16.35952854     183.84000005       0.00000000       0.00000000       0.00000000     3548        2        0        0        0
S       -4.93569231      22.44755192      19.40689662     183.84000005       0.00000000       0.00000000       0.00000000     3549        2        0        0        0
S       -4.96111152      22.59804343      16.25199215     183.84000005       0.00000000       0.00000000       0.00000000     3550        2        0        0        0
S       -2.20221002      20.77439201      19.30345355     183.84000005       0.00000000       0.00000000       0.00000000     3551        2        0        0        0
S       -2.21274063      20.93077941      16.14915839     183.84000005       0.00000000       0.00000000       0.00000000     3552        2        0        0        0
S        0.52215758      19.09673196      19.21275319     183.84000005       0.00000000       0.00000000       0.00000000     3553        2        0        0        0
S        0.53257309      19.25480450      16.05890149     183.84000005       0.00000000       0.00000000       0.00000000     3554        2        0        0        0
S        3.23847997      17.41590690      19.14210567     183.84000005       0.00000000       0.00000000       0.00000000     3555        2        0        0        0
S        3.27424893      17.57126537      15.98856823     183.84000005       0.00000000       0.00000000       0.00000000     3556        2        0        0        0
S        5.94884773      15.73374818      19.09708569     183.84000005       0.00000000       0.00000000       0.00000000     3557        2        0        0        0
S        6.01136982      15.88194959      15.94376465     183.84000005       0.00000000       0.00000000       0.00000000     3558        2        0        0        0
S       33.95029855      53.69706043      19.36619032     183.84000005       0.00000000       0.00000000       0.00000000     3559        2        0        0        0
S       33.87882470      53.57482236      16.21062132     183.84000005       0.00000000       0.00000000       0.00000000     3560        2        0        0        0
S       36.65833830      52.03711871      19.38323234     183.84000005       0.00000000       0.00000000       0.00000000     3561        2        0        0        0
S       36.61510241      51.91224912      16.22731977     183.84000005       0.00000000       0.00000000       0.00000000     3562        2        0        0        0
S       39.37277343      50.37981150      19.42524360     183.84000005       0.00000000       0.00000000       0.00000000     3563        2        0        0        0
S       39.35902429      50.25642741      16.26899143     183.84000005       0.00000000       0.00000000       0.00000000     3564        2        0        0        0
S       42.09530132      48.72469674      19.48926466     183.84000005       0.00000000       0.00000000       0.00000000     3565        2        0        0        0
S       42.10811076      48.60754454      16.33262694     183.84000005       0.00000000       0.00000000       0.00000000     3566        2        0        0        0
S       44.82683269      47.07135907      19.56893771     183.84000005       0.00000000       0.00000000       0.00000000     3567        2        0        0        0
S       44.86026131      46.96530146      16.41180499     183.84000005       0.00000000       0.00000000       0.00000000     3568        2        0        0        0
S       47.56752667      45.41968933      19.65607678     183.84000005       0.00000000       0.00000000       0.00000000     3569        2        0        0        0
S       47.61418080      45.32904898      16.49832951     183.84000005       0.00000000       0.00000000       0.00000000     3570        2        0        0        0
S       50.31690892      43.76983691      19.74225809     183.84000005       0.00000000       0.00000000       0.00000000     3571        2        0        0        0
S       50.36929148      43.69790953      16.58382422     183.84000005       0.00000000       0.00000000       0.00000000     3572        2        0        0        0
S       53.07402803      42.12200520      19.81997215     183.84000005       0.00000000       0.00000000       0.00000000     3573        2        0        0        0
S       53.12545674      42.07085888      16.66086953     183.84000005       0.00000000       0.00000000       0.00000000     3574        2        0        0        0
S       55.83760392      40.47621192      19.88322380     183.84000005       0.00000000       0.00000000       0.00000000     3575        2        0        0        0
S       55.88269264      40.44678556      16.72356703     183.84000005       0.00000000       0.00000000       0.00000000     3576        2        0        0        0
S       58.60612930      38.83216059      19.92770805     183.84000005       0.00000000       0.00000000       0.00000000     3577        2        0        0        0
S       58.64099185      38.82453060      16.76768626     183.84000005       0.00000000       0.00000000       0.00000000     3578        2        0        0        0
S       61.37797830      37.18919704      19.95073638     183.84000005       0.00000000       0.00000000       0.00000000     3579        2        0        0        0
S       61.40021738      37.20290463      16.79057819     183.84000005       0.00000000       0.00000000       0.00000000     3580        2        0        0        0
S       64.15146844      35.54636030      19.95102634     183.84000005       0.00000000       0.00000000       0.00000000     3581        2        0        0        0
S       64.16010343      35.58069599      16.79097735     183.84000005       0.00000000       0.00000000       0.00000000     3582        2        0        0        0
S      -18.69373130      33.90246474      19.92852187     183.84000005       0.00000000       0.00000000       0.00000000     3583        2        0        0        0
S      -18.69833068      33.95665261      16.76882569     183.84000005       0.00000000       0.00000000       0.00000000     3584        2        0        0        0
S      -15.92211910      32.25623410      19.88429685     183.84000005       0.00000000       0.00000000       0.00000000     3585        2        0        0        0
S      -15.93829526      32.32948187      16.72516444     183.84000005       0.00000000       0.00000000       0.00000000     3586        2        0        0        0
S      -13.15404056      30.60646425      19.82055878     183.84000005       0.00000000       0.00000000       0.00000000     3587        2        0        0        0
S      -13.17888149      30.69784706      16.66216010     183.84000005       0.00000000       0.00000000       0.00000000     3588        2        0        0        0
S      -10.39118726      28.95215869      19.74072242     183.84000005       0.00000000       0.00000000       0.00000000     3589        2        0        0        0
S      -10.42056262      29.06043423      16.58316789     183.84000005       0.00000000       0.00000000       0.00000000     3590        2        0        0        0
S       -7.63513539      27.29265966      19.64949544     183.84000005       0.00000000       0.00000000       0.00000000     3591        2        0        0        0
S       -7.66379094      27.41607722      16.49281327     183.84000005       0.00000000       0.00000000       0.00000000     3592        2        0        0        0
S       -4.88720439      25.62772335      19.55285327     183.84000005       0.00000000       0.00000000       0.00000000     3593        2        0        0        0
S       -4.90900216      25.76391395      16.39699571     183.84000005       0.00000000       0.00000000       0.00000000     3594        2        0        0        0
S       -2.14826366      23.95754745      19.45779404     183.84000005       0.00000000       0.00000000       0.00000000     3595        2        0        0        0
S       -2.15667493      24.10355010      16.30265185     183.84000005       0.00000000       0.00000000       0.00000000     3596        2        0        0        0
S        0.58149339      22.28275851      19.37176686     183.84000005       0.00000000       0.00000000       0.00000000     3597        2        0        0        0
S        0.59251529      22.43514504      16.21720783     183.84000005       0.00000000       0.00000000       0.00000000     3598        2        0        0        0
S        3.30278929      20.60440708      19.30173827     183.84000005       0.00000000       0.00000000       0.00000000     3599        2        0        0        0
S        3.33757772      20.75937053      16.14765755     183.84000005       0.00000000       0.00000000       0.00000000     3600        2        0        0        0
S        6.01740950      18.92401183      19.25302931     183.84000005       0.00000000       0.00000000       0.00000000     3601        2        0        0        0
S        6.07724720      19.07741276      16.09933044     183.84000005       0.00000000       0.00000000       0.00000000     3602        2        0        0        0
S        8.72808742      17.24360264      19.22815827     183.84000005       0.00000000       0.00000000       0.00000000     3603        2        0        0        0
S        8.81040162      17.39107468      16.07468518     183.84000005       0.00000000       0.00000000       0.00000000     3604        2        0        0        0
S       34.02018835      56.89976039      19.23570661     183.84000005       0.00000000       0.00000000       0.00000000     3605        2        0        0        0
S       33.93972254      56.77504263      16.08073380     183.84000005       0.00000000       0.00000000       0.00000000     3606        2        0        0        0
S       36.72348544      55.23702913      19.24895890     183.84000005       0.00000000       0.00000000       0.00000000     3607        2        0        0        0
S       36.67240181      55.10496240      16.09368901     183.84000005       0.00000000       0.00000000       0.00000000     3608        2        0        0        0
S       39.43280652      53.57668426      19.29111856     183.84000005       0.00000000       0.00000000       0.00000000     3609        2        0        0        0
S       39.41316601      53.44082457      16.13562652     183.84000005       0.00000000       0.00000000       0.00000000     3610        2        0        0        0
S       42.15008541      51.91854175      19.36010239     183.84000005       0.00000000       0.00000000       0.00000000     3611        2        0        0        0
S       42.15972967      51.78344116      16.20439294     183.84000005       0.00000000       0.00000000       0.00000000     3612        2        0        0        0
S       44.87653316      50.26219375      19.44990344     183.84000005       0.00000000       0.00000000       0.00000000     3613        2        0        0        0
S       44.90985534      50.13315330      16.29384703     183.84000005       0.00000000       0.00000000       0.00000000     3614        2        0        0        0
S       47.61258549      48.60744748      19.55192144     183.84000005       0.00000000       0.00000000       0.00000000     3615        2        0        0        0
S       47.66200011      48.48982110      16.39530255     183.84000005       0.00000000       0.00000000       0.00000000     3616        2        0        0        0
S       50.35798435      46.95442066      19.65669624     183.84000005       0.00000000       0.00000000       0.00000000     3617        2        0        0        0
S       50.41541055      46.85286103      16.49931635     183.84000005       0.00000000       0.00000000       0.00000000     3618        2        0        0        0
S       53.11189134      45.30339082      19.75539247     183.84000005       0.00000000       0.00000000       0.00000000     3619        2        0        0        0
S       53.16990575      45.22132748      16.59715535     183.84000005       0.00000000       0.00000000       0.00000000     3620        2        0        0        0
S       55.87304788      43.65455439      19.84074627     183.84000005       0.00000000       0.00000000       0.00000000     3621        2        0        0        0
S       55.92555124      43.59404097      16.68169685     183.84000005       0.00000000       0.00000000       0.00000000     3622        2        0        0        0
S       58.63991576      42.00783458      19.90745708     183.84000005       0.00000000       0.00000000       0.00000000     3623        2        0        0        0
S       58.68244254      41.96969823      16.74775905     183.84000005       0.00000000       0.00000000       0.00000000     3624        2        0        0        0
S       61.41080541      40.36279791      19.95219176     183.84000005       0.00000000       0.00000000       0.00000000     3625        2        0        0        0
S       61.44055876      40.34694557      16.79208508     183.84000005       0.00000000       0.00000000       0.00000000     3626        2        0        0        0
S      -21.43464182      38.71866151      19.97335636     183.84000005       0.00000000       0.00000000       0.00000000     3627        2        0        0        0
S      -21.41889681      38.72443741      16.81311238     183.84000005       0.00000000       0.00000000       0.00000000     3628        2        0        0        0
S      -18.66095437      37.07436796      19.97083091     183.84000005       0.00000000       0.00000000       0.00000000     3629        2        0        0        0
S      -18.65899662      37.10084461      16.81071931     183.84000005       0.00000000       0.00000000       0.00000000     3630        2        0        0        0
S      -15.88847256      35.42869389      19.94574021     183.84000005       0.00000000       0.00000000       0.00000000     3631        2        0        0        0
S      -15.89874995      35.47487973      16.78599956     183.84000005       0.00000000       0.00000000       0.00000000     3632        2        0        0        0
S      -13.11889658      33.78040510      19.90030779     183.84000005       0.00000000       0.00000000       0.00000000     3633        2        0        0        0
S      -13.13860430      33.84531105      16.74112396     183.84000005       0.00000000       0.00000000       0.00000000     3634        2        0        0        0
S      -10.35388204      32.12840255      19.83781719     183.84000005       0.00000000       0.00000000       0.00000000     3635        2        0        0        0
S      -10.37901646      32.21098413      16.67932520     183.84000005       0.00000000       0.00000000       0.00000000     3636        2        0        0        0
S       -7.59499516      30.47185767      19.76264769     183.84000005       0.00000000       0.00000000       0.00000000     3637        2        0        0        0
S       -7.62043378      30.57087694      16.60491807     183.84000005       0.00000000       0.00000000       0.00000000     3638        2        0        0        0
S       -4.84361242      28.81031209      19.68028646     183.84000005       0.00000000       0.00000000       0.00000000     3639        2        0        0        0
S       -4.86334234      28.92418152      16.52331896     183.84000005       0.00000000       0.00000000       0.00000000     3640        2        0        0        0
S       -2.10073915      27.14372884      19.59714750     183.84000005       0.00000000       0.00000000       0.00000000     3641        2        0        0        0
S       -2.10834697      27.27039702      16.44089470     183.84000005       0.00000000       0.00000000       0.00000000     3642        2        0        0        0
S        0.63324336      25.47248865      19.52009797     183.84000005       0.00000000       0.00000000       0.00000000     3643        2        0        0        0
S        0.64367069      25.60938755      16.36449454     183.84000005       0.00000000       0.00000000       0.00000000     3644        2        0        0        0
S        3.35882085      23.79734843      19.45556426     183.84000005       0.00000000       0.00000000       0.00000000     3645        2        0        0        0
S        3.39143274      23.94138827      16.30054985     183.84000005       0.00000000       0.00000000       0.00000000     3646        2        0        0        0
S        6.07751953      22.11948320      19.40836816     183.84000005       0.00000000       0.00000000       0.00000000     3647        2        0        0        0
S        6.13338713      22.26703649      16.25386752     183.84000005       0.00000000       0.00000000       0.00000000     3648        2        0        0        0
S        8.79179642      20.44056810      19.38064307     183.84000005       0.00000000       0.00000000       0.00000000     3649        2        0        0        0
S        8.86817138      20.58749523      16.22649915     183.84000005       0.00000000       0.00000000       0.00000000     3650        2        0        0        0
S       36.79993828      58.43213388      19.11117755     183.84000005       0.00000000       0.00000000       0.00000000     3651        2        0        0        0
S       36.74060490      58.30116524      15.95637680     183.84000005       0.00000000       0.00000000       0.00000000     3652        2        0        0        0
S       39.50444933      56.76865597      19.14812471     183.84000005       0.00000000       0.00000000       0.00000000     3653        2        0        0        0
S       39.47752388      56.62847743      15.99323483     183.84000005       0.00000000       0.00000000       0.00000000     3654        2        0        0        0
S       42.21635421      55.10751618      19.21618963     183.84000005       0.00000000       0.00000000       0.00000000     3655        2        0        0        0
S       42.22066503      54.96195165      16.06130879     183.84000005       0.00000000       0.00000000       0.00000000     3656        2        0        0        0
S       44.93715368      53.44847137      19.31037640     183.84000005       0.00000000       0.00000000       0.00000000     3657        2        0        0        0
S       44.96788166      53.30263133      16.15541514     183.84000005       0.00000000       0.00000000       0.00000000     3658        2        0        0        0
S       47.66763982      51.79126107      19.42238748     183.84000005       0.00000000       0.00000000       0.00000000     3659        2        0        0        0
S       47.71745923      51.65104541      16.26707649     183.84000005       0.00000000       0.00000000       0.00000000     3660        2        0        0        0
S       50.40789791      50.13587544      19.54221261     183.84000005       0.00000000       0.00000000       0.00000000     3661        2        0        0        0
S       50.46843287      50.00710895      16.38621989     183.84000005       0.00000000       0.00000000       0.00000000     3662        2        0        0        0
S       53.15734888      48.48252630      19.65981841     183.84000005       0.00000000       0.00000000       0.00000000     3663        2        0        0        0
S       53.22049957      48.37012986      16.50289208     183.84000005       0.00000000       0.00000000       0.00000000     3664        2        0        0        0
S       55.91486742      46.83146945      19.76649171     183.84000005       0.00000000       0.00000000       0.00000000     3665        2        0        0        0
S       55.97374300      46.73894586      16.60854434     183.84000005       0.00000000       0.00000000       0.00000000     3666        2        0        0        0
S       58.67893404      45.18276674      19.85558695     183.84000005       0.00000000       0.00000000       0.00000000     3667        2        0        0        0
S       58.72834075      45.11211913      16.69670667     183.84000005       0.00000000       0.00000000       0.00000000     3668        2        0        0        0
S      -24.17080992      43.53617102      19.92273549     183.84000005       0.00000000       0.00000000       0.00000000     3669        2        0        0        0
S      -24.13422014      43.48811019      16.76314445     183.84000005       0.00000000       0.00000000       0.00000000     3670        2        0        0        0
S      -21.39895934      41.89108274      19.96569193     183.84000005       0.00000000       0.00000000       0.00000000     3671        2        0        0        0
S      -21.37678541      41.86538682      16.80567462     183.84000005       0.00000000       0.00000000       0.00000000     3672        2        0        0        0
S      -18.62596314      40.24660071      19.98401196     183.84000005       0.00000000       0.00000000       0.00000000     3673        2        0        0        0
S      -18.61820186      40.24248037      16.82386320     183.84000005       0.00000000       0.00000000       0.00000000     3674        2        0        0        0
S      -15.85361430      38.60162697      19.97874857     183.84000005       0.00000000       0.00000000       0.00000000     3675        2        0        0        0
S      -15.85882193      38.61801925      16.81873883     183.84000005       0.00000000       0.00000000       0.00000000     3676        2        0        0        0
S      -13.08363690      36.95497974      19.95218359     183.84000005       0.00000000       0.00000000       0.00000000     3677        2        0        0        0
S      -13.09906189      36.99076395      16.79252888     183.84000005       0.00000000       0.00000000       0.00000000     3678        2        0        0        0
S      -10.31769020      35.30553220      19.90766580     183.84000005       0.00000000       0.00000000       0.00000000     3679        2        0        0        0
S      -10.33937960      35.35962100      16.74851607     183.84000005       0.00000000       0.00000000       0.00000000     3680        2        0        0        0
S       -7.55732160      33.65233968      19.84952232     183.84000005       0.00000000       0.00000000       0.00000000     3681        2        0        0        0
S       -7.58023798      33.72365670      16.69096870     183.84000005       0.00000000       0.00000000       0.00000000     3682        2        0        0        0
S       -4.80389380      31.99474448      19.78300669     183.84000005       0.00000000       0.00000000       0.00000000     3683        2        0        0        0
S       -4.82215426      32.08211034      16.62508073     183.84000005       0.00000000       0.00000000       0.00000000     3684        2        0        0        0
S       -2.05842718      30.33244954      19.71411525     183.84000005       0.00000000       0.00000000       0.00000000     3685        2        0        0        0
S       -2.06581097      30.43443361      16.55681117     183.84000005       0.00000000       0.00000000       0.00000000     3686        2        0        0        0
S        0.67863253      28.66553206      19.64914833     183.84000005       0.00000000       0.00000000       0.00000000     3687        2        0        0        0
S        0.68780766      28.78029149      16.49244725     183.84000005       0.00000000       0.00000000       0.00000000     3688        2        0        0        0
S        3.40765887      26.99441872      19.59390006     183.84000005       0.00000000       0.00000000       0.00000000     3689        2        0        0        0
S        3.43729092      27.11957752      16.43777968     183.84000005       0.00000000       0.00000000       0.00000000     3690        2        0        0        0
S        6.12998132      25.31990359      19.55255659     183.84000005       0.00000000       0.00000000       0.00000000     3691        2        0        0        0
S        6.18090743      25.45246711      16.39697119     183.84000005       0.00000000       0.00000000       0.00000000     3692        2        0        0        0
S        8.84779988      23.64327331      19.52669202     183.84000005       0.00000000       0.00000000       0.00000000     3693        2        0        0        0
S        8.91710909      23.77960070      16.37151477     183.84000005       0.00000000       0.00000000       0.00000000     3694        2        0        0        0
S       11.56375493      21.96646497      19.51490553     183.84000005       0.00000000       0.00000000       0.00000000     3695        2        0        0        0
S       11.64528982      22.10236279      16.35989407     183.84000005       0.00000000       0.00000000       0.00000000     3696        2        0        0        0
S       36.88699218      61.62269231      18.97897011     183.84000005       0.00000000       0.00000000       0.00000000     3697        2        0        0        0
S       36.82019959      61.50202177      15.82450868     183.84000005       0.00000000       0.00000000       0.00000000     3698        2        0        0        0
S       39.58730375      59.95588940      19.00572934     183.84000005       0.00000000       0.00000000       0.00000000     3699        2        0        0        0
S       39.55314342      59.82127831      15.85123093     183.84000005       0.00000000       0.00000000       0.00000000     3700        2        0        0        0
S       42.29406878      58.29145044      19.06693141     183.84000005       0.00000000       0.00000000       0.00000000     3701        2        0        0        0
S       42.29232306      58.14574783      15.91260128     183.84000005       0.00000000       0.00000000       0.00000000     3702        2        0        0        0
S       45.00895985      56.62953505      19.15901838     183.84000005       0.00000000       0.00000000       0.00000000     3703        2        0        0        0
S       45.03590190      56.47706235      16.00487612     183.84000005       0.00000000       0.00000000       0.00000000     3704        2        0        0        0
S       47.73312886      54.96998522      19.27475177     183.84000005       0.00000000       0.00000000       0.00000000     3705        2        0        0        0
S       47.78216059      54.81647221      16.12056702     183.84000005       0.00000000       0.00000000       0.00000000     3706        2        0        0        0
S       50.46709839      53.31269095      19.40431259     183.84000005       0.00000000       0.00000000       0.00000000     3707        2        0        0        0
S       50.52995031      53.16457658      16.24968565     183.84000005       0.00000000       0.00000000       0.00000000     3708        2        0        0        0
S       53.21071174      51.65771976      19.53692908     183.84000005       0.00000000       0.00000000       0.00000000     3709        2        0        0        0
S       53.27879803      51.52116028      16.38146359     183.84000005       0.00000000       0.00000000       0.00000000     3710        2        0        0        0
S       55.96314258      50.00524796      19.66251378     183.84000005       0.00000000       0.00000000       0.00000000     3711        2        0        0        0
S       56.02875075      49.88524404      16.50595989     183.84000005       0.00000000       0.00000000       0.00000000     3712        2        0        0        0
S      -26.89559882      48.35537176      19.77287288     183.84000005       0.00000000       0.00000000       0.00000000     3713        2        0        0        0
S      -26.83853345      48.25533326      16.61518968     183.84000005       0.00000000       0.00000000       0.00000000     3714        2        0        0        0
S      -24.13002398      46.70794071      19.86226826     183.84000005       0.00000000       0.00000000       0.00000000     3715        2        0        0        0
S      -24.08558271      46.62970424      16.70360143     183.84000005       0.00000000       0.00000000       0.00000000     3716        2        0        0        0
S      -21.36064351      45.06249086      19.92743795     183.84000005       0.00000000       0.00000000       0.00000000     3717        2        0        0        0
S      -21.33094256      45.00661382      16.76805556     183.84000005       0.00000000       0.00000000       0.00000000     3718        2        0        0        0
S      -18.58937965      43.41826620      19.96729677     183.84000005       0.00000000       0.00000000       0.00000000     3719        2        0        0        0
S      -18.57475134      43.38441529      16.80751186     183.84000005       0.00000000       0.00000000       0.00000000     3720        2        0        0        0
S      -15.81811692      41.77430817      19.98257735     183.84000005       0.00000000       0.00000000       0.00000000     3721        2        0        0        0
S      -15.81730691      41.76160540      16.82268539     183.84000005       0.00000000       0.00000000       0.00000000     3722        2        0        0        0
S      -13.04866358      40.12954534      19.97548326     183.84000005       0.00000000       0.00000000       0.00000000     3723        2        0        0        0
S      -13.05901231      40.13685505      16.81573052     183.84000005       0.00000000       0.00000000       0.00000000     3724        2        0        0        0
S      -10.28271303      38.48290370      19.94941639     183.84000005       0.00000000       0.00000000       0.00000000     3725        2        0        0        0
S      -10.30032471      38.50903477      16.78997999     183.84000005       0.00000000       0.00000000       0.00000000     3726        2        0        0        0
S       -7.52182618      36.83339524      19.90877163     183.84000005       0.00000000       0.00000000       0.00000000     3727        2        0        0        0
S       -7.54174553      36.87719677      16.74975896     183.84000005       0.00000000       0.00000000       0.00000000     3728        2        0        0        0
S       -4.76734780      35.18021924      19.85876207     183.84000005       0.00000000       0.00000000       0.00000000     3729        2        0        0        0
S       -4.78383628      35.24056578      16.70021979     183.84000005       0.00000000       0.00000000       0.00000000     3730        2        0        0        0
S       -2.02027971      33.52283659      19.80517759     183.84000005       0.00000000       0.00000000       0.00000000     3731        2        0        0        0
S       -2.02732751      33.59852892      16.64711111     183.84000005       0.00000000       0.00000000       0.00000000     3732        2        0        0        0
S        0.71892811      31.86098236      19.75391572     183.84000005       0.00000000       0.00000000       0.00000000     3733        2        0        0        0
S        0.72674250      31.95060128      16.59632022     183.84000005       0.00000000       0.00000000       0.00000000     3734        2        0        0        0
S        3.45059826      30.19469268      19.71021982     183.84000005       0.00000000       0.00000000       0.00000000     3735        2        0        0        0
S        3.47691466      30.29641631      16.55308886     183.84000005       0.00000000       0.00000000       0.00000000     3736        2        0        0        0
S        6.17594937      28.52435012      19.67765859     183.84000005       0.00000000       0.00000000       0.00000000     3737        2        0        0        0
S        6.22140382      28.63581151      16.52096718     183.84000005       0.00000000       0.00000000       0.00000000     3738        2        0        0        0
S        8.89697801      26.85082407      19.65720892     183.84000005       0.00000000       0.00000000       0.00000000     3739        2        0        0        0
S        8.95855434      26.96903188      16.50086600     183.84000005       0.00000000       0.00000000       0.00000000     3740        2        0        0        0
S       11.61606947      25.17569740      19.64697609     183.84000005       0.00000000       0.00000000       0.00000000     3741        2        0        0        0
S       11.68759861      25.29706177      16.49079436     183.84000005       0.00000000       0.00000000       0.00000000     3742        2        0        0        0
S       39.67998653      63.13921840      18.87433418     183.84000005       0.00000000       0.00000000       0.00000000     3743        2        0        0        0
S       39.64016185      63.02046113      15.72008835     183.84000005       0.00000000       0.00000000       0.00000000     3744        2        0        0        0
S       42.38222619      61.47109720      18.92372869     183.84000005       0.00000000       0.00000000       0.00000000     3745        2        0        0        0
S       42.37551272      61.33680377      15.76965887     183.84000005       0.00000000       0.00000000       0.00000000     3746        2        0        0        0
S       45.09143625      59.80578058      19.00776793     183.84000005       0.00000000       0.00000000       0.00000000     3747        2        0        0        0
S       45.11519613      59.65920798      15.85400701     183.84000005       0.00000000       0.00000000       0.00000000     3748        2        0        0        0
S       47.80899623      58.14350085      19.12073066     183.84000005       0.00000000       0.00000000       0.00000000     3749        2        0        0        0
S       47.85764619      57.98952642      15.96718464     183.84000005       0.00000000       0.00000000       0.00000000     3750        2        0        0        0
S       50.53585198      56.48423185      19.25375869     183.84000005       0.00000000       0.00000000       0.00000000     3751        2        0        0        0
S       50.60164169      56.32910911      16.10009327     183.84000005       0.00000000       0.00000000       0.00000000     3752        2        0        0        0
S       53.27237790      54.82792789      19.39606867     183.84000005       0.00000000       0.00000000       0.00000000     3753        2        0        0        0
S       53.34654586      54.67844002      16.24182648     183.84000005       0.00000000       0.00000000       0.00000000     3754        2        0        0        0
S      -29.60038165      53.17459791      19.53659571     183.84000005       0.00000000       0.00000000       0.00000000     3755        2        0        0        0
S      -29.52629768      53.03695036      16.38137955     183.84000005       0.00000000       0.00000000       0.00000000     3756        2        0        0        0
S      -26.84624592      51.52424967      19.66561197     183.84000005       0.00000000       0.00000000       0.00000000     3757        2        0        0        0
S      -26.77930097      51.40322657      16.50922273     183.84000005       0.00000000       0.00000000       0.00000000     3758        2        0        0        0
S      -24.08543089      49.87673262      19.77579760     183.84000005       0.00000000       0.00000000       0.00000000     3759        2        0        0        0
S      -24.03063497      49.77540391      16.61826405     183.84000005       0.00000000       0.00000000       0.00000000     3760        2        0        0        0
S      -21.31984165      48.23163794      19.86258031     183.84000005       0.00000000       0.00000000       0.00000000     3761        2        0        0        0
S      -21.28001996      48.15152172      16.70410473     183.84000005       0.00000000       0.00000000       0.00000000     3762        2        0        0        0
S      -18.55147208      46.58830320      19.92394117     183.84000005       0.00000000       0.00000000       0.00000000     3763        2        0        0        0
S      -18.52744002      46.52973706      16.76482132     183.84000005       0.00000000       0.00000000       0.00000000     3764        2        0        0        0
S      -15.78229445      44.94587620      19.96001581     183.84000005       0.00000000       0.00000000       0.00000000     3765        2        0        0        0
S      -15.77310580      44.90839619      16.80056442     183.84000005       0.00000000       0.00000000       0.00000000     3766        2        0        0        0
S      -13.01420569      43.30339806      19.97269672     183.84000005       0.00000000       0.00000000       0.00000000     3767        2        0        0        0
S      -13.01739807      43.28605496      16.81318223     183.84000005       0.00000000       0.00000000       0.00000000     3768        2        0        0        0
S      -10.24898088      41.65988150      19.96527653     183.84000005       0.00000000       0.00000000       0.00000000     3769        2        0        0        0
S      -10.26079172      41.66147494      16.80590166     183.84000005       0.00000000       0.00000000       0.00000000     3770        2        0        0        0
S       -7.48823013      40.01436958      19.94216119     183.84000005       0.00000000       0.00000000       0.00000000     3771        2        0        0        0
S       -7.50382815      40.03362273      16.78305037     183.84000005       0.00000000       0.00000000       0.00000000     3772        2        0        0        0
S       -4.73332807      38.36598249      19.90858467     183.84000005       0.00000000       0.00000000       0.00000000     3773        2        0        0        0
S       -4.74712920      38.40163199      16.74979285     183.84000005       0.00000000       0.00000000       0.00000000     3774        2        0        0        0
S       -1.98528740      36.71398059      19.87027582     183.84000005       0.00000000       0.00000000       0.00000000     3775        2        0        0        0
S       -1.99147306      36.76477524      16.71180570     183.84000005       0.00000000       0.00000000       0.00000000     3776        2        0        0        0
S        0.75542854      35.05777657      19.83293962     183.84000005       0.00000000       0.00000000       0.00000000     3777        2        0        0        0
S        0.76206640      35.12240477      16.67477498     183.84000005       0.00000000       0.00000000       0.00000000     3778        2        0        0        0
S        3.48910221      33.39699311      19.80147415     183.84000005       0.00000000       0.00000000       0.00000000     3779        2        0        0        0
S        3.51201588      33.47394681      16.64360010     183.84000005       0.00000000       0.00000000       0.00000000     3780        2        0        0        0
S        6.21687085      31.73156572      19.77900305     183.84000005       0.00000000       0.00000000       0.00000000     3781        2        0        0        0
S        6.25659624      31.81898606      16.62139572     183.84000005       0.00000000       0.00000000       0.00000000     3782        2        0        0        0
S        8.94060081      30.06192748      19.76601439     183.84000005       0.00000000       0.00000000       0.00000000     3783        2        0        0        0
S        8.99412555      30.15749608      16.60860863     183.84000005       0.00000000       0.00000000       0.00000000     3784        2        0        0        0
S       11.66247398      28.38928525      19.76015486     183.84000005       0.00000000       0.00000000       0.00000000     3785        2        0        0        0
S       11.72373328      28.49017564      16.60282070     183.84000005       0.00000000       0.00000000       0.00000000     3786        2        0        0        0
S       14.38440058      26.71579499      19.75705395     183.84000005       0.00000000       0.00000000       0.00000000     3787        2        0        0        0
S       14.44601668      26.81874963      16.59962608     183.84000005       0.00000000       0.00000000       0.00000000     3788        2        0        0        0
S       39.78041020      66.31972619      18.76389283     183.84000005       0.00000000       0.00000000       0.00000000     3789        2        0        0        0
S       39.73729895      66.22618572      15.60978658     183.84000005       0.00000000       0.00000000       0.00000000     3790        2        0        0        0
S       42.47903925      64.64786575      18.79795888     183.84000005       0.00000000       0.00000000       0.00000000     3791        2        0        0        0
S       42.46970427      64.53568927      15.64397698     183.84000005       0.00000000       0.00000000       0.00000000     3792        2        0        0        0
S       45.18332969      62.97866045      18.86944516     183.84000005       0.00000000       0.00000000       0.00000000     3793        2        0        0        0
S       45.20597875      62.85027021      15.71575126     183.84000005       0.00000000       0.00000000       0.00000000     3794        2        0        0        0
S       47.89469360      61.31299370      18.97407627     183.84000005       0.00000000       0.00000000       0.00000000     3795        2        0        0        0
S       47.94469100      61.17213522      15.82068374     183.84000005       0.00000000       0.00000000       0.00000000     3796        2        0        0        0
S       50.61430510      59.65124706      19.10441052     183.84000005       0.00000000       0.00000000       0.00000000     3797        2        0        0        0
S       50.68466363      59.50324244      15.95113587     183.84000005       0.00000000       0.00000000       0.00000000     3798        2        0        0        0
S      -32.27559757      57.99344530      19.25044089     183.84000005       0.00000000       0.00000000       0.00000000     3799        2        0        0        0
S      -32.19342812      57.84487626      16.09691116     183.84000005       0.00000000       0.00000000       0.00000000     3800        2        0        0        0
S      -29.53751650      56.33943059      19.40082473     183.84000005       0.00000000       0.00000000       0.00000000     3801        2        0        0        0
S      -29.45249688      56.19713492      16.24659051     183.84000005       0.00000000       0.00000000       0.00000000     3802        2        0        0        0
S      -26.79058011      54.68900580      19.54461062     183.84000005       0.00000000       0.00000000       0.00000000     3803        2        0        0        0
S      -26.71077088      54.55889904      16.38932071     183.84000005       0.00000000       0.00000000       0.00000000     3804        2        0        0        0
S      -24.03605342      53.04192466      19.67283447     183.84000005       0.00000000       0.00000000       0.00000000     3805        2        0        0        0
S      -23.96758342      52.92825892      16.51636884     183.84000005       0.00000000       0.00000000       0.00000000     3806        2        0        0        0
S      -21.27571272      51.39777542      19.77938917     183.84000005       0.00000000       0.00000000       0.00000000     3807        2        0        0        0
S      -21.22235007      51.30303750      16.62185552     183.84000005       0.00000000       0.00000000       0.00000000     3808        2        0        0        0
S      -18.51154725      49.75593142      19.86108061     183.84000005       0.00000000       0.00000000       0.00000000     3809        2        0        0        0
S      -18.47478293      49.68116439      16.70273113     183.84000005       0.00000000       0.00000000       0.00000000     3810        2        0        0        0
S      -15.74558250      48.11559411      19.91723185     183.84000005       0.00000000       0.00000000       0.00000000     3811        2        0        0        0
S      -15.72492392      48.06081775      16.75837279     183.84000005       0.00000000       0.00000000       0.00000000     3812        2        0        0        0
S      -12.97977648      46.47587994      19.94920786     183.84000005       0.00000000       0.00000000       0.00000000     3813        2        0        0        0
S      -12.97307588      46.44044296      16.79012366     183.84000005       0.00000000       0.00000000       0.00000000     3814        2        0        0        0
S      -10.21598565      44.83587014      19.95998629     183.84000005       0.00000000       0.00000000       0.00000000     3815        2        0        0        0
S      -10.21972260      44.81869778      16.80089619     183.84000005       0.00000000       0.00000000       0.00000000     3816        2        0        0        0
S       -7.45590465      43.19465773      19.95381579     183.84000005       0.00000000       0.00000000       0.00000000     3817        2        0        0        0
S       -7.46545029      43.19443004      16.79486066     183.84000005       0.00000000       0.00000000       0.00000000     3818        2        0        0        0
S       -4.70099537      41.55134261      19.93588317     183.84000005       0.00000000       0.00000000       0.00000000     3819        2        0        0        0
S       -4.71094588      41.56663852      16.77712386     183.84000005       0.00000000       0.00000000       0.00000000     3820        2        0        0        0
S       -1.95234537      39.90503943      19.91190041     183.84000005       0.00000000       0.00000000       0.00000000     3821        2        0        0        0
S       -1.95704928      39.93443142      16.75333281     183.84000005       0.00000000       0.00000000       0.00000000     3822        2        0        0        0
S        0.78949494      38.25489341      19.88753194     183.84000005       0.00000000       0.00000000       0.00000000     3823        2        0        0        0
S        0.79512704      38.29697336      16.72911713     183.84000005       0.00000000       0.00000000       0.00000000     3824        2        0        0        0
S        3.52472450      36.60013519      19.86756911     183.84000005       0.00000000       0.00000000       0.00000000     3825        2        0        0        0
S        3.54410289      36.65349112      16.70926530     183.84000005       0.00000000       0.00000000       0.00000000     3826        2        0        0        0
S        6.25438123      34.94024054      19.85495065     183.84000005       0.00000000       0.00000000       0.00000000     3827        2        0        0        0
S        6.28811460      35.00336148      16.69671810     183.84000005       0.00000000       0.00000000       0.00000000     3828        2        0        0        0
S        8.98022336      33.27519128      19.84992042     183.84000005       0.00000000       0.00000000       0.00000000     3829        2        0        0        0
S        9.02548556      33.34636099      16.69170198     183.84000005       0.00000000       0.00000000       0.00000000     3830        2        0        0        0
S       11.70431030      31.60579220      19.84982246     183.84000005       0.00000000       0.00000000       0.00000000     3831        2        0        0        0
S       11.75528256      31.68300593      16.69153290     183.84000005       0.00000000       0.00000000       0.00000000     3832        2        0        0        0
S       14.42841297      29.93390434      19.84994743     183.84000005       0.00000000       0.00000000       0.00000000     3833        2        0        0        0
S       14.47793604      30.01482964      16.69149935     183.84000005       0.00000000       0.00000000       0.00000000     3834        2        0        0        0
S       39.88606183      69.49828499      18.68300888     183.84000005       0.00000000       0.00000000       0.00000000     3835        2        0        0        0
S       39.84197024      69.43772887      15.52888587     183.84000005       0.00000000       0.00000000       0.00000000     3836        2        0        0        0
S       42.58217352      67.82312317      18.69925804     183.84000005       0.00000000       0.00000000       0.00000000     3837        2        0        0        0
S       42.57257247      67.74165999      15.54520646     183.84000005       0.00000000       0.00000000       0.00000000     3838        2        0        0        0
S       45.28268014      66.15006864      18.75512145     183.84000005       0.00000000       0.00000000       0.00000000     3839        2        0        0        0
S       45.30650539      66.04964511      15.60133228     183.84000005       0.00000000       0.00000000       0.00000000     3840        2        0        0        0
S       47.98892685      64.48060247      18.84735995     183.84000005       0.00000000       0.00000000       0.00000000     3841        2        0        0        0
S       48.04228885      64.36414522      15.69387452     183.84000005       0.00000000       0.00000000       0.00000000     3842        2        0        0        0
S      -34.91654448      62.81575298      18.96983524     183.84000005       0.00000000       0.00000000       0.00000000     3843        2        0        0        0
S      -34.83991718      62.68743292      15.81655281     183.84000005       0.00000000       0.00000000       0.00000000     3844        2        0        0        0
S      -32.19544508      61.15594926      19.11380143     183.84000005       0.00000000       0.00000000       0.00000000     3845        2        0        0        0
S      -32.10360276      61.02141272      15.96049495     183.84000005       0.00000000       0.00000000       0.00000000     3846        2        0        0        0
S      -29.46559874      59.50104619      19.26847955     183.84000005       0.00000000       0.00000000       0.00000000     3847        2        0        0        0
S      -29.36758497      59.36700207      16.11477368     183.84000005       0.00000000       0.00000000       0.00000000     3848        2        0        0        0
S      -26.72686099      57.85060362      19.42234958     183.84000005       0.00000000       0.00000000       0.00000000     3849        2        0        0        0
S      -26.63153153      57.72367109      16.26781906     183.84000005       0.00000000       0.00000000       0.00000000     3850        2        0        0        0
S      -23.97994114      56.20414876      19.56497585     183.84000005       0.00000000       0.00000000       0.00000000     3851        2        0        0        0
S      -23.89464630      56.08967085      16.40934596     183.84000005       0.00000000       0.00000000       0.00000000     3852        2        0        0        0
S      -21.22627656      54.56119921      19.68853204     183.84000005       0.00000000       0.00000000       0.00000000     3853        2        0        0        0
S      -21.15599757      54.46264816      16.53178745     183.84000005       0.00000000       0.00000000       0.00000000     3854        2        0        0        0
S      -18.46772049      52.92114758      19.78838495     183.84000005       0.00000000       0.00000000       0.00000000     3855        2        0        0        0
S      -18.41488806      52.84023441      16.63071483     183.84000005       0.00000000       0.00000000       0.00000000     3856        2        0        0        0
S      -15.70625385      51.28323285      19.86284878     183.84000005       0.00000000       0.00000000       0.00000000     3857        2        0        0        0
S      -15.67102590      51.22037449      16.70454194     183.84000005       0.00000000       0.00000000       0.00000000     3858        2        0        0        0
S      -12.94384005      49.64660934      19.91261752     183.84000005       0.00000000       0.00000000       0.00000000     3859        2        0        0        0
S      -12.92451893      49.60137992      16.75396967     183.84000005       0.00000000       0.00000000       0.00000000     3860        2        0        0        0
S      -10.18236284      48.01039625      19.94021530     183.84000005       0.00000000       0.00000000       0.00000000     3861        2        0        0        0
S      -10.17577608      47.98184133      16.78146360     183.84000005       0.00000000       0.00000000       0.00000000     3862        2        0        0        0
S       -7.42359160      46.37371024      19.94957875     183.84000005       0.00000000       0.00000000       0.00000000     3863        2        0        0        0
S       -7.42540043      46.36052081      16.79087829     183.84000005       0.00000000       0.00000000       0.00000000     3864        2        0        0        0
S       -4.66910261      44.73564492      19.94571307     183.84000005       0.00000000       0.00000000       0.00000000     3865        2        0        0        0
S       -4.67413763      44.73629473      16.78713073     183.84000005       0.00000000       0.00000000       0.00000000     3866        2        0        0        0
S       -1.92013842      43.09522127      19.93426847     183.84000005       0.00000000       0.00000000       0.00000000     3867        2        0        0        0
S       -1.92289715      43.10809962      16.77579236     183.84000005       0.00000000       0.00000000       0.00000000     3868        2        0        0        0
S        0.82257939      41.45137505      19.92093358     183.84000005       0.00000000       0.00000000       0.00000000     3869        2        0        0        0
S        0.82716163      41.47490544      16.76250365     183.84000005       0.00000000       0.00000000       0.00000000     3870        2        0        0        0
S        3.55905968      39.80299464      19.91059253     183.84000005       0.00000000       0.00000000       0.00000000     3871        2        0        0        0
S        3.57453608      39.83572038      16.75213130     183.84000005       0.00000000       0.00000000       0.00000000     3872        2        0        0        0
S        6.29017510      38.14911880      19.90628487     183.84000005       0.00000000       0.00000000       0.00000000     3873        2        0        0        0
S        6.31745576      38.18972912      16.74772231     183.84000005       0.00000000       0.00000000       0.00000000     3874        2        0        0        0
S        9.01755458      36.48926582      19.90831210     183.84000005       0.00000000       0.00000000       0.00000000     3875        2        0        0        0
S        9.05423184      36.53654225      16.74958619     183.84000005       0.00000000       0.00000000       0.00000000     3876        2        0        0        0
S       11.74317494      34.82381571      19.91398267     183.84000005       0.00000000       0.00000000       0.00000000     3877        2        0        0        0
S       11.78385640      34.87653383      16.75503285     183.84000005       0.00000000       0.00000000       0.00000000     3878        2        0        0        0
S       14.46876142      33.15429789      19.91838770     183.84000005       0.00000000       0.00000000       0.00000000     3879        2        0        0        0
S       14.50661151      33.21110021      16.75918600     183.84000005       0.00000000       0.00000000       0.00000000     3880        2        0        0        0
S       17.19521909      31.48340012      19.91623288     183.84000005       0.00000000       0.00000000       0.00000000     3881        2        0        0        0
S       17.22433555      31.54269079      16.75680591     183.84000005       0.00000000       0.00000000       0.00000000     3882        2        0        0        0
S       42.68899703      70.99774806      18.63503535     183.84000005       0.00000000       0.00000000       0.00000000     3883        2        0        0        0
S       42.68071284      70.95340791      15.48080449     183.84000005       0.00000000       0.00000000       0.00000000     3884        2        0        0        0
S       45.38698338      69.32140406      18.67287670     183.84000005       0.00000000       0.00000000       0.00000000     3885        2        0        0        0
S       45.41327377      69.25584071      15.51885301     183.84000005       0.00000000       0.00000000       0.00000000     3886        2        0        0        0
S      -37.52909963      67.64835318      18.74972019     183.84000005       0.00000000       0.00000000       0.00000000     3887        2        0        0        0
S      -37.47140898      67.56395972      15.59600629     183.84000005       0.00000000       0.00000000       0.00000000     3888        2        0        0        0
S      -34.82096449      65.98016849      18.86037165     183.84000005       0.00000000       0.00000000       0.00000000     3889        2        0        0        0
S      -34.73749213      65.88030350      15.70690903     183.84000005       0.00000000       0.00000000       0.00000000     3890        2        0        0        0
S      -32.10627267      64.31786934      18.99727827     183.84000005       0.00000000       0.00000000       0.00000000     3891        2        0        0        0
S      -32.00442810      64.20708762      15.84392284     183.84000005       0.00000000       0.00000000       0.00000000     3892        2        0        0        0
S      -29.38403703      62.66164885      19.15079597     183.84000005       0.00000000       0.00000000       0.00000000     3893        2        0        0        0
S      -29.27252465      62.54590169      15.99728375     183.84000005       0.00000000       0.00000000       0.00000000     3894        2        0        0        0
S      -26.65357987      61.01099045      19.30970067     183.84000005       0.00000000       0.00000000       0.00000000     3895        2        0        0        0
S      -26.54161081      60.89700503      16.15562715     183.84000005       0.00000000       0.00000000       0.00000000     3896        2        0        0        0
S      -23.91493723      59.36511959      19.46263725     183.84000005       0.00000000       0.00000000       0.00000000     3897        2        0        0        0
S      -23.81095196      59.25913069      16.30761911     183.84000005       0.00000000       0.00000000       0.00000000     3898        2        0        0        0
S      -21.16900439      57.72333195      19.60004839     183.84000005       0.00000000       0.00000000       0.00000000     3899        2        0        0        0
S      -21.07939588      57.62992908      16.44392116     183.84000005       0.00000000       0.00000000       0.00000000     3900        2        0        0        0
S      -18.41729994      56.08499648      19.71551740     183.84000005       0.00000000       0.00000000       0.00000000     3901        2        0        0        0
S      -18.34578581      56.00672168      16.55837833     183.84000005       0.00000000       0.00000000       0.00000000     3902        2        0        0        0
S      -15.66163763      54.44942116      19.80601859     183.84000005       0.00000000       0.00000000       0.00000000     3903        2        0        0        0
S      -15.60932603      54.38707885      16.64813050     183.84000005       0.00000000       0.00000000       0.00000000     3904        2        0        0        0
S      -12.90387673      52.81582556      19.87139815     183.84000005       0.00000000       0.00000000       0.00000000     3905        2        0        0        0
S      -12.86972074      52.76907070      16.71306891     183.84000005       0.00000000       0.00000000       0.00000000     3906        2        0        0        0
S      -10.14583919      51.18337254      19.91364706     183.84000005       0.00000000       0.00000000       0.00000000     3907        2        0        0        0
S      -10.12713252      51.15118466      16.75514648     183.84000005       0.00000000       0.00000000       0.00000000     3908        2        0        0        0
S       -7.38928707      49.55118774      19.93633152     183.84000005       0.00000000       0.00000000       0.00000000     3909        2        0        0        0
S       -7.38206541      49.53215068      16.77783948     183.84000005       0.00000000       0.00000000       0.00000000     3910        2        0        0        0
S       -4.63587850      47.91834438      19.94419079     183.84000005       0.00000000       0.00000000       0.00000000     3911        2        0        0        0
S       -4.63526195      47.91078670      16.78578742     183.84000005       0.00000000       0.00000000       0.00000000     3912        2        0        0        0
S       -1.88703569      46.28379479      19.94274109     183.84000005       0.00000000       0.00000000       0.00000000     3913        2        0        0        0
S       -1.88768027      46.28591388      16.78441441     183.84000005       0.00000000       0.00000000       0.00000000     3914        2        0        0        0
S        0.85626281      44.64631630      19.93771123     183.84000005       0.00000000       0.00000000       0.00000000     3915        2        0        0        0
S        0.85946813      44.65633216      16.77938249     183.84000005       0.00000000       0.00000000       0.00000000     3916        2        0        0        0
S        3.59372544      43.00451356      19.93420589     183.84000005       0.00000000       0.00000000       0.00000000     3917        2        0        0        0
S        3.60464539      43.02084880      16.77576430     183.84000005       0.00000000       0.00000000       0.00000000     3918        2        0        0        0
S        6.32594180      41.35702135      19.93562277     183.84000005       0.00000000       0.00000000       0.00000000     3919        2        0        0        0
S        6.34602960      41.37844411      16.77696474     183.84000005       0.00000000       0.00000000       0.00000000     3920        2        0        0        0
S        9.05433381      39.70289415      19.94264379     183.84000005       0.00000000       0.00000000       0.00000000     3921        2        0        0        0
S        9.08185706      39.72855851      16.78369069     183.84000005       0.00000000       0.00000000       0.00000000     3922        2        0        0        0
S       11.78079787      38.04205778      19.95284311     183.84000005       0.00000000       0.00000000       0.00000000     3923        2        0        0        0
S       11.81100313      38.07142011      16.79354369     183.84000005       0.00000000       0.00000000       0.00000000     3924        2        0        0        0
S       14.50707513      36.37566399      19.96133814     183.84000005       0.00000000       0.00000000       0.00000000     3925        2        0        0        0
S       14.53356947      36.40829498      16.80169894     183.84000005       0.00000000       0.00000000       0.00000000     3926        2        0        0        0
S       17.23414598      34.70616057      19.96254765     183.84000005       0.00000000       0.00000000       0.00000000     3927        2        0        0        0
S       17.25119180      34.74152212      16.80264401     183.84000005       0.00000000       0.00000000       0.00000000     3928        2        0        0        0
S       -0.01254362       0.02452788      18.61049824     183.84000005       0.00000000       0.00000000       0.00000000     3929        2        1        0        0
S       85.59992581       0.02127061      15.45616345     183.84000005       0.00000000       0.00000000       0.00000000     3930        2        0        0        0
S      -40.12508364      72.49339750      18.62825028     183.84000005       0.00000000       0.00000000       0.00000000     3931        2        0        0        0
S      -40.09617198      72.46732755      15.47400463     183.84000005       0.00000000       0.00000000       0.00000000     3932        2        0        0        0
S      -37.42489558      70.81733490      18.68698018     183.84000005       0.00000000       0.00000000       0.00000000     3933        2        0        0        0
S      -37.36334817      70.76991246      15.53297770     183.84000005       0.00000000       0.00000000       0.00000000     3934        2        0        0        0
S      -34.72015745      69.14610674      18.78242381     183.84000005       0.00000000       0.00000000       0.00000000     3935        2        0        0        0
S      -34.63095133      69.08000371      15.62867193     183.84000005       0.00000000       0.00000000       0.00000000     3936        2        0        0        0
S      -32.01009907      67.48122142      18.90796799     183.84000005       0.00000000       0.00000000       0.00000000     3937        2        0        0        0
S      -31.89991330      67.40009253      15.75439181     183.84000005       0.00000000       0.00000000       0.00000000     3938        2        0        0        0
S      -29.29389364      65.82337733      19.05520720     183.84000005       0.00000000       0.00000000       0.00000000     3939        2        0        0        0
S      -29.17067711      65.73220549      15.90167092     183.84000005       0.00000000       0.00000000       0.00000000     3940        2        0        0        0
S      -26.57067187      64.17225616      19.21393359     183.84000005       0.00000000       0.00000000       0.00000000     3941        2        0        0        0
S      -26.44337101      64.07736507      16.06011331     183.84000005       0.00000000       0.00000000       0.00000000     3942        2        0        0        0
S      -23.83994820      62.52686844      19.37272704     183.84000005       0.00000000       0.00000000       0.00000000     3943        2        0        0        0
S      -23.71764169      62.43501737      16.21817870     183.84000005       0.00000000       0.00000000       0.00000000     3944        2        0        0        0
S      -21.10198526      60.88615703      19.52067433     183.84000005       0.00000000       0.00000000       0.00000000     3945        2        0        0        0
S      -20.99245745      60.80313881      16.36507847     183.84000005       0.00000000       0.00000000       0.00000000     3946        2        0        0        0
S      -18.35781088      59.24931274      19.64934616     183.84000005       0.00000000       0.00000000       0.00000000     3947        2        0        0        0
S      -18.26636838      59.17888866      16.49266100     183.84000005       0.00000000       0.00000000       0.00000000     3948        2        0        0        0
S      -15.60891996      57.61568262      19.75387072     183.84000005       0.00000000       0.00000000       0.00000000     3949        2        0        0        0
S      -15.53802180      57.55940673      16.59629910     183.84000005       0.00000000       0.00000000       0.00000000     3950        2        0        0        0
S      -12.85696259      55.98462505      19.83282545     183.84000005       0.00000000       0.00000000       0.00000000     3951        2        0        0        0
S      -12.80653352      55.94233716      16.67468508     183.84000005       0.00000000       0.00000000       0.00000000     3952        2        0        0        0
S      -10.10358517      54.35542280      19.88747662     183.84000005       0.00000000       0.00000000       0.00000000     3953        2        0        0        0
S      -10.07158733      54.32591722      16.72907909     183.84000005       0.00000000       0.00000000       0.00000000     3954        2        0        0        0
S       -7.35041275      52.72726664      19.92097690     183.84000005       0.00000000       0.00000000       0.00000000     3955        2        0        0        0
S       -7.33336495      52.70878819      16.76255274     183.84000005       0.00000000       0.00000000       0.00000000     3956        2        0        0        0
S       -4.59906543      51.09924049      19.93779904     183.84000005       0.00000000       0.00000000       0.00000000     3957        2        0        0        0
S       -4.59244922      51.08976012      16.77946474     183.84000005       0.00000000       0.00000000       0.00000000     3958        2        0        0        0
S       -1.85108180      49.47025291      19.94331850     183.84000005       0.00000000       0.00000000       0.00000000     3959        2        0        0        0
S       -1.84973915      49.46762234      16.78507948     183.84000005       0.00000000       0.00000000       0.00000000     3960        2        0        0        0
S        0.89228752      47.83895980      19.94331985     183.84000005       0.00000000       0.00000000       0.00000000     3961        2        0        0        0
S        0.89354938      47.84108927      16.78509275     183.84000005       0.00000000       0.00000000       0.00000000     3962        2        0        0        0
S        3.63036425      46.20373896      19.94322124     183.84000005       0.00000000       0.00000000       0.00000000     3963        2        0        0        0
S        3.63583255      46.20881548      16.78487187     183.84000005       0.00000000       0.00000000       0.00000000     3964        2        0        0        0
S        6.36332538      44.56286505      19.94698507     183.84000005       0.00000000       0.00000000       0.00000000     3965        2        0        0        0
S        6.37521051      44.56958688      16.78837812     183.84000005       0.00000000       0.00000000       0.00000000     3966        2        0        0        0
S        9.09227233      42.91492128      19.95598897     183.84000005       0.00000000       0.00000000       0.00000000     3967        2        0        0        0
S        9.10976909      42.92264858      16.79702086     183.84000005       0.00000000       0.00000000       0.00000000     3968        2        0        0        0
S       11.81894561      41.25933470      19.96840121     183.84000005       0.00000000       0.00000000       0.00000000     3969        2        0        0        0
S       11.83817230      41.26805283      16.80901824     183.84000005       0.00000000       0.00000000       0.00000000     3970        2        0        0        0
S       14.54512432      39.59682147      19.97963647     183.84000005       0.00000000       0.00000000       0.00000000     3971        2        0        0        0
S       14.56028102      39.60691883      16.81985666     183.84000005       0.00000000       0.00000000       0.00000000     3972        2        0        0        0
S       17.27194677      37.92952323      19.98397537     183.84000005       0.00000000       0.00000000       0.00000000     3973        2        0        0        0
S       17.27749473      37.94146489      16.82389676     183.84000005       0.00000000       0.00000000       0.00000000     3974        2        0        0        0
S       19.99952795      36.26071816      19.97695884     183.84000005       0.00000000       0.00000000       0.00000000     3975        2        0        0        0
S       19.99259463      36.27470638      16.81673151     183.84000005       0.00000000       0.00000000       0.00000000     3976        2        0        0        0
S      -37.31984040      73.98802356      18.66287179     183.84000005       0.00000000       0.00000000       0.00000000     3977        2        0        0        0
S      -37.25575277      73.98058174      15.50871079     183.84000005       0.00000000       0.00000000       0.00000000     3978        2        0        0        0
S      -34.61711533      72.31415185      18.73990256     183.84000005       0.00000000       0.00000000       0.00000000     3979        2        0        0        0
S      -34.52432702      72.28521451      15.58588974     183.84000005       0.00000000       0.00000000       0.00000000     3980        2        0        0        0
S      -31.90997318      70.64685316      18.85002170     183.84000005       0.00000000       0.00000000       0.00000000     3981        2        0        0        0
S      -31.79453929      70.59908615      15.69612506     183.84000005       0.00000000       0.00000000       0.00000000     3982        2        0        0        0
S      -29.19785586      68.98733135      18.98597083     183.84000005       0.00000000       0.00000000       0.00000000     3983        2        0        0        0
S      -29.06677050      68.92459421      15.83217947     183.84000005       0.00000000       0.00000000       0.00000000     3984        2        0        0        0
S      -26.48004361      67.33565827      19.13898286     183.84000005       0.00000000       0.00000000       0.00000000     3985        2        0        0        0
S      -26.34129106      67.26342609      15.98516200     183.84000005       0.00000000       0.00000000       0.00000000     3986        2        0        0        0
S      -23.75585151      65.69080002      19.29851322     183.84000005       0.00000000       0.00000000       0.00000000     3987        2        0        0        0
S      -23.61831069      65.61586550      16.14427131     183.84000005       0.00000000       0.00000000       0.00000000     3988        2        0        0        0
S      -21.02506732      64.05129427      19.45311834     183.84000005       0.00000000       0.00000000       0.00000000     3989        2        0        0        0
S      -20.89744703      63.98050971      16.29800463     183.84000005       0.00000000       0.00000000       0.00000000     3990        2        0        0        0
S      -18.28818823      62.41592739      19.59252483     183.84000005       0.00000000       0.00000000       0.00000000     3991        2        0        0        0
S      -18.17745505      62.35465804      16.43629868     183.84000005       0.00000000       0.00000000       0.00000000     3992        2        0        0        0
S      -15.54630430      60.78392345      19.70956279     183.84000005       0.00000000       0.00000000       0.00000000     3993        2        0        0        0
S      -15.45664777      60.73513472      16.55229840     183.84000005       0.00000000       0.00000000       0.00000000     3994        2        0        0        0
S      -12.80077723      59.15476595      19.80088880     183.84000005       0.00000000       0.00000000       0.00000000     3995        2        0        0        0
S      -12.73352013      59.11907376      16.64287589     183.84000005       0.00000000       0.00000000       0.00000000     3996        2        0        0        0
S      -10.05299327      57.52796053      19.86652659     183.84000005       0.00000000       0.00000000       0.00000000     3997        2        0        0        0
S      -10.00710449      57.50426363      16.70811536     183.84000005       0.00000000       0.00000000       0.00000000     3998        2        0        0        0
S       -7.30432950      55.90289779      19.90895976     183.84000005       0.00000000       0.00000000       0.00000000     3999        2        0        0        0
S       -7.27703517      55.88908362      16.75044753     183.84000005       0.00000000       0.00000000       0.00000000     4000        2        0        0        0
S       -4.55620635      54.27879119      19.93233816     183.84000005       0.00000000       0.00000000       0.00000000     4001        2        0        0        0
S       -4.54347598      54.27225790      16.77390719     183.84000005       0.00000000       0.00000000       0.00000000     4002        2        0        0        0
S       -1.81011729      52.65459476      19.94192023     183.84000005       0.00000000       0.00000000       0.00000000     4003        2        0        0        0
S       -1.80705168      52.65257812      16.78362616     183.84000005       0.00000000       0.00000000       0.00000000     4004        2        0        0        0
S        0.93251555      51.02891801      19.94359672     183.84000005       0.00000000       0.00000000       0.00000000     4005        2        0        0        0
S        0.93116597      51.02874919      16.78537879     183.84000005       0.00000000       0.00000000       0.00000000     4006        2        0        0        0
S        3.67063492      49.39998257      19.94319882     183.84000005       0.00000000       0.00000000       0.00000000     4007        2        0        0        0
S        3.66963541      49.39936135      16.78491886     183.84000005       0.00000000       0.00000000       0.00000000     4008        2        0        0        0
S        6.40391261      47.76574754      19.94544056     183.84000005       0.00000000       0.00000000       0.00000000     4009        2        0        0        0
S        6.40637940      47.76305298      16.78694013     183.84000005       0.00000000       0.00000000       0.00000000     4010        2        0        0        0
S        9.13299131      46.12432475      19.95269061     183.84000005       0.00000000       0.00000000       0.00000000     4011        2        0        0        0
S        9.13928160      46.11886031      16.79384047     183.84000005       0.00000000       0.00000000       0.00000000     4012        2        0        0        0
S       11.85934121      44.47458238      19.96407647     183.84000005       0.00000000       0.00000000       0.00000000     4013        2        0        0        0
S       11.86668996      44.46662612      16.80480706     183.84000005       0.00000000       0.00000000       0.00000000     4014        2        0        0        0
S       14.58472264      42.81670922      19.97563228     183.84000005       0.00000000       0.00000000       0.00000000     4015        2        0        0        0
S       14.58810950      42.80728353      16.81595709     183.84000005       0.00000000       0.00000000       0.00000000     4016        2        0        0        0
S       17.31045816      41.15245461      19.98172212     183.84000005       0.00000000       0.00000000       0.00000000     4017        2        0        0        0
S       17.30462665      41.14291047      16.82174148     183.84000005       0.00000000       0.00000000       0.00000000     4018        2        0        0        0
S       20.03690979      39.48491227      19.97741536     183.84000005       0.00000000       0.00000000       0.00000000     4019        2        0        0        0
S       20.01885016      39.47646580      16.81727966     183.84000005       0.00000000       0.00000000       0.00000000     4020        2        0        0        0
S      -31.80910495      73.81496100      18.82647806     183.84000005       0.00000000       0.00000000       0.00000000     4021        2        0        0        0
S      -31.69169126      73.80334298      15.67233955     183.84000005       0.00000000       0.00000000       0.00000000     4022        2        0        0        0
S      -29.09934842      72.15365961      18.94625721     183.84000005       0.00000000       0.00000000       0.00000000     4023        2        0        0        0
S      -28.96490122      72.12264094      15.79210954     183.84000005       0.00000000       0.00000000       0.00000000     4024        2        0        0        0
S      -26.38496268      70.50129665      19.08758976     183.84000005       0.00000000       0.00000000       0.00000000     4025        2        0        0        0
S      -26.24019025      70.45491017      15.93348623     183.84000005       0.00000000       0.00000000       0.00000000     4026        2        0        0        0
S      -23.66537081      68.85706710      19.24165427     183.84000005       0.00000000       0.00000000       0.00000000     4027        2        0        0        0
S      -23.51800483      68.80131733      16.08740746     183.84000005       0.00000000       0.00000000       0.00000000     4028        2        0        0        0
S      -20.94015752      67.21916121      19.39769173     183.84000005       0.00000000       0.00000000       0.00000000     4029        2        0        0        0
S      -20.79882123      67.16136046      16.24287386     183.84000005       0.00000000       0.00000000       0.00000000     4030        2        0        0        0
S      -18.20942094      65.58572558      19.54438962     183.84000005       0.00000000       0.00000000       0.00000000     4031        2        0        0        0
S      -18.08225871      65.53285243      16.38859385     183.84000005       0.00000000       0.00000000       0.00000000     4032        2        0        0        0
S      -15.47386839      63.95552714      19.67226178     183.84000005       0.00000000       0.00000000       0.00000000     4033        2        0        0        0
S      -15.36691004      63.91258771      16.51534947     183.84000005       0.00000000       0.00000000       0.00000000     4034        2        0        0        0
S      -12.73456242      62.32797913      19.77541134     183.84000005       0.00000000       0.00000000       0.00000000     4035        2        0        0        0
S      -12.65094544      62.29727609      16.61755227     183.84000005       0.00000000       0.00000000       0.00000000     4036        2        0        0        0
S       -9.99262827      60.70280581      19.85183825     183.84000005       0.00000000       0.00000000       0.00000000     4037        2        0        0        0
S       -9.93277151      60.68416383      16.69337789     183.84000005       0.00000000       0.00000000       0.00000000     4038        2        0        0        0
S       -7.24913921      59.07972162      19.90273049     183.84000005       0.00000000       0.00000000       0.00000000     4039        2        0        0        0
S       -7.21134202      59.07118668      16.74402810     183.84000005       0.00000000       0.00000000       0.00000000     4040        2        0        0        0
S       -4.50520879      57.45825098      19.93154612     183.84000005       0.00000000       0.00000000       0.00000000     4041        2        0        0        0
S       -4.48619271      57.45679846      16.77287168     183.84000005       0.00000000       0.00000000       0.00000000     4042        2        0        0        0
S       -1.76210044      55.83758193      19.94329159     183.84000005       0.00000000       0.00000000       0.00000000     4043        2        0        0        0
S       -1.75741501      55.83969670      16.78477976     183.84000005       0.00000000       0.00000000       0.00000000     4044        2        0        0        0
S        0.97878923      54.21644659      19.94395884     183.84000005       0.00000000       0.00000000       0.00000000     4045        2        0        0        0
S        0.97433381      54.21857307      16.78560746     183.84000005       0.00000000       0.00000000       0.00000000     4046        2        0        0        0
S        3.71615946      52.59304179      19.93986773     183.84000005       0.00000000       0.00000000       0.00000000     4047        2        0        0        0
S        3.70776991      52.59200866      16.78156629     183.84000005       0.00000000       0.00000000       0.00000000     4048        2        0        0        0
S        6.44920489      50.96510496      19.93667009     183.84000005       0.00000000       0.00000000       0.00000000     4049        2        0        0        0
S        6.44097588      50.95855959      16.77825222     183.84000005       0.00000000       0.00000000       0.00000000     4050        2        0        0        0
S        9.17800045      49.33029772      19.93801989     183.84000005       0.00000000       0.00000000       0.00000000     4051        2        0        0        0
S        9.17165052      49.31707729      16.77933730     183.84000005       0.00000000       0.00000000       0.00000000     4052        2        0        0        0
S       11.90359629      47.68687616      19.94440840     183.84000005       0.00000000       0.00000000       0.00000000     4053        2        0        0        0
S       11.89774412      47.66717038      16.78537003     183.84000005       0.00000000       0.00000000       0.00000000     4054        2        0        0        0
S       14.62761952      46.03437851      19.95289917     183.84000005       0.00000000       0.00000000       0.00000000     4055        2        0        0        0
S       14.61826792      46.00954700      16.79350292     183.84000005       0.00000000       0.00000000       0.00000000     4056        2        0        0        0
S       17.35154664      44.37402776      19.95825641     183.84000005       0.00000000       0.00000000       0.00000000     4057        2        0        0        0
S       17.33386934      44.34611563      16.79859061     183.84000005       0.00000000       0.00000000       0.00000000     4058        2        0        0        0
S       20.07603476      42.70861758      19.95523870     183.84000005       0.00000000       0.00000000       0.00000000     4059        2        0        0        0
S       20.04689135      42.67975959      16.79543700     183.84000005       0.00000000       0.00000000       0.00000000     4060        2        0        0        0
S       22.80084342      41.04186221      19.94118410     183.84000005       0.00000000       0.00000000       0.00000000     4061        2        0        0        0
S       22.76076381      41.01376141      16.78138385     183.84000005       0.00000000       0.00000000       0.00000000     4062        2        0        0        0
S      -26.28901279      73.66898466      19.06317192     183.84000005       0.00000000       0.00000000       0.00000000     4063        2        0        0        0
S      -26.14366323      73.65220299      15.90870072     183.84000005       0.00000000       0.00000000       0.00000000     4064        2        0        0        0
S      -23.57210236      72.02507760      19.20475397     183.84000005       0.00000000       0.00000000       0.00000000     4065        2        0        0        0
S      -23.42134344      71.99212201      16.05022992     183.84000005       0.00000000       0.00000000       0.00000000     4066        2        0        0        0
S      -20.85054410      70.38896992      19.35523187     183.84000005       0.00000000       0.00000000       0.00000000     4067        2        0        0        0
S      -20.70177921      70.34641161      16.20039662     183.84000005       0.00000000       0.00000000       0.00000000     4068        2        0        0        0
S      -18.12424419      68.75815386      19.50371813     183.84000005       0.00000000       0.00000000       0.00000000     4069        2        0        0        0
S      -17.98571901      68.71378856      16.34815867     183.84000005       0.00000000       0.00000000       0.00000000     4070        2        0        0        0
S      -15.39361585      67.13055452      19.63921614     183.84000005       0.00000000       0.00000000       0.00000000     4071        2        0        0        0
S      -15.27272286      67.09146495      16.48262691     183.84000005       0.00000000       0.00000000       0.00000000     4072        2        0        0        0
S      -12.65949281      65.50506508      19.75314446     183.84000005       0.00000000       0.00000000       0.00000000     4073        2        0        0        0
S      -12.56128778      65.47600292      16.59549901     183.84000005       0.00000000       0.00000000       0.00000000     4074        2        0        0        0
S       -9.92280386      63.88137080      19.84073444     183.84000005       0.00000000       0.00000000       0.00000000     4075        2        0        0        0
S       -9.84956905      63.86418437      16.68227221     183.84000005       0.00000000       0.00000000       0.00000000     4076        2        0        0        0
S       -7.18438159      62.25949561      19.90098672     183.84000005       0.00000000       0.00000000       0.00000000     4077        2        0        0        0
S       -7.13595036      62.25341795      16.74207769     183.84000005       0.00000000       0.00000000       0.00000000     4078        2        0        0        0
S       -4.44501638      60.63940348      19.93591270     183.84000005       0.00000000       0.00000000       0.00000000     4079        2        0        0        0
S       -4.41927952      60.64173474      16.77690908     183.84000005       0.00000000       0.00000000       0.00000000     4080        2        0        0        0
S       -1.70563026      59.02073656      19.94974343     183.84000005       0.00000000       0.00000000       0.00000000     4081        2        0        0        0
S       -1.69893583      59.02756418      16.79088487     183.84000005       0.00000000       0.00000000       0.00000000     4082        2        0        0        0
S        1.03260892      57.40260135      19.94828433     183.84000005       0.00000000       0.00000000       0.00000000     4083        2        0        0        0
S        1.02509813      57.40947227      16.78965866     183.84000005       0.00000000       0.00000000       0.00000000     4084        2        0        0        0
S        3.76837617      55.78341495      19.93825686     183.84000005       0.00000000       0.00000000       0.00000000     4085        2        0        0        0
S        3.75211455      55.78598479      16.77981142     183.84000005       0.00000000       0.00000000       0.00000000     4086        2        0        0        0
S        6.50053931      54.16090015      19.92633053     183.84000005       0.00000000       0.00000000       0.00000000     4087        2        0        0        0
S        6.48055622      54.15559193      16.76792203     183.84000005       0.00000000       0.00000000       0.00000000     4088        2        0        0        0
S        9.22862781      52.53238379      19.91772599     183.84000005       0.00000000       0.00000000       0.00000000     4089        2        0        0        0
S        9.20813610      52.51699429      16.75919567     183.84000005       0.00000000       0.00000000       0.00000000     4090        2        0        0        0
S       11.95314673      50.89548738      19.91474246     183.84000005       0.00000000       0.00000000       0.00000000     4091        2        0        0        0
S       11.93243186      50.86955596      16.75598190     183.84000005       0.00000000       0.00000000       0.00000000     4092        2        0        0        0
S       14.67542500      49.24897499      19.91599986     183.84000005       0.00000000       0.00000000       0.00000000     4093        2        0        0        0
S       14.65183412      49.21372825      16.75698467     183.84000005       0.00000000       0.00000000       0.00000000     4094        2        0        0        0
S       17.39699291      47.59336142      19.91712377     183.84000005       0.00000000       0.00000000       0.00000000     4095        2        0        0        0
S       17.36637936      47.55121530      16.75792032     183.84000005       0.00000000       0.00000000       0.00000000     4096        2        0        0        0
S       20.11880704      45.93097473      19.91285389     183.84000005       0.00000000       0.00000000       0.00000000     4097        2        0        0        0
S       20.07798840      45.88480894      16.75357046     183.84000005       0.00000000       0.00000000       0.00000000     4098        2        0        0        0
S       22.84091893      44.26539920      19.89980422     183.84000005       0.00000000       0.00000000       0.00000000     4099        2        0        0        0
S       22.79000480      44.21783626      16.74054004     183.84000005       0.00000000       0.00000000       0.00000000     4100        2        0        0        0
S      -20.75984525      73.55985932      19.32904792     183.84000005       0.00000000       0.00000000       0.00000000     4101        2        0        0        0
S      -20.61062811      73.53699475      16.17396663     183.84000005       0.00000000       0.00000000       0.00000000     4102        2        0        0        0
S      -18.03617846      71.93183959      19.47162016     183.84000005       0.00000000       0.00000000       0.00000000     4103        2        0        0        0
S      -17.89291209      71.89893450      16.31604041     183.84000005       0.00000000       0.00000000       0.00000000     4104        2        0        0        0
S      -15.30876211      70.30768835      19.60890489     183.84000005       0.00000000       0.00000000       0.00000000     4105        2        0        0        0
S      -15.17918341      70.27288629      16.45248441     183.84000005       0.00000000       0.00000000       0.00000000     4106        2        0        0        0
S      -12.57827070      68.68531876      19.73046387     183.84000005       0.00000000       0.00000000       0.00000000     4107        2        0        0        0
S      -12.46890165      68.65573866      16.57302019     183.84000005       0.00000000       0.00000000       0.00000000     4108        2        0        0        0
S       -9.84553366      67.06384245      19.82862256     183.84000005       0.00000000       0.00000000       0.00000000     4109        2        0        0        0
S       -9.76058649      67.04409966      16.67023222     183.84000005       0.00000000       0.00000000       0.00000000     4110        2        0        0        0
S       -7.11126485      65.44324468      19.89942310     183.84000005       0.00000000       0.00000000       0.00000000     4111        2        0        0        0
S       -7.05248249      65.43494423      16.74037695     183.84000005       0.00000000       0.00000000       0.00000000     4112        2        0        0        0
S       -4.37603043      63.82385829      19.94246012     183.84000005       0.00000000       0.00000000       0.00000000     4113        2        0        0        0
S       -4.34296168      63.82582961      16.78313326     183.84000005       0.00000000       0.00000000       0.00000000     4114        2        0        0        0
S       -1.64042870      62.20589470      19.96027847     183.84000005       0.00000000       0.00000000       0.00000000     4115        2        0        0        0
S       -1.63072434      62.21479422      16.80100920     183.84000005       0.00000000       0.00000000       0.00000000     4116        2        0        0        0
S        1.09470807      60.58907749      19.95777583     183.84000005       0.00000000       0.00000000       0.00000000     4117        2        0        0        0
S        1.08505089      60.60012988      16.79877042     183.84000005       0.00000000       0.00000000       0.00000000     4118        2        0        0        0
S        3.82824244      58.97236166      19.94158100     183.84000005       0.00000000       0.00000000       0.00000000     4119        2        0        0        0
S        3.80450071      58.98018838      16.78288052     183.84000005       0.00000000       0.00000000       0.00000000     4120        2        0        0        0
S        6.55893941      57.35378522      19.91916540     183.84000005       0.00000000       0.00000000       0.00000000     4121        2        0        0        0
S        6.52680973      57.35331666      16.76067729     183.84000005       0.00000000       0.00000000       0.00000000     4122        2        0        0        0
S        9.28592513      55.73061930      19.89741569     183.84000005       0.00000000       0.00000000       0.00000000     4123        2        0        0        0
S        9.25010358      55.71803613      16.73898800     183.84000005       0.00000000       0.00000000       0.00000000     4124        2        0        0        0
S       12.00914330      54.09997349      19.88084918     183.84000005       0.00000000       0.00000000       0.00000000     4125        2        0        0        0
S       11.97183023      54.07344307      16.72236021     183.84000005       0.00000000       0.00000000       0.00000000     4126        2        0        0        0
S       14.72948596      52.45976974      19.87027146     183.84000005       0.00000000       0.00000000       0.00000000     4127        2        0        0        0
S       14.68977447      52.41969577      16.71167794     183.84000005       0.00000000       0.00000000       0.00000000     4128        2        0        0        0
S       17.44836831      50.80960372      19.86282485     183.84000005       0.00000000       0.00000000       0.00000000     4129        2        0        0        0
S       17.40317762      50.75824678      16.70416983     183.84000005       0.00000000       0.00000000       0.00000000     4130        2        0        0        0
S       20.16699038      49.15110511      19.85372559     183.84000005       0.00000000       0.00000000       0.00000000     4131        2        0        0        0
S       20.11332513      49.09177215      16.69509120     183.84000005       0.00000000       0.00000000       0.00000000     4132        2        0        0        0
S       22.88574240      47.48754564      19.83908072     183.84000005       0.00000000       0.00000000       0.00000000     4133        2        0        0        0
S       22.82328988      47.42365223      16.68052009     183.84000005       0.00000000       0.00000000       0.00000000     4134        2        0        0        0
S       25.60444534      45.82283388      19.81838061     183.84000005       0.00000000       0.00000000       0.00000000     4135        2        0        0        0
S       25.53690757      45.75723479      16.65991294     183.84000005       0.00000000       0.00000000       0.00000000     4136        2        0        0        0
S      -15.22278772      73.48531585      19.58324589     183.84000005       0.00000000       0.00000000       0.00000000     4137        2        0        0        0
S      -15.09108193      73.45859155      16.42681377     183.84000005       0.00000000       0.00000000       0.00000000     4138        2        0        0        0
S      -12.49426907      71.86693095      19.70633346     183.84000005       0.00000000       0.00000000       0.00000000     4139        2        0        0        0
S      -12.37881876      71.83804454      16.54900660     183.84000005       0.00000000       0.00000000       0.00000000     4140        2        0        0        0
S       -9.76387689      70.24889442      19.81187683     183.84000005       0.00000000       0.00000000       0.00000000     4141        2        0        0        0
S       -9.67039222      70.22491799      16.65358839     183.84000005       0.00000000       0.00000000       0.00000000     4142        2        0        0        0
S       -7.03231800      68.63056967      19.89293059     183.84000005       0.00000000       0.00000000       0.00000000     4143        2        0        0        0
S       -6.96445350      68.61607010      16.73384618     183.84000005       0.00000000       0.00000000       0.00000000     4144        2        0        0        0
S       -4.30008066      67.01221395      19.94596545     183.84000005       0.00000000       0.00000000       0.00000000     4145        2        0        0        0
S       -4.25936735      67.00871791      16.78640862     183.84000005       0.00000000       0.00000000       0.00000000     4146        2        0        0        0
S       -1.56755686      65.39443885      19.97081402     183.84000005       0.00000000       0.00000000       0.00000000     4147        2        0        0        0
S       -1.55347847      65.40050523      16.81115811     183.84000005       0.00000000       0.00000000       0.00000000     4148        2        0        0        0
S        1.16472034      63.77766011      19.97038031     183.84000005       0.00000000       0.00000000       0.00000000     4149        2        0        0        0
S        1.15471325      63.78936403      16.81094782     183.84000005       0.00000000       0.00000000       0.00000000     4150        2        0        0        0
S        3.89590072      62.16162991      19.95024107     183.84000005       0.00000000       0.00000000       0.00000000     4151        2        0        0        0
S        3.86625411      62.17336109      16.79120479     183.84000005       0.00000000       0.00000000       0.00000000     4152        2        0        0        0
S        6.62485198      60.54508980      19.91793971     183.84000005       0.00000000       0.00000000       0.00000000     4153        2        0        0        0
S        6.58135977      60.55058921      16.75929347     183.84000005       0.00000000       0.00000000       0.00000000     4154        2        0        0        0
S        9.35050464      58.92568030      19.88167897     183.84000005       0.00000000       0.00000000       0.00000000     4155        2        0        0        0
S        9.29904049      58.91928212      16.72330094     183.84000005       0.00000000       0.00000000       0.00000000     4156        2        0        0        0
S       12.07234749      57.30033931      19.84834559     183.84000005       0.00000000       0.00000000       0.00000000     4157        2        0        0        0
S       12.01711310      57.27819020      16.69010380     183.84000005       0.00000000       0.00000000       0.00000000     4158        2        0        0        0
S       14.79076407      55.66624695      19.82153176     183.84000005       0.00000000       0.00000000       0.00000000     4159        2        0        0        0
S       14.73302166      55.62708284      16.66336083     183.84000005       0.00000000       0.00000000       0.00000000     4160        2        0        0        0
S       17.50690321      54.02194844      19.80072069     183.84000005       0.00000000       0.00000000       0.00000000     4161        2        0        0        0
S       17.44516815      53.96709949      16.64264355     183.84000005       0.00000000       0.00000000       0.00000000     4162        2        0        0        0
S       20.22207012      52.36809037      19.78236833     183.84000005       0.00000000       0.00000000       0.00000000     4163        2        0        0        0
S       20.15395519      52.30073745      16.62445049     183.84000005       0.00000000       0.00000000       0.00000000     4164        2        0        0        0
S       22.93700980      50.70735683      19.76254863     183.84000005       0.00000000       0.00000000       0.00000000     4165        2        0        0        0
S       22.86192528      50.63142869      16.60480184     183.84000005       0.00000000       0.00000000       0.00000000     4166        2        0        0        0
S       25.65179810      49.04356873      19.73989928     183.84000005       0.00000000       0.00000000       0.00000000     4167        2        0        0        0
S       25.57290657      48.96272171      16.58227051     183.84000005       0.00000000       0.00000000       0.00000000     4168        2        0        0        0
S       -9.68115752      73.43445729      19.79031111     183.84000005       0.00000000       0.00000000       0.00000000     4169        2        0        0        0
S       -9.58382617      73.40832133      16.63211633     183.84000005       0.00000000       0.00000000       0.00000000     4170        2        0        0        0
S       -6.95070856      71.81968846      19.87839697     183.84000005       0.00000000       0.00000000       0.00000000     4171        2        0        0        0
S       -6.87649844      71.79808447      16.71935579     183.84000005       0.00000000       0.00000000       0.00000000     4172        2        0        0        0
S       -4.21995892      70.20356032      19.94134464     183.84000005       0.00000000       0.00000000       0.00000000     4173        2        0        0        0
S       -4.17229855      70.19105007      16.78168545     183.84000005       0.00000000       0.00000000       0.00000000     4174        2        0        0        0
S       -1.48923802      68.58654539      19.97571116     183.84000005       0.00000000       0.00000000       0.00000000     4175        2        0        0        0
S       -1.46970559      68.58465595      16.81577705     183.84000005       0.00000000       0.00000000       0.00000000     4176        2        0        0        0
S        1.24110153      66.96946244      19.98134756     183.84000005       0.00000000       0.00000000       0.00000000     4177        2        0        0        0
S        1.23301938      66.97654008      16.82151969     183.84000005       0.00000000       0.00000000       0.00000000     4178        2        0        0        0
S        3.97045916      65.35288372      19.96150918     183.84000005       0.00000000       0.00000000       0.00000000     4179        2        0        0        0
S        3.93760845      65.36445001      16.80209434     183.84000005       0.00000000       0.00000000       0.00000000     4180        2        0        0        0
S        6.69789897      63.73652065      19.92257531     183.84000005       0.00000000       0.00000000       0.00000000     4181        2        0        0        0
S        6.64532731      63.74615804      16.76370528     183.84000005       0.00000000       0.00000000       0.00000000     4182        2        0        0        0
S        9.42233838      62.11884775      19.87308698     183.84000005       0.00000000       0.00000000       0.00000000     4183        2        0        0        0
S        9.35639316      62.11951160      16.71471046     183.84000005       0.00000000       0.00000000       0.00000000     4184        2        0        0        0
S       12.14297370      60.49716298      19.82186216     183.84000005       0.00000000       0.00000000       0.00000000     4185        2        0        0        0
S       12.06958878      60.48277877      16.66384581     183.84000005       0.00000000       0.00000000       0.00000000     4186        2        0        0        0
S       14.85972154      58.86827552      19.77554986     183.84000005       0.00000000       0.00000000       0.00000000     4187        2        0        0        0
S       14.78258247      58.83518705      16.61779474     183.84000005       0.00000000       0.00000000       0.00000000     4188        2        0        0        0
S       17.57335220      57.22974331      19.73680265     183.84000005       0.00000000       0.00000000       0.00000000     4189        2        0        0        0
S       17.49318225      57.17740129      16.57930055     183.84000005       0.00000000       0.00000000       0.00000000     4190        2        0        0        0
S       20.28511810      55.58100992      19.70432924     183.84000005       0.00000000       0.00000000       0.00000000     4191        2        0        0        0
S       20.20078476      55.51163600      16.54713084     183.84000005       0.00000000       0.00000000       0.00000000     4192        2        0        0        0
S       22.99606804      53.92381776      19.67497817     183.84000005       0.00000000       0.00000000       0.00000000     4193        2        0        0        0
S       22.90707501      53.84131883      16.51807673     183.84000005       0.00000000       0.00000000       0.00000000     4194        2        0        0        0
S       25.70662034      52.26162346      19.64687433     183.84000005       0.00000000       0.00000000       0.00000000     4195        2        0        0        0
S       25.61555990      52.17024170      16.49014729     183.84000005       0.00000000       0.00000000       0.00000000     4196        2        0        0        0
S       28.41702015      50.59827609      19.62165366     183.84000005       0.00000000       0.00000000       0.00000000     4197        2        0        0        0
S       28.33016780      50.50169724      16.46494464     183.84000005       0.00000000       0.00000000       0.00000000     4198        2        0        0        0
S       -4.13879725      73.39580170      19.92623891     183.84000005       0.00000000       0.00000000       0.00000000     4199        2        0        0        0
S       -4.08636948      73.37421186      16.76660181     183.84000005       0.00000000       0.00000000       0.00000000     4200        2        0        0        0
S       -1.40837321      71.78088419      19.97022485     183.84000005       0.00000000       0.00000000       0.00000000     4201        2        0        0        0
S       -1.38339756      71.76810041      16.81016232     183.84000005       0.00000000       0.00000000       0.00000000     4202        2        0        0        0
S        1.32138268      70.16428247      19.98495974     183.84000005       0.00000000       0.00000000       0.00000000     4203        2        0        0        0
S        1.31717315      70.16183703      16.82484815     183.84000005       0.00000000       0.00000000       0.00000000     4204        2        0        0        0
S        4.05001591      68.54696656      19.97030237     183.84000005       0.00000000       0.00000000       0.00000000     4205        2        0        0        0
S        4.01722814      68.55298230      16.81053310     183.84000005       0.00000000       0.00000000       0.00000000     4206        2        0        0        0
S        6.77675487      66.92957539      19.93000176     183.84000005       0.00000000       0.00000000       0.00000000     4207        2        0        0        0
S        6.71874109      66.93902384      16.77085671     183.84000005       0.00000000       0.00000000       0.00000000     4208        2        0        0        0
S        9.50057906      65.31171529      19.87140804     183.84000005       0.00000000       0.00000000       0.00000000     4209        2        0        0        0
S        9.42313019      65.31742030      16.71297241     183.84000005       0.00000000       0.00000000       0.00000000     4210        2        0        0        0
S       12.22053709      63.69159289      19.80407026     183.84000005       0.00000000       0.00000000       0.00000000     4211        2        0        0        0
S       12.13054093      63.68587726      16.64624868     183.84000005       0.00000000       0.00000000       0.00000000     4212        2        0        0        0
S       14.93618148      62.06626790      19.73724118     183.84000005       0.00000000       0.00000000       0.00000000     4213        2        0        0        0
S       14.83958202      62.04289139      16.57989375     183.84000005       0.00000000       0.00000000       0.00000000     4214        2        0        0        0
S       17.64786798      60.43268577      19.67720066     183.84000005       0.00000000       0.00000000       0.00000000     4215        2        0        0        0
S       17.54806472      60.38840589      16.52026151     183.84000005       0.00000000       0.00000000       0.00000000     4216        2        0        0        0
S       20.35665470      58.78907538      19.62597532     183.84000005       0.00000000       0.00000000       0.00000000     4217        2        0        0        0
S       20.25455667      58.72412502      16.46946134     183.84000005       0.00000000       0.00000000       0.00000000     4218        2        0        0        0
S       23.06378098      57.13592610      19.58234327     183.84000005       0.00000000       0.00000000       0.00000000     4219        2        0        0        0
S       22.95965427      57.05332022      16.42624484     183.84000005       0.00000000       0.00000000       0.00000000     4220        2        0        0        0
S       25.77007421      55.47593411      19.54464186     183.84000005       0.00000000       0.00000000       0.00000000     4221        2        0        0        0
S       25.66613775      55.38002169      16.38879427     183.84000005       0.00000000       0.00000000       0.00000000     4222        2        0        0        0
S       28.47600578      53.81287175      19.51368359     183.84000005       0.00000000       0.00000000       0.00000000     4223        2        0        0        0
S       28.37788065      53.70787988      16.35785213     183.84000005       0.00000000       0.00000000       0.00000000     4224        2        0        0        0
S        1.40263871      73.36047362      19.97697951     183.84000005       0.00000000       0.00000000       0.00000000     4225        2        0        0        0
S        1.40306318      73.34622744      16.81674146     183.84000005       0.00000000       0.00000000       0.00000000     4226        2        0        0        0
S        4.13193274      71.74336033      19.97105319     183.84000005       0.00000000       0.00000000       0.00000000     4227        2        0        0        0
S        4.10209309      71.73928969      16.81102497     183.84000005       0.00000000       0.00000000       0.00000000     4228        2        0        0        0
S        6.85921265      70.12486825      19.93507638     183.84000005       0.00000000       0.00000000       0.00000000     4229        2        0        0        0
S        6.80004894      70.12882373      16.77565112     183.84000005       0.00000000       0.00000000       0.00000000     4230        2        0        0        0
S        9.58349975      68.50562756      19.87353264     183.84000005       0.00000000       0.00000000       0.00000000     4231        2        0        0        0
S        9.49911161      68.51202580      16.71496207     183.84000005       0.00000000       0.00000000       0.00000000     4232        2        0        0        0
S       12.30374527      66.88509293      19.79489259     183.84000005       0.00000000       0.00000000       0.00000000     4233        2        0        0        0
S       12.20077840      66.88609440      16.63719772     183.84000005       0.00000000       0.00000000       0.00000000     4234        2        0        0        0
S       15.01922046      65.26122377      19.70965039     183.84000005       0.00000000       0.00000000       0.00000000     4235        2        0        0        0
S       14.90510608      65.24873150      16.55268270     183.84000005       0.00000000       0.00000000       0.00000000     4236        2        0        0        0
S       17.72989457      63.63102573      19.62733752     183.84000005       0.00000000       0.00000000       0.00000000     4237        2        0        0        0
S       17.61070912      63.59889733      16.47094604     183.84000005       0.00000000       0.00000000       0.00000000     4238        2        0        0        0
S       20.43652534      61.99185876      19.55398167     183.84000005       0.00000000       0.00000000       0.00000000     4239        2        0        0        0
S       20.31589874      61.93743117      16.39810451     183.84000005       0.00000000       0.00000000       0.00000000     4240        2        0        0        0
S       23.14040314      60.34285508      19.49156635     183.84000005       0.00000000       0.00000000       0.00000000     4241        2        0        0        0
S       23.02025779      60.26713772      16.33617653     183.84000005       0.00000000       0.00000000       0.00000000     4242        2        0        0        0
S       25.84276222      58.68554114      19.43982136     183.84000005       0.00000000       0.00000000       0.00000000     4243        2        0        0        0
S       25.72549048      58.59213176      16.28475495     183.84000005       0.00000000       0.00000000       0.00000000     4244        2        0        0        0
S       28.54445150      57.02322425      19.39922634     183.84000005       0.00000000       0.00000000       0.00000000     4245        2        0        0        0
S       28.43493839      56.91651210      16.24418613     183.84000005       0.00000000       0.00000000       0.00000000     4246        2        0        0        0
S       31.24641554      55.35951581      19.37297487     183.84000005       0.00000000       0.00000000       0.00000000     4247        2        0        0        0
S       31.15205170      55.24337489      16.21772581     183.84000005       0.00000000       0.00000000       0.00000000     4248        2        0        0        0
S        6.94248721      73.32167277      19.93252819     183.84000005       0.00000000       0.00000000       0.00000000     4249        2        0        0        0
S        6.88603684      73.31601585      16.77287780     183.84000005       0.00000000       0.00000000       0.00000000     4250        2        0        0        0
S        9.66860325      71.70104736      19.87448178     183.84000005       0.00000000       0.00000000       0.00000000     4251        2        0        0        0
S        9.58259149      71.70304150      16.71571653     183.84000005       0.00000000       0.00000000       0.00000000     4252        2        0        0        0
S       12.39047403      70.07889919      19.79145456     183.84000005       0.00000000       0.00000000       0.00000000     4253        2        0        0        0
S       12.27998614      70.08243084      16.63376601     183.84000005       0.00000000       0.00000000       0.00000000     4254        2        0        0        0
S       15.10710614      68.45449405      19.69312356     183.84000005       0.00000000       0.00000000       0.00000000     4255        2        0        0        0
S       14.97974727      68.45121331      16.53644179     183.84000005       0.00000000       0.00000000       0.00000000     4256        2        0        0        0
S       17.81808711      66.82563993      19.59083895     183.84000005       0.00000000       0.00000000       0.00000000     4257        2        0        0        0
S       17.68191343      66.80728179      16.43494938     183.84000005       0.00000000       0.00000000       0.00000000     4258        2        0        0        0
S       20.52382014      65.18951555      19.49440191     183.84000005       0.00000000       0.00000000       0.00000000     4259        2        0        0        0
S       20.38537020      65.15025980      16.33911575     183.84000005       0.00000000       0.00000000       0.00000000     4260        2        0        0        0
S       23.22547845      63.54416864      19.40992032     183.84000005       0.00000000       0.00000000       0.00000000     4261        2        0        0        0
S       23.08918035      63.48200584      16.25512895     183.84000005       0.00000000       0.00000000       0.00000000     4262        2        0        0        0
S       25.92462214      61.88973947      19.33992669     183.84000005       0.00000000       0.00000000       0.00000000     4263        2        0        0        0
S       25.79391771      61.80633720      16.18548591     183.84000005       0.00000000       0.00000000       0.00000000     4264        2        0        0        0
S       28.62261111      60.22860478      19.28560566     183.84000005       0.00000000       0.00000000       0.00000000     4265        2        0        0        0
S       28.50194732      60.12774459      16.13120943     183.84000005       0.00000000       0.00000000       0.00000000     4266        2        0        0        0
S       31.32061212      58.56424748      19.24940799     183.84000005       0.00000000       0.00000000       0.00000000     4267        2        0        0        0
S       31.21642268      58.44985007      16.09477255     183.84000005       0.00000000       0.00000000       0.00000000     4268        2        0        0        0
S       12.47792562      73.27342398      19.78909030     183.84000005       0.00000000       0.00000000       0.00000000     4269        2        0        0        0
S       12.36618217      73.27466404      16.63127071     183.84000005       0.00000000       0.00000000       0.00000000     4270        2        0        0        0
S       15.19730203      71.64729019      19.68519846     183.84000005       0.00000000       0.00000000       0.00000000     4271        2        0        0        0
S       15.06292223      71.64929970      16.52862307     183.84000005       0.00000000       0.00000000       0.00000000     4272        2        0        0        0
S       17.91025385      70.01783754      19.56861793     183.84000005       0.00000000       0.00000000       0.00000000     4273        2        0        0        0
S       17.76191750      70.01196110      16.41309956     183.84000005       0.00000000       0.00000000       0.00000000     4274        2        0        0        0
S       20.61675979      68.38288002      19.45150460     183.84000005       0.00000000       0.00000000       0.00000000     4275        2        0        0        0
S       20.46332284      68.36092168      16.29673540     183.84000005       0.00000000       0.00000000       0.00000000     4276        2        0        0        0
S       23.31772430      66.74004207      19.34404251     183.84000005       0.00000000       0.00000000       0.00000000     4277        2        0        0        0
S       23.16648504      66.69662528      16.18976188     183.84000005       0.00000000       0.00000000       0.00000000     4278        2        0        0        0
S       26.01483288      65.08824423      19.25270206     183.84000005       0.00000000       0.00000000       0.00000000     4279        2        0        0        0
S       25.87122538      65.02196339      16.09872991     183.84000005       0.00000000       0.00000000       0.00000000     4280        2        0        0        0
S       28.70998783      63.42859860      19.18080331     183.84000005       0.00000000       0.00000000       0.00000000     4281        2        0        0        0
S       28.57876731      63.34146155      16.02688361     183.84000005       0.00000000       0.00000000       0.00000000     4282        2        0        0        0
S       31.40478289      61.76398734      19.13082570     183.84000005       0.00000000       0.00000000       0.00000000     4283        2        0        0        0
S       31.29149047      61.65939131      15.97665601     183.84000005       0.00000000       0.00000000       0.00000000     4284        2        0        0        0
S       34.10078505      60.09767290      19.10626115     183.84000005       0.00000000       0.00000000       0.00000000     4285        2        0        0        0
S       34.01173451      59.97865397      15.95172564     183.84000005       0.00000000       0.00000000       0.00000000     4286        2        0        0        0
S       18.00343483      73.20886780      19.55868963     183.84000005       0.00000000       0.00000000       0.00000000     4287        2        0        0        0
S       17.84975266      73.21185410      16.40330108     183.84000005       0.00000000       0.00000000       0.00000000     4288        2        0        0        0
S       20.71268531      71.57328184      19.42677028     183.84000005       0.00000000       0.00000000       0.00000000     4289        2        0        0        0
S       20.54949054      71.56771946      16.27235106     183.84000005       0.00000000       0.00000000       0.00000000     4290        2        0        0        0
S       23.41492504      69.93134489      19.29874760     183.84000005       0.00000000       0.00000000       0.00000000     4291        2        0        0        0
S       23.25193030      69.90925404      16.14488082     183.84000005       0.00000000       0.00000000       0.00000000     4292        2        0        0        0
S       26.11170359      68.28135226      19.18518962     183.84000005       0.00000000       0.00000000       0.00000000     4293        2        0        0        0
S       25.95686880      68.23779592      16.03156754     183.84000005       0.00000000       0.00000000       0.00000000     4294        2        0        0        0
S       28.80528730      66.62318409      19.09285215     183.84000005       0.00000000       0.00000000       0.00000000     4295        2        0        0        0
S       28.66463157      66.55715709      15.93925618     183.84000005       0.00000000       0.00000000       0.00000000     4296        2        0        0        0
S       31.49784872      64.95871830      19.02558142     183.84000005       0.00000000       0.00000000       0.00000000     4297        2        0        0        0
S       31.37661601      64.87207041      15.87175476     183.84000005       0.00000000       0.00000000       0.00000000     4298        2        0        0        0
S       34.19116122      63.29094443      18.98648677     183.84000005       0.00000000       0.00000000       0.00000000     4299        2        0        0        0
S       34.09470200      63.18622990      15.83229524     183.84000005       0.00000000       0.00000000       0.00000000     4300        2        0        0        0
S       23.51396919      73.11946366      19.27594672     183.84000005       0.00000000       0.00000000       0.00000000     4301        2        0        0        0
S       23.34461259      73.11808304      16.12231834     183.84000005       0.00000000       0.00000000       0.00000000     4302        2        0        0        0
S       26.21259121      71.47002111      19.14253061     183.84000005       0.00000000       0.00000000       0.00000000     4303        2        0        0        0
S       26.04991602      71.45206972      15.98915814     183.84000005       0.00000000       0.00000000       0.00000000     4304        2        0        0        0
S       28.90637256      69.81284918      19.02896366     183.84000005       0.00000000       0.00000000       0.00000000     4305        2        0        0        0
S       28.75835444      69.77372989      15.87557886     183.84000005       0.00000000       0.00000000       0.00000000     4306        2        0        0        0
S       31.59798072      68.14872707      18.94184847     183.84000005       0.00000000       0.00000000       0.00000000     4307        2        0        0        0
S       31.47046510      68.08751792      15.78826090     183.84000005       0.00000000       0.00000000       0.00000000     4308        2        0        0        0
S       34.28961339      66.47996954      18.88508713     183.84000005       0.00000000       0.00000000       0.00000000     4309        2        0        0        0
S       34.18747372      66.39793626      15.73117096     183.84000005       0.00000000       0.00000000       0.00000000     4310        2        0        0        0
S       36.98304161      64.80935666      18.86173755     183.84000005       0.00000000       0.00000000       0.00000000     4311        2        0        0        0
S       36.91058138      64.70817118      15.70755378     183.84000005       0.00000000       0.00000000       0.00000000     4312        2        0        0        0
S       29.01019847      72.99864280      18.99430448     183.84000005       0.00000000       0.00000000       0.00000000     4313        2        0        0        0
S       28.85828283      72.98935770      15.84103104     183.84000005       0.00000000       0.00000000       0.00000000     4314        2        0        0        0
S       31.70258638      71.33468566      18.88676548     183.84000005       0.00000000       0.00000000       0.00000000     4315        2        0        0        0
S       31.57120151      71.30462767      15.73331870     183.84000005       0.00000000       0.00000000       0.00000000     4316        2        0        0        0
S       34.39381341      69.66528729      18.81022720     183.84000005       0.00000000       0.00000000       0.00000000     4317        2        0        0        0
S       34.28810963      69.61331819      15.65648951     183.84000005       0.00000000       0.00000000       0.00000000     4318        2        0        0        0
S       37.08586993      67.99284037      18.76839659     183.84000005       0.00000000       0.00000000       0.00000000     4319        2        0        0        0
S       37.00996477      67.91951725      15.61438870     183.84000005       0.00000000       0.00000000       0.00000000     4320        2        0        0        0
S       34.50083276      72.84767926      18.76865359     183.84000005       0.00000000       0.00000000       0.00000000     4321        2        0        0        0
S       34.39416463      72.83099172      15.61498605     183.84000005       0.00000000       0.00000000       0.00000000     4322        2        0        0        0
S       37.19281796      71.17380831      18.70676602     183.84000005       0.00000000       0.00000000       0.00000000     4323        2        0        0        0
S       37.11578169      71.13518902      15.55280652     183.84000005       0.00000000       0.00000000       0.00000000     4324        2        0        0        0
S       39.99416647      72.67559415      18.63853032     183.84000005       0.00000000       0.00000000       0.00000000     4325        2        0        0        0
S       39.95102152      72.65368571      15.48432575     183.84000005       0.00000000       0.00000000       0.00000000     4326        2        0        0        0
