2814
Lattice="69.05370500844003 0.0 0.0 34.52685250422002 59.802262762745784 0.0 0.0 0.0 30.0" Properties=species:S:1:pos:R:3:masses:R:1:momenta:R:3:id:I:1:type:I:1:travel:I:3 comment="LAMMPS data file via write_data, version 28 Mar 2023, timestep = 134, units = metal" pbc="T T T"
Mo      69.91959330       1.62059989      12.35657990      95.95000002       0.00000000       0.00000000       0.00000000        1        1       -1        0       -1
Mo       3.68123674       0.12728327      12.36185431      95.95000002       0.00000000       0.00000000       0.00000000        2        1        0        0       -1
Mo      69.80701742       4.80629997      12.36803574      95.95000002       0.00000000       0.00000000       0.00000000        3        1       -1        0       -1
Mo       3.56746023       3.31461080      12.36699131      95.95000002       0.00000000       0.00000000       0.00000000        4        1        0        0       -1
Mo       6.38085227       1.81964928      12.37829874      95.95000002       0.00000000       0.00000000       0.00000000        5        1        0        0       -1
Mo       9.19274088       0.31941230      12.40115524      95.95000002       0.00000000       0.00000000       0.00000000        6        1        0        0       -1
Mo      72.51164525       6.50080737      12.38445140      95.95000002       0.00000000       0.00000000       0.00000000        7        1       -1        0       -1
Mo       6.27033072       5.00730693      12.38943844      95.95000002       0.00000000       0.00000000       0.00000000        8        1        0        0       -1
Mo       9.08202774       3.50889407      12.40613269      95.95000002       0.00000000       0.00000000       0.00000000        9        1        0        0       -1
Mo      11.89252471       2.00346288      12.43252153      95.95000002       0.00000000       0.00000000       0.00000000       10        1        0        0       -1
Mo      14.70163843       0.48907990      12.46487489      95.95000002       0.00000000       0.00000000       0.00000000       11        1        0        0       -1
Mo       6.16531291       8.19289800      12.41214054      95.95000002       0.00000000       0.00000000       0.00000000       12        1        0        0       -1
Mo       8.97621826       6.69580499      12.42275452      95.95000002       0.00000000       0.00000000       0.00000000       13        1        0        0       -1
Mo      11.78643488       5.19199991      12.44347281      95.95000002       0.00000000       0.00000000       0.00000000       14        1        0        0       -1
Mo      14.59570472       3.67929077      12.47071482      95.95000002       0.00000000       0.00000000       0.00000000       15        1        0        0       -1
Mo      17.40411622       2.15600195      12.49982822      95.95000002       0.00000000       0.00000000       0.00000000       16        1        0        0       -1
Mo      20.21189194       0.62144217      12.52672139      95.95000002       0.00000000       0.00000000       0.00000000       17        1        0        0        0
Mo      75.12123366      11.37607079      12.44419102      95.95000002       0.00000000       0.00000000       0.00000000       18        1       -1        0       -1
Mo       8.87733244       9.87968213      12.44898729      95.95000002       0.00000000       0.00000000       0.00000000       19        1        0        0       -1
Mo      11.68690709       8.37724464      12.46424159      95.95000002       0.00000000       0.00000000       0.00000000       20        1        0        0       -1
Mo      14.49571959       6.86621011      12.48673732      95.95000002       0.00000000       0.00000000       0.00000000       21        1        0        0       -1
Mo      17.30376563       5.34461623      12.51171394      95.95000002       0.00000000       0.00000000       0.00000000       22        1        0        0        0
Mo      20.11133285       3.81151657      12.53470330      95.95000002       0.00000000       0.00000000       0.00000000       23        1        0        0        0
Mo      22.91877289       2.26723855      12.55310243      95.95000002       0.00000000       0.00000000       0.00000000       24        1        0        0        0
Mo      25.72636670       0.71326815      12.56663408      95.95000002       0.00000000       0.00000000       0.00000000       25        1        0        0        0
Mo       8.78699266      13.06006724      12.48110901      95.95000002       0.00000000       0.00000000       0.00000000       26        1        0        0       -1
Mo      11.59583598      11.55863967      12.49110095      95.95000002       0.00000000       0.00000000       0.00000000       27        1        0        0       -1
Mo      14.40404597      10.04930807      12.50918713      95.95000002       0.00000000       0.00000000       0.00000000       28        1        0        0        0
Mo      17.21132679       8.52970207      12.53073885      95.95000002       0.00000000       0.00000000       0.00000000       29        1        0        0        0
Mo      20.01786470       6.99850545      12.55083406      95.95000002       0.00000000       0.00000000       0.00000000       30        1        0        0        0
Mo      22.82408563       5.45574560      12.56619780      95.95000002       0.00000000       0.00000000       0.00000000       31        1        0        0        0
Mo      25.63048113       3.90273125      12.57606938      95.95000002       0.00000000       0.00000000       0.00000000       32        1        0        0        0
Mo      28.43749465       2.34168881      12.58175493      95.95000002       0.00000000       0.00000000       0.00000000       33        1        0        0        0
Mo      31.24548396       0.77531017      12.58535757      95.95000002       0.00000000       0.00000000       0.00000000       34        1        0        0        0
Mo      77.76001830      16.23681784      12.51443768      95.95000002       0.00000000       0.00000000       0.00000000       35        1       -1        0        0
Mo      11.51441242      14.73581643      12.51942460      95.95000002       0.00000000       0.00000000       0.00000000       36        1        0        0        0
Mo      14.32213645      13.22809092      12.53320343      95.95000002       0.00000000       0.00000000       0.00000000       37        1        0        0        0
Mo      17.12871440      11.71075927      12.55178784      95.95000002       0.00000000       0.00000000       0.00000000       38        1        0        0        0
Mo      19.93404231      10.18200595      12.57003959      95.95000002       0.00000000       0.00000000       0.00000000       39        1        0        0        0
Mo      22.73845714       8.64142944      12.58393046      95.95000002       0.00000000       0.00000000       0.00000000       40        1        0        0        0
Mo      25.54254910       7.09005396      12.59189286      95.95000002       0.00000000       0.00000000       0.00000000       41        1        0        0        0
Mo      28.34699910       5.52998196      12.59474812      95.95000002       0.00000000       0.00000000       0.00000000       42        1        0        0        0
Mo      31.15245702       3.96388375      12.59455726      95.95000002       0.00000000       0.00000000       0.00000000       43        1        0        0        0
Mo      33.95947784       2.39459896      12.59324537      95.95000002       0.00000000       0.00000000       0.00000000       44        1        0        0        0
Mo      36.76848496       0.82496506      12.59166255      95.95000002       0.00000000       0.00000000       0.00000000       45        1        0        0        0
Mo      11.44290155      17.90880528      12.54516047      95.95000002       0.00000000       0.00000000       0.00000000       46        1        0        0        0
Mo      14.25034207      16.40234194      12.55453533      95.95000002       0.00000000       0.00000000       0.00000000       47        1        0        0        0
Mo      17.05654720      14.88741288      12.57015508      95.95000002       0.00000000       0.00000000       0.00000000       48        1        0        0        0
Mo      19.86095940      13.36160314      12.58711644      95.95000002       0.00000000       0.00000000       0.00000000       49        1        0        0        0
Mo      22.66364913      11.82394726      12.60081866      95.95000002       0.00000000       0.00000000       0.00000000       50        1        0        0        0
Mo      25.46514156      10.27503755      12.60877296      95.95000002       0.00000000       0.00000000       0.00000000       51        1        0        0        0
Mo      28.26624118       8.71673906      12.61100699      95.95000002       0.00000000       0.00000000       0.00000000       52        1        0        0        0
Mo      31.06784826       7.15164868      12.60917070      95.95000002       0.00000000       0.00000000       0.00000000       53        1        0        0        0
Mo      33.87082733       5.58261329      12.60516223      95.95000002       0.00000000       0.00000000       0.00000000       54        1        0        0        0
Mo      36.67592383       4.01250492      12.60006079      95.95000002       0.00000000       0.00000000       0.00000000       55        1        0        0        0
Mo      39.48369173       2.44418613      12.59367587      95.95000002       0.00000000       0.00000000       0.00000000       56        1        0        0        0
Mo      42.29442402       0.88051221      12.58471786      95.95000002       0.00000000       0.00000000       0.00000000       57        1        0        0        0
Mo      80.43426428      21.07805320      12.56594247      95.95000002       0.00000000       0.00000000       0.00000000       58        1       -1        0        0
Mo      14.18788992      19.57222389      12.57078524      95.95000002       0.00000000       0.00000000       0.00000000       59        1        0        0        0
Mo      16.99414696      18.05957175      12.58308831      95.95000002       0.00000000       0.00000000       0.00000000       60        1        0        0        0
Mo      19.79821514      16.53703405      12.59870276      95.95000002       0.00000000       0.00000000       0.00000000       61        1        0        0        0
Mo      22.59974885      15.00297526      12.61279477      95.95000002       0.00000000       0.00000000       0.00000000       62        1        0        0        0
Mo      25.39903747      13.45740945      12.62203592      95.95000002       0.00000000       0.00000000       0.00000000       63        1        0        0        0
Mo      28.19684349      11.90181296      12.62552849      95.95000002       0.00000000       0.00000000       0.00000000       64        1        0        0        0
Mo      30.99419767      10.33860486      12.62428311      95.95000002       0.00000000       0.00000000       0.00000000       65        1        0        0        0
Mo      33.79221029       8.77059492      12.61992769      95.95000002       0.00000000       0.00000000       0.00000000       66        1        0        0        0
Mo      36.59193990       7.20067562      12.61353236      95.95000002       0.00000000       0.00000000       0.00000000       67        1        0        0        0
Mo      39.39429511       5.63175969      12.60499982      95.95000002       0.00000000       0.00000000       0.00000000       68        1        0        0        0
Mo      42.19993276       4.06679421      12.59311296      95.95000002       0.00000000       0.00000000       0.00000000       69        1        0        0        0
Mo      45.00916265       2.50867750      12.57620959      95.95000002       0.00000000       0.00000000       0.00000000       70        1        0        0        0
Mo      47.82192824       0.95998090      12.55325854      95.95000002       0.00000000       0.00000000       0.00000000       71        1        0        0        0
Mo      14.13310913      22.73828834      12.58159421      95.95000002       0.00000000       0.00000000       0.00000000       72        1        0        0        0
Mo      16.93980276      21.22750244      12.59013751      95.95000002       0.00000000       0.00000000       0.00000000       73        1        0        0        0
Mo      19.74418351      19.70831111      12.60393832      95.95000002       0.00000000       0.00000000       0.00000000       74        1        0        0        0
Mo      22.54539323      18.17834925      12.61833124      95.95000002       0.00000000       0.00000000       0.00000000       75        1        0        0        0
Mo      25.34334207      16.63693140      12.62933580      95.95000002       0.00000000       0.00000000       0.00000000       76        1        0        0        0
Mo      28.13858409      15.08499248      12.63511751      95.95000002       0.00000000       0.00000000       0.00000000       77        1        0        0        0
Mo      30.93212221      13.52464114      12.63594631      95.95000002       0.00000000       0.00000000       0.00000000       78        1        0        0        0
Mo      33.72518482      11.95857098      12.63308474      95.95000002       0.00000000       0.00000000       0.00000000       79        1        0        0        0
Mo      36.51905371      10.38965402      12.62751999      95.95000002       0.00000000       0.00000000       0.00000000       80        1        0        0        0
Mo      39.31494557       8.82081863      12.61916309      95.95000002       0.00000000       0.00000000       0.00000000       81        1        0        0        0
Mo      42.11390374       7.25507076      12.60671512      95.95000002       0.00000000       0.00000000       0.00000000       82        1        0        0        0
Mo      44.91666911       5.69544788      12.58825802      95.95000002       0.00000000       0.00000000       0.00000000       83        1        0        0        0
Mo      47.72357058       4.14476030      12.56244703      95.95000002       0.00000000       0.00000000       0.00000000       84        1        0        0        0
Mo      50.53453254       2.60511693      12.52973409      95.95000002       0.00000000       0.00000000       0.00000000       85        1        0        0        0
Mo      53.34920404       1.07743236      12.49279241      95.95000002       0.00000000       0.00000000       0.00000000       86        1        0        0       -1
Mo      83.13749272      25.90140134      12.58797738      95.95000002       0.00000000       0.00000000       0.00000000       87        1       -1        0        0
Mo      16.89120171      24.39180564      12.59243876      95.95000002       0.00000000       0.00000000       0.00000000       88        1        0        0        0
Mo      19.69649113      22.87574749      12.60382468      95.95000002       0.00000000       0.00000000       0.00000000       89        1        0        0        0
Mo      22.49825924      21.35013275      12.61804326      95.95000002       0.00000000       0.00000000       0.00000000       90        1        0        0        0
Mo      25.29594352      19.81349544      12.63069232      95.95000002       0.00000000       0.00000000       0.00000000       91        1        0        0        0
Mo      28.08975223      18.26609382      12.63902560      95.95000002       0.00000000       0.00000000       0.00000000       92        1        0        0        0
Mo      30.88050777      16.70958455      12.64249757      95.95000002       0.00000000       0.00000000       0.00000000       93        1        0        0        0
Mo      33.66941361      15.14644587      12.64196703      95.95000002       0.00000000       0.00000000       0.00000000       94        1        0        0        0
Mo      36.45784285      13.57947587      12.63838980      95.95000002       0.00000000       0.00000000       0.00000000       95        1        0        0        0
Mo      39.24720202      12.01157356      12.63179589      95.95000002       0.00000000       0.00000000       0.00000000       96        1        0        0        0
Mo      42.03883459      10.44573797      12.62090511      95.95000002       0.00000000       0.00000000       0.00000000       97        1        0        0        0
Mo      44.83390516       8.88507123      12.60351575      95.95000002       0.00000000       0.00000000       0.00000000       98        1        0        0        0
Mo      47.63324313       7.33258111      12.57767998      95.95000002       0.00000000       0.00000000       0.00000000       99        1        0        0        0
Mo      50.43723657       5.79072111      12.54322400      95.95000002       0.00000000       0.00000000       0.00000000      100        1        0        0        0
Mo      53.24586815       4.26082713      12.50263475      95.95000002       0.00000000       0.00000000       0.00000000      101        1        0        0        0
Mo      56.05880870       2.74274540      12.46058943      95.95000002       0.00000000       0.00000000       0.00000000      102        1        0        0       -1
Mo      58.87538107       1.23485308      12.42240439      95.95000002       0.00000000       0.00000000       0.00000000      103        1        0        0       -1
Mo      16.84581021      27.55332507      12.59168895      95.95000002       0.00000000       0.00000000       0.00000000      104        1        0        0        0
Mo      19.65248049      26.03990694      12.60005626      95.95000002       0.00000000       0.00000000       0.00000000      105        1        0        0        0
Mo      22.45560113      24.51860724      12.61345705      95.95000002       0.00000000       0.00000000       0.00000000      106        1        0        0        0
Mo      25.25409843      22.98715196      12.62735344      95.95000002       0.00000000       0.00000000       0.00000000      107        1        0        0        0
Mo      28.04774132      21.44501866      12.63811799      95.95000002       0.00000000       0.00000000       0.00000000      108        1        0        0        0
Mo      30.83704530      19.89327281      12.64425909      95.95000002       0.00000000       0.00000000       0.00000000      109        1        0        0        0
Mo      33.62306161      18.33406023      12.64611985      95.95000002       0.00000000       0.00000000       0.00000000      110        1        0        0        0
Mo      36.40713595      16.77004211      12.64465388      95.95000002       0.00000000       0.00000000       0.00000000      111        1        0        0        0
Mo      39.19073540      15.20405200      12.64019586      95.95000002       0.00000000       0.00000000       0.00000000      112        1        0        0        0
Mo      41.97535819      13.63902312      12.63178105      95.95000002       0.00000000       0.00000000       0.00000000      113        1        0        0        0
Mo      44.76246474      12.07801778      12.61722590      95.95000002       0.00000000       0.00000000       0.00000000      114        1        0        0        0
Mo      47.55335024      10.52412116      12.59407877      95.95000002       0.00000000       0.00000000       0.00000000      115        1        0        0        0
Mo      50.34896658       8.98006203      12.56122535      95.95000002       0.00000000       0.00000000       0.00000000      116        1        0        0        0
Mo      53.14982365       7.44764077      12.52025645      95.95000002       0.00000000       0.00000000       0.00000000      117        1        0        0        0
Mo      55.95600842       5.92723634      12.47553961      95.95000002       0.00000000       0.00000000       0.00000000      118        1        0        0       -1
Mo      58.76712110       4.41766667      12.43282867      95.95000002       0.00000000       0.00000000       0.00000000      119        1        0        0       -1
Mo      61.58214404       2.91654725      12.39725451      95.95000002       0.00000000       0.00000000       0.00000000      120        1        0        0       -1
Mo      64.39958125       1.42093956      12.37203408      95.95000002       0.00000000       0.00000000       0.00000000      121        1        0        0       -1
Mo      85.85478580      30.71305316      12.58943238      95.95000002       0.00000000       0.00000000       0.00000000      122        1       -1        0        0
Mo      19.60947188      29.20153860      12.59415370      95.95000002       0.00000000       0.00000000       0.00000000      123        1        0        0        0
Mo      22.41459556      27.68423658      12.60593590      95.95000002       0.00000000       0.00000000       0.00000000      124        1        0        0        0
Mo      25.21487407      26.15810234      12.62051575      95.95000002       0.00000000       0.00000000       0.00000000      125        1        0        0        0
Mo      28.00958340      24.62177452      12.63349580      95.95000002       0.00000000       0.00000000       0.00000000      126        1        0        0        0
Mo      30.79883312      23.07559988      12.64225816      95.95000002       0.00000000       0.00000000       0.00000000      127        1        0        0        0
Mo      33.58341608      21.52125827      12.64637012      95.95000002       0.00000000       0.00000000       0.00000000      128        1        0        0        0
Mo      36.36455834      19.96119066      12.64665532      95.95000002       0.00000000       0.00000000       0.00000000      129        1        0        0        0
Mo      39.14369811      18.39813274      12.64384057      95.95000002       0.00000000       0.00000000       0.00000000      130        1        0        0        0
Mo      41.92236944      16.83492112      12.63757457      95.95000002       0.00000000       0.00000000       0.00000000      131        1        0        0        0
Mo      44.70216262      15.27449624      12.62616108      95.95000002       0.00000000       0.00000000       0.00000000      132        1        0        0        0
Mo      47.48467217      13.71987810      12.60712977      95.95000002       0.00000000       0.00000000       0.00000000      133        1        0        0        0
Mo      50.27134930      12.17391353      12.57861240      95.95000002       0.00000000       0.00000000       0.00000000      134        1        0        0        0
Mo      53.06330763      10.63878191      12.54093842      95.95000002       0.00000000       0.00000000       0.00000000      135        1        0        0        0
Mo      55.86121090       9.11545870      12.49733106      95.95000002       0.00000000       0.00000000       0.00000000      136        1        0        0       -1
Mo      58.66517185       7.60339897      12.45307141      95.95000002       0.00000000       0.00000000       0.00000000      137        1        0        0       -1
Mo      61.47453165       6.10068583      12.41365878      95.95000002       0.00000000       0.00000000       0.00000000      138        1        0        0       -1
Mo      64.28787063       4.60460313      12.38316442      95.95000002       0.00000000       0.00000000       0.00000000      139        1        0        0       -1
Mo      67.10344401       3.11219672      12.36380670      95.95000002       0.00000000       0.00000000       0.00000000      140        1        0        0       -1
Mo      19.56484044      32.36154185      12.58712952      95.95000002       0.00000000       0.00000000       0.00000000      141        1        0        0        0
Mo      22.37245232      30.84764883      12.59624113      95.95000002       0.00000000       0.00000000       0.00000000      142        1        0        0        0
Mo      25.17532487      29.32669397      12.61064472      95.95000002       0.00000000       0.00000000       0.00000000      143        1        0        0        0
Mo      27.97222086      27.79647793      12.62550348      95.95000002       0.00000000       0.00000000       0.00000000      144        1        0        0        0
Mo      30.76276922      26.25653264      12.63697126      95.95000002       0.00000000       0.00000000       0.00000000      145        1        0        0        0
Mo      33.54740124      24.70792783      12.64346484      95.95000002       0.00000000       0.00000000       0.00000000      146        1        0        0        0
Mo      36.32714005      23.15276467      12.64533181      95.95000002       0.00000000       0.00000000       0.00000000      147        1        0        0        0
Mo      39.10334311      21.59362957      12.64356639      95.95000002       0.00000000       0.00000000       0.00000000      148        1        0        0        0
Mo      41.87752491      20.03325392      12.63856055      95.95000002       0.00000000       0.00000000       0.00000000      149        1        0        0        0
Mo      44.65129839      18.47442362      12.62948437      95.95000002       0.00000000       0.00000000       0.00000000      150        1        0        0        0
Mo      47.42637455      16.91998514      12.61445026      95.95000002       0.00000000       0.00000000       0.00000000      151        1        0        0        0
Mo      50.20450890      15.37272772      12.59144716      95.95000002       0.00000000       0.00000000       0.00000000      152        1        0        0        0
Mo      52.98732702      13.83503362      12.55976534      95.95000002       0.00000000       0.00000000       0.00000000      153        1        0        0        0
Mo      55.77610680      12.30838288      12.52108941      95.95000002       0.00000000       0.00000000       0.00000000      154        1        0        0        0
Mo      58.57159545      10.79295323      12.47934948      95.95000002       0.00000000       0.00000000       0.00000000      155        1        0        0       -1
Mo      61.37375740       9.28754197      12.43941705      95.95000002       0.00000000       0.00000000       0.00000000      156        1        0        0       -1
Mo      64.18157088       7.78987666      12.40567314      95.95000002       0.00000000       0.00000000       0.00000000      157        1        0        0       -1
Mo      66.99328559       6.29712180      12.38125052      95.95000002       0.00000000       0.00000000       0.00000000      158        1        0        0       -1
Mo      88.56973818      35.52095812      12.57944099      95.95000002       0.00000000       0.00000000       0.00000000      159        1       -1        0        0
Mo      22.32642675      34.00964880      12.58459761      95.95000002       0.00000000       0.00000000       0.00000000      160        1        0        0        0
Mo      25.13250795      32.49343717      12.59748298      95.95000002       0.00000000       0.00000000       0.00000000      161        1        0        0        0
Mo      27.93255348      30.96936521      12.61348227      95.95000002       0.00000000       0.00000000       0.00000000      162        1        0        0        0
Mo      30.72566464      29.43611104      12.62770358      95.95000002       0.00000000       0.00000000       0.00000000      163        1        0        0        0
Mo      33.51180707      27.89399813      12.63708876      95.95000002       0.00000000       0.00000000       0.00000000      164        1        0        0        0
Mo      36.29169853      26.34463289      12.64098262      95.95000002       0.00000000       0.00000000       0.00000000      165        1        0        0        0
Mo      39.06655846      24.79035508      12.64025669      95.95000002       0.00000000       0.00000000       0.00000000      166        1        0        0        0
Mo      41.83786380      23.23376771      12.63592806      95.95000002       0.00000000       0.00000000       0.00000000      167        1        0        0        0
Mo      44.60722457      21.67750869      12.62817804      95.95000002       0.00000000       0.00000000       0.00000000      168        1        0        0        0
Mo      47.37637236      20.12421480      12.61612114      95.95000002       0.00000000       0.00000000       0.00000000      169        1        0        0        0
Mo      50.14717283      18.57649026      12.59828005      95.95000002       0.00000000       0.00000000       0.00000000      170        1        0        0        0
Mo      52.92155100      17.03672019      12.57357607      95.95000002       0.00000000       0.00000000       0.00000000      171        1        0        0        0
Mo      55.70128657      15.50670396      12.54238787      95.95000002       0.00000000       0.00000000       0.00000000      172        1        0        0        0
Mo      58.48774254      13.98725125      12.50693212      95.95000002       0.00000000       0.00000000       0.00000000      173        1        0        0        0
Mo      61.28159063      12.47797633      12.47061871      95.95000002       0.00000000       0.00000000       0.00000000      174        1        0        0       -1
Mo      64.08252319      10.97735615      12.43709730      95.95000002       0.00000000       0.00000000       0.00000000      175        1        0        0       -1
Mo      66.88916552       9.48294109      12.40977713      95.95000002       0.00000000       0.00000000       0.00000000      176        1        0        0       -1
Mo      69.69952277       7.99176687      12.39154730      95.95000002       0.00000000       0.00000000       0.00000000      177        1        0        0       -1
Mo      22.27388498      37.17122701      12.57094619      95.95000002       0.00000000       0.00000000       0.00000000      178        1        0        0        0
Mo      25.08352872      35.65903783      12.58050194      95.95000002       0.00000000       0.00000000       0.00000000      179        1        0        0        0
Mo      27.88745344      34.14082281      12.59619904      95.95000002       0.00000000       0.00000000       0.00000000      180        1        0        0        0
Mo      30.68423933      32.61445143      12.61274537      95.95000002       0.00000000       0.00000000       0.00000000      181        1        0        0        0
Mo      33.47330888      31.07941450      12.62560596      95.95000002       0.00000000       0.00000000       0.00000000      182        1        0        0        0
Mo      36.25494224      29.53665506      12.63259581      95.95000002       0.00000000       0.00000000       0.00000000      183        1        0        0        0
Mo      39.03011694      27.98810912      12.63382708      95.95000002       0.00000000       0.00000000       0.00000000      184        1        0        0        0
Mo      41.80023785      26.43617869      12.63052464      95.95000002       0.00000000       0.00000000       0.00000000      185        1        0        0        0
Mo      44.56692012      24.88335786      12.62375031      95.95000002       0.00000000       0.00000000       0.00000000      186        1        0        0        0
Mo      47.33190773      23.33209259      12.61374946      95.95000002       0.00000000       0.00000000       0.00000000      187        1        0        0        0
Mo      50.09708608      21.78476097      12.60000464      95.95000002       0.00000000       0.00000000       0.00000000      188        1        0        0        0
Mo      52.86448472      20.24360808      12.58177142      95.95000002       0.00000000       0.00000000       0.00000000      189        1        0        0        0
Mo      55.63616718      18.71054091      12.55880337      95.95000002       0.00000000       0.00000000       0.00000000      190        1        0        0        0
Mo      58.41397769      17.18681145      12.53185930      95.95000002       0.00000000       0.00000000       0.00000000      191        1        0        0        0
Mo      61.19922279      15.67276299      12.50262616      95.95000002       0.00000000       0.00000000       0.00000000      192        1        0        0        0
Mo      63.99237025      14.16774851      12.47329321      95.95000002       0.00000000       0.00000000       0.00000000      193        1        0        0       -1
Mo      66.79278989      12.67007681      12.44648723      95.95000002       0.00000000       0.00000000       0.00000000      194        1        0        0       -1
Mo      69.59878717      11.17711161      12.42539070      95.95000002       0.00000000       0.00000000       0.00000000      195        1        0        0       -1
Mo      72.40818273       9.68574321      12.41319656      95.95000002       0.00000000       0.00000000       0.00000000      196        1        0        0       -1
Mo      91.26620564      40.33351119      12.55516876      95.95000002       0.00000000       0.00000000       0.00000000      197        1       -1        0        0
Mo      25.02574477      38.82440131      12.55950224      95.95000002       0.00000000       0.00000000       0.00000000      198        1        0        0        0
Mo      27.83394120      37.31141621      12.57273476      95.95000002       0.00000000       0.00000000       0.00000000      199        1        0        0        0
Mo      30.63523950      35.79176785      12.59025696      95.95000002       0.00000000       0.00000000       0.00000000      200        1        0        0        0
Mo      33.42850759      34.26411963      12.60662960      95.95000002       0.00000000       0.00000000       0.00000000      201        1        0        0        0
Mo      36.21347478      32.72861698      12.61794648      95.95000002       0.00000000       0.00000000       0.00000000      202        1        0        0        0
Mo      38.99071936      31.18660106      12.62286038      95.95000002       0.00000000       0.00000000       0.00000000      203        1        0        0        0
Mo      41.76146580      29.64012797      12.62207980      95.95000002       0.00000000       0.00000000       0.00000000      204        1        0        0        0
Mo      44.52731060      28.09150324      12.61709236      95.95000002       0.00000000       0.00000000       0.00000000      205        1        0        0        0
Mo      47.29003288      26.54300831      12.60910774      95.95000002       0.00000000       0.00000000       0.00000000      206        1        0        0        0
Mo      50.05153880      24.99682058      12.59866814      95.95000002       0.00000000       0.00000000       0.00000000      207        1        0        0        0
Mo      52.81387382      23.45499662      12.58578536      95.95000002       0.00000000       0.00000000       0.00000000      208        1        0        0        0
Mo      55.57919443      21.91939354      12.57029194      95.95000002       0.00000000       0.00000000       0.00000000      209        1        0        0        0
Mo      58.34961608      20.39149139      12.55216336      95.95000002       0.00000000       0.00000000       0.00000000      210        1        0        0        0
Mo      61.12692535      18.87218198      12.53167042      95.95000002       0.00000000       0.00000000       0.00000000      211        1        0        0        0
Mo      63.91225136      17.36160959      12.50942750      95.95000002       0.00000000       0.00000000       0.00000000      212        1        0        0        0
Mo      66.70577103      15.85901535      12.48666367      95.95000002       0.00000000       0.00000000       0.00000000      213        1        0        0       -1
Mo      69.50649055      14.36252745      12.46580479      95.95000002       0.00000000       0.00000000       0.00000000      214        1        0        0       -1
Mo      72.31241424      12.86929792      12.45045538      95.95000002       0.00000000       0.00000000       0.00000000      215        1        0        0       -1
Mo      24.95713312      41.99055918      12.53502882      95.95000002       0.00000000       0.00000000       0.00000000      216        1        0        0        0
Mo      27.76957658      40.48188642      12.54341993      95.95000002       0.00000000       0.00000000       0.00000000      217        1        0        0        0
Mo      30.57580356      38.96839481      12.55959956      95.95000002       0.00000000       0.00000000       0.00000000      218        1        0        0        0
Mo      33.37421340      37.44805697      12.57836856      95.95000002       0.00000000       0.00000000       0.00000000      219        1        0        0        0
Mo      36.16395222      35.92018554      12.59457127      95.95000002       0.00000000       0.00000000       0.00000000      220        1        0        0        0
Mo      38.94504870      34.38535534      12.60503521      95.95000002       0.00000000       0.00000000       0.00000000      221        1        0        0        0
Mo      41.71836493      32.84507469      12.60910990      95.95000002       0.00000000       0.00000000       0.00000000      222        1        0        0        0
Mo      44.48536369      31.30133732      12.60791106      95.95000002       0.00000000       0.00000000       0.00000000      223        1        0        0        0
Mo      47.24783769      29.75624029      12.60311323      95.95000002       0.00000000       0.00000000       0.00000000      224        1        0        0        0
Mo      50.00774097      28.21179829      12.59611535      95.95000002       0.00000000       0.00000000       0.00000000      225        1        0        0        0
Mo      52.76713692      26.66990067      12.58777164      95.95000002       0.00000000       0.00000000       0.00000000      226        1        0        0        0
Mo      55.52819124      25.13229419      12.57842221      95.95000002       0.00000000       0.00000000       0.00000000      227        1        0        0        0
Mo      58.29310994      23.60052742      12.56796199      95.95000002       0.00000000       0.00000000       0.00000000      228        1        0        0        0
Mo      61.06395647      22.07583944      12.55591975      95.95000002       0.00000000       0.00000000       0.00000000      229        1        0        0        0
Mo      63.84235409      20.55900615      12.54170320      95.95000002       0.00000000       0.00000000       0.00000000      230        1        0        0        0
Mo      66.62915282      19.05013471      12.52515893      95.95000002       0.00000000       0.00000000       0.00000000      231        1        0        0        0
Mo      69.42414238      17.54834665      12.50741679      95.95000002       0.00000000       0.00000000       0.00000000      232        1        0        0        0
Mo      72.22592221      16.05153000      12.49147189      95.95000002       0.00000000       0.00000000       0.00000000      233        1        0        0       -1
Mo      75.03222703      14.55658626      12.48153536      95.95000002       0.00000000       0.00000000       0.00000000      234        1        0        0       -1
Mo      93.93035682      45.15850415      12.50834013      95.95000002       0.00000000       0.00000000       0.00000000      235        1       -1        0        0
Mo      27.69292691      43.65309006      12.51016922      95.95000002       0.00000000       0.00000000       0.00000000      236        1        0        0        0
Mo      30.50398561      42.14482129      12.52234859      95.95000002       0.00000000       0.00000000       0.00000000      237        1        0        0        0
Mo      33.30796513      40.63123697      12.54117523      95.95000002       0.00000000       0.00000000       0.00000000      238        1        0        0        0
Mo      36.10350669      39.11094166      12.56139172      95.95000002       0.00000000       0.00000000       0.00000000      239        1        0        0        0
Mo      38.89003392      37.58367711      12.57836432      95.95000002       0.00000000       0.00000000       0.00000000      240        1        0        0        0
Mo      41.66786655      36.05020789      12.58957549      95.95000002       0.00000000       0.00000000       0.00000000      241        1        0        0        0
Mo      44.43813050      34.51201211      12.59483171      95.95000002       0.00000000       0.00000000       0.00000000      242        1        0        0        0
Mo      47.20250923      32.97089540      12.59542990      95.95000002       0.00000000       0.00000000       0.00000000      243        1        0        0        0
Mo      49.96297993      31.42870362      12.59309955      95.95000002       0.00000000       0.00000000       0.00000000      244        1        0        0        0
Mo      52.72164945      29.88719790      12.58932704      95.95000002       0.00000000       0.00000000       0.00000000      245        1        0        0        0
Mo      55.48069345      28.34803330      12.58506988      95.95000002       0.00000000       0.00000000       0.00000000      246        1        0        0        0
Mo      58.24232558      26.81276243      12.58060409      95.95000002       0.00000000       0.00000000       0.00000000      247        1        0        0        0
Mo      61.00871352      25.28282191      12.57542421      95.95000002       0.00000000       0.00000000       0.00000000      248        1        0        0        0
Mo      63.78177529      23.75944604      12.56839303      95.95000002       0.00000000       0.00000000       0.00000000      249        1        0        0        0
Mo      66.56286315      22.24346441      12.55837157      95.95000002       0.00000000       0.00000000       0.00000000      250        1        0        0        0
Mo      69.35243085      20.73495776      12.54524430      95.95000002       0.00000000       0.00000000       0.00000000      251        1        0        0        0
Mo      72.14979299      19.23281960      12.53086447      95.95000002       0.00000000       0.00000000       0.00000000      252        1        0        0        0
Mo      74.95314106      17.73458321      12.51911423      95.95000002       0.00000000       0.00000000       0.00000000      253        1        0        0        0
Mo      27.60387743      46.82584303      12.47593123      95.95000002       0.00000000       0.00000000       0.00000000      254        1        0        0       -1
Mo      30.41919281      45.32169455      12.48214245      95.95000002       0.00000000       0.00000000       0.00000000      255        1        0        0       -1
Mo      33.22855096      43.81387421      12.49820399      95.95000002       0.00000000       0.00000000       0.00000000      256        1        0        0       -1
Mo      36.03030043      42.30055958      12.52007446      95.95000002       0.00000000       0.00000000       0.00000000      257        1        0        0        0
Mo      38.82332451      40.78078482      12.54276709      95.95000002       0.00000000       0.00000000       0.00000000      258        1        0        0        0
Mo      41.60732267      39.25448138      12.56215904      95.95000002       0.00000000       0.00000000       0.00000000      259        1        0        0        0
Mo      44.38288665      37.72239547      12.57615112      95.95000002       0.00000000       0.00000000       0.00000000      260        1        0        0        0
Mo      47.15137484      36.18583935      12.58469842      95.95000002       0.00000000       0.00000000       0.00000000      261        1        0        0        0
Mo      49.91465697      34.64639054      12.58902833      95.95000002       0.00000000       0.00000000       0.00000000      262        1        0        0        0
Mo      52.67485469      33.10568393      12.59075756      95.95000002       0.00000000       0.00000000       0.00000000      263        1        0        0        0
Mo      55.43417219      31.56532736      12.59129667      95.95000002       0.00000000       0.00000000       0.00000000      264        1        0        0        0
Mo      58.19482415      30.02689764      12.59147154      95.95000002       0.00000000       0.00000000       0.00000000      265        1        0        0        0
Mo      60.95898976      28.49196789      12.59123297      95.95000002       0.00000000       0.00000000       0.00000000      266        1        0        0        0
Mo      63.72870610      26.96208881      12.58957865      95.95000002       0.00000000       0.00000000       0.00000000      267        1        0        0        0
Mo      66.50564013      25.43865028      12.58498815      95.95000002       0.00000000       0.00000000       0.00000000      268        1        0        0        0
Mo      69.29075826      23.92255522      12.57645123      95.95000002       0.00000000       0.00000000       0.00000000      269        1        0        0        0
Mo      72.08402212      22.41371481      12.56466340      95.95000002       0.00000000       0.00000000       0.00000000      270        1        0        0        0
Mo      74.88425009      20.91060305      12.55260639      95.95000002       0.00000000       0.00000000       0.00000000      271        1        0        0        0
Mo      77.68928904      19.41024578      12.54480925      95.95000002       0.00000000       0.00000000       0.00000000      272        1        0        0        0
Mo      96.55745863      50.00065756      12.44394078      95.95000002       0.00000000       0.00000000       0.00000000      273        1       -1        0       -1
Mo      30.32238094      48.49962461      12.44348179      95.95000002       0.00000000       0.00000000       0.00000000      274        1        0        0       -1
Mo      33.13633955      46.99642154      12.45457265      95.95000002       0.00000000       0.00000000       0.00000000      275        1        0        0       -1
Mo      35.94395108      45.48904053      12.47506341      95.95000002       0.00000000       0.00000000       0.00000000      276        1        0        0       -1
Mo      38.74377654      43.97610863      12.50094705      95.95000002       0.00000000       0.00000000       0.00000000      277        1        0        0        0
Mo      41.53494462      42.45685807      12.52753521      95.95000002       0.00000000       0.00000000       0.00000000      278        1        0        0        0
Mo      44.31741756      40.93119884      12.55098762      95.95000002       0.00000000       0.00000000       0.00000000      279        1        0        0        0
Mo      47.09202446      39.39972155      12.56929961      95.95000002       0.00000000       0.00000000       0.00000000      280        1        0        0        0
Mo      49.86031088      37.86353683      12.58229535      95.95000002       0.00000000       0.00000000       0.00000000      281        1        0        0        0
Mo      52.62427907      36.32406813      12.59098244      95.95000002       0.00000000       0.00000000       0.00000000      282        1        0        0        0
Mo      55.38612360      34.78289250      12.59680965      95.95000002       0.00000000       0.00000000       0.00000000      283        1        0        0        0
Mo      58.14805847      33.24166233      12.60105271      95.95000002       0.00000000       0.00000000       0.00000000      284        1        0        0        0
Mo      60.91224322      31.70209673      12.60431079      95.95000002       0.00000000       0.00000000       0.00000000      285        1        0        0        0
Mo      63.68072928      30.16598669      12.60617706      95.95000002       0.00000000       0.00000000       0.00000000      286        1        0        0        0
Mo      66.45533068      28.63513018      12.60535136      95.95000002       0.00000000       0.00000000       0.00000000      287        1        0        0        0
Mo      69.23736833      27.11108442      12.60043801      95.95000002       0.00000000       0.00000000       0.00000000      288        1        0        0        0
Mo      72.02734229      25.59467031      12.59122139      95.95000002       0.00000000       0.00000000       0.00000000      289        1        0        0        0
Mo      74.82469447      24.08537792      12.57964982      95.95000002       0.00000000       0.00000000       0.00000000      290        1        0        0        0
Mo      77.62779898      22.58103485      12.56972527      95.95000002       0.00000000       0.00000000       0.00000000      291        1        0        0        0
Mo      30.21593940      51.67886721      12.41050766      95.95000002       0.00000000       0.00000000       0.00000000      292        1        0        0       -1
Mo      33.03327638      50.17928711      12.41560215      95.95000002       0.00000000       0.00000000       0.00000000      293        1        0        0       -1
Mo      35.84569679      48.67669153      12.43214819      95.95000002       0.00000000       0.00000000       0.00000000      294        1        0        0       -1
Mo      38.65173581      47.16953465      12.45784053      95.95000002       0.00000000       0.00000000       0.00000000      295        1        0        0       -1
Mo      41.45017393      45.65666341      12.48874114      95.95000002       0.00000000       0.00000000       0.00000000      296        1        0        0       -1
Mo      44.24037956      44.13729019      12.52020847      95.95000002       0.00000000       0.00000000       0.00000000      297        1        0        0        0
Mo      47.02255257      42.61117282      12.54836663      95.95000002       0.00000000       0.00000000       0.00000000      298        1        0        0        0
Mo      49.79771554      41.07873203      12.57108079      95.95000002       0.00000000       0.00000000       0.00000000      299        1        0        0        0
Mo      52.56753856      39.54100243      12.58800909      95.95000002       0.00000000       0.00000000       0.00000000      300        1        0        0        0
Mo      55.33406277      37.99946876      12.60004921      95.95000002       0.00000000       0.00000000       0.00000000      301        1        0        0        0
Mo      58.09944002      36.45588067      12.60858850      95.95000002       0.00000000       0.00000000       0.00000000      302        1        0        0        0
Mo      60.86578136      34.91213657      12.61477686      95.95000002       0.00000000       0.00000000       0.00000000      303        1        0        0        0
Mo      63.63509924      33.37024757      12.61895336      95.95000002       0.00000000       0.00000000       0.00000000      304        1        0        0        0
Mo      66.40924547      31.83231296      12.62043470      95.95000002       0.00000000       0.00000000       0.00000000      305        1        0        0        0
Mo      69.18974851      30.30037437      12.61795054      95.95000002       0.00000000       0.00000000       0.00000000      306        1        0        0        0
Mo      71.97752766      28.77600104      12.61076263      95.95000002       0.00000000       0.00000000       0.00000000      307        1        0        0        0
Mo      74.77259495      27.25964567      12.59989569      95.95000002       0.00000000       0.00000000       0.00000000      308        1        0        0        0
Mo      77.57391238      25.75009164      12.58856255      95.95000002       0.00000000       0.00000000       0.00000000      309        1        0        0        0
Mo      80.37949257      24.24436066      12.58125271      95.95000002       0.00000000       0.00000000       0.00000000      310        1        0        0        0
Mo      99.15689217      54.85930163      12.38638153      95.95000002       0.00000000       0.00000000       0.00000000      311        1       -1        0       -1
Mo      32.92240828      53.36256949      12.38529793      95.95000002       0.00000000       0.00000000       0.00000000      312        1        0        0       -1
Mo      35.73813661      51.86381167      12.39644327      95.95000002       0.00000000       0.00000000       0.00000000      313        1        0        0       -1
Mo      38.54902399      50.36132116      12.41893934      95.95000002       0.00000000       0.00000000       0.00000000      314        1        0        0       -1
Mo      41.35384056      48.85378304      12.45035978      95.95000002       0.00000000       0.00000000       0.00000000      315        1        0        0       -1
Mo      44.15159437      47.34003546      12.48654251      95.95000002       0.00000000       0.00000000       0.00000000      316        1        0        0       -1
Mo      46.94188270      45.81913571      12.52255813      95.95000002       0.00000000       0.00000000       0.00000000      317        1        0        0        0
Mo      49.72511307      44.29070691      12.55436548      95.95000002       0.00000000       0.00000000       0.00000000      318        1        0        0        0
Mo      52.50243828      42.75519944      12.57985525      95.95000002       0.00000000       0.00000000       0.00000000      319        1        0        0        0
Mo      55.27553462      41.21386166      12.59883056      95.95000002       0.00000000       0.00000000       0.00000000      320        1        0        0        0
Mo      58.04633481      39.66848980      12.61231816      95.95000002       0.00000000       0.00000000       0.00000000      321        1        0        0        0
Mo      60.81681842      38.12116189      12.62169346      95.95000002       0.00000000       0.00000000       0.00000000      322        1        0        0        0
Mo      63.58890902      36.57410775      12.62790269      95.95000002       0.00000000       0.00000000       0.00000000      323        1        0        0        0
Mo      66.36442550      35.02967157      12.63098059      95.95000002       0.00000000       0.00000000       0.00000000      324        1        0        0        0
Mo      69.14499088      33.49023818      12.63011560      95.95000002       0.00000000       0.00000000       0.00000000      325        1        0        0        0
Mo      71.93182148      31.95794256      12.62444493      95.95000002       0.00000000       0.00000000       0.00000000      326        1        0        0        0
Mo      74.72542224      30.43407279      12.61430401      95.95000002       0.00000000       0.00000000       0.00000000      327        1        0        0        0
Mo      77.52534146      28.91838843      12.60207805      95.95000002       0.00000000       0.00000000       0.00000000      328        1        0        0        0
Mo      80.33012090      27.40875491      12.59188600      95.95000002       0.00000000       0.00000000       0.00000000      329        1        0        0        0
Mo      32.80718451      56.54618999      12.36594640      95.95000002       0.00000000       0.00000000       0.00000000      330        1        0        0       -1
Mo      35.62457331      55.05052188      12.37112640      95.95000002       0.00000000       0.00000000       0.00000000      331        1        0        0       -1
Mo      38.43857890      53.55179648      12.38856289      95.95000002       0.00000000       0.00000000       0.00000000      332        1        0        0       -1
Mo      41.24812107      52.04853821      12.41712742      95.95000002       0.00000000       0.00000000       0.00000000      333        1        0        0       -1
Mo      44.05221204      50.53943056      12.45394058      95.95000002       0.00000000       0.00000000       0.00000000      334        1        0        0       -1
Mo      46.85009373      49.02314214      12.49423433      95.95000002       0.00000000       0.00000000       0.00000000      335        1        0        0       -1
Mo      49.64159480      47.49862179      12.53274865      95.95000002       0.00000000       0.00000000       0.00000000      336        1        0        0        0
Mo      52.42727638      45.96564139      12.56565828      95.95000002       0.00000000       0.00000000       0.00000000      337        1        0        0        0
Mo      55.20828305      44.42505234      12.59140461      95.95000002       0.00000000       0.00000000       0.00000000      338        1        0        0        0
Mo      57.98612718      42.87856942      12.61026549      95.95000002       0.00000000       0.00000000       0.00000000      339        1        0        0        0
Mo      60.76250346      41.32838964      12.62344116      95.95000002       0.00000000       0.00000000       0.00000000      340        1        0        0        0
Mo      63.53915034      39.77693905      12.63215903      95.95000002       0.00000000       0.00000000       0.00000000      341        1        0        0        0
Mo      66.31777686      38.22676828      12.63700379      95.95000002       0.00000000       0.00000000       0.00000000      342        1        0        0        0
Mo      69.10000556      36.68050422      12.63768361      95.95000002       0.00000000       0.00000000       0.00000000      343        1        0        0        0
Mo      71.88723036      35.14067384      12.63346402      95.95000002       0.00000000       0.00000000       0.00000000      344        1        0        0        0
Mo      74.68035036      33.60922980      12.62424015      95.95000002       0.00000000       0.00000000       0.00000000      345        1        0        0        0
Mo      77.47946318      32.08684367      12.61163585      95.95000002       0.00000000       0.00000000       0.00000000      346        1        0        0        0
Mo      80.28368606      30.57233367      12.59922434      95.95000002       0.00000000       0.00000000       0.00000000      347        1        0        0        0
Mo      83.09119101      29.06261413      12.59147292      95.95000002       0.00000000       0.00000000       0.00000000      348        1        0        0        0
Mo     101.74464986      59.73012441      12.35864194      95.95000002       0.00000000       0.00000000       0.00000000      349        1       -1        0       -1
Mo      35.50840334      58.23686199      12.35764906      95.95000002       0.00000000       0.00000000       0.00000000      350        1        0        0       -1
Mo      38.32381735      56.74117822      12.36917219      95.95000002       0.00000000       0.00000000       0.00000000      351        1        0        0       -1
Mo      41.13619772      55.24134459      12.39274901      95.95000002       0.00000000       0.00000000       0.00000000      352        1        0        0       -1
Mo      43.94473298      53.73590104      12.42665613      95.95000002       0.00000000       0.00000000       0.00000000      353        1        0        0       -1
Mo      46.74868170      52.22334973      12.46711738      95.95000002       0.00000000       0.00000000       0.00000000      354        1        0        0       -1
Mo      49.54754809      50.70224865      12.50874291      95.95000002       0.00000000       0.00000000       0.00000000      355        1        0        0        0
Mo      52.34136742      49.17179273      12.54653365      95.95000002       0.00000000       0.00000000       0.00000000      356        1        0        0        0
Mo      55.13071175      47.63235222      12.57762694      95.95000002       0.00000000       0.00000000       0.00000000      357        1        0        0        0
Mo      57.91654577      46.08541823      12.60140633      95.95000002       0.00000000       0.00000000       0.00000000      358        1        0        0        0
Mo      60.70011135      44.53319364      12.61863438      95.95000002       0.00000000       0.00000000       0.00000000      359        1        0        0        0
Mo      63.48281630      42.97823146      12.63049254      95.95000002       0.00000000       0.00000000       0.00000000      360        1        0        0        0
Mo      66.26614776      41.42323935      12.63780896      95.95000002       0.00000000       0.00000000       0.00000000      361        1        0        0        0
Mo      69.05161471      39.87100767      12.64063590      95.95000002       0.00000000       0.00000000       0.00000000      362        1        0        0        0
Mo      71.84065699      38.32430833      12.63839184      95.95000002       0.00000000       0.00000000       0.00000000      363        1        0        0        0
Mo      74.63443793      36.78557251      12.63067776      95.95000002       0.00000000       0.00000000       0.00000000      364        1        0        0        0
Mo      77.43352732      35.25625816      12.61843009      95.95000002       0.00000000       0.00000000       0.00000000      365        1        0        0        0
Mo      80.23761695      33.73615240      12.60457569      95.95000002       0.00000000       0.00000000       0.00000000      366        1        0        0        0
Mo      83.04541719      32.22304640      12.59351154      95.95000002       0.00000000       0.00000000       0.00000000      367        1        0        0        0
Mo      41.02162026      58.43245746      12.37946170      95.95000002       0.00000000       0.00000000       0.00000000      368        1        0        0       -1
Mo      43.83262995      56.92990698      12.40829315      95.95000002       0.00000000       0.00000000       0.00000000      369        1        0        0       -1
Mo      46.64056217      55.42026563      12.44553647      95.95000002       0.00000000       0.00000000       0.00000000      370        1        0        0       -1
Mo      49.44495443      53.90190790      12.48645716      95.95000002       0.00000000       0.00000000       0.00000000      371        1        0        0       -1
Mo      52.24558305      52.37368048      12.52576418      95.95000002       0.00000000       0.00000000       0.00000000      372        1        0        0        0
Mo      55.04256220      50.83553521      12.55968185      95.95000002       0.00000000       0.00000000       0.00000000      373        1        0        0        0
Mo      57.83632058      49.28866331      12.58677274      95.95000002       0.00000000       0.00000000       0.00000000      374        1        0        0        0
Mo      60.62757229      47.73515448      12.60732392      95.95000002       0.00000000       0.00000000       0.00000000      375        1        0        0        0
Mo      63.41727366      46.17759066      12.62232968      95.95000002       0.00000000       0.00000000       0.00000000      376        1        0        0        0
Mo      66.20655837      44.61876707      12.63262561      95.95000002       0.00000000       0.00000000       0.00000000      377        1        0        0        0
Mo      68.99668413      43.06156114      12.63835870      95.95000002       0.00000000       0.00000000       0.00000000      378        1        0        0        0
Mo      71.78897793      41.50886971      12.63895446      95.95000002       0.00000000       0.00000000       0.00000000      379        1        0        0        0
Mo      74.58469194      39.96342221      12.63370890      95.95000002       0.00000000       0.00000000       0.00000000      380        1        0        0        0
Mo      77.38472748      38.42728995      12.62287490      95.95000002       0.00000000       0.00000000       0.00000000      381        1        0        0        0
Mo      80.18929534      36.90116604      12.60861192      95.95000002       0.00000000       0.00000000       0.00000000      382        1        0        0        0
Mo      82.99768063      35.38381516      12.59497939      95.95000002       0.00000000       0.00000000       0.00000000      383        1        0        0        0
Mo      85.80821944      33.87207680      12.58671144      95.95000002       0.00000000       0.00000000       0.00000000      384        1        0        0        0
Mo      46.52953119      58.61433872      12.43327214      95.95000002       0.00000000       0.00000000       0.00000000      385        1        0        0       -1
Mo      49.33723640      57.09814333      12.47059259      95.95000002       0.00000000       0.00000000       0.00000000      386        1        0        0       -1
Mo      52.14254987      55.57175147      12.50815285      95.95000002       0.00000000       0.00000000       0.00000000      387        1        0        0        0
Mo      54.94541530      54.03484015      12.54188318      95.95000002       0.00000000       0.00000000       0.00000000      388        1        0        0        0
Mo      57.74589856      52.48832872      12.56980672      95.95000002       0.00000000       0.00000000       0.00000000      389        1        0        0        0
Mo      60.54425558      50.93413415      12.59184862      95.95000002       0.00000000       0.00000000       0.00000000      390        1        0        0        0
Mo      63.34097411      49.37478367      12.60887528      95.95000002       0.00000000       0.00000000       0.00000000      391        1        0        0        0
Mo      66.13676029      47.81308511      12.62170731      95.95000002       0.00000000       0.00000000       0.00000000      392        1        0        0        0
Mo      68.93250777      46.25193595      12.63047391      95.95000002       0.00000000       0.00000000       0.00000000      393        1        0        0        0
Mo      71.72926836      44.69426110      12.63447106      95.95000002       0.00000000       0.00000000       0.00000000      394        1        0        0        0
Mo      74.52817693      43.14292644      12.63260476      95.95000002       0.00000000       0.00000000       0.00000000      395        1        0        0        0
Mo      77.33025494      41.60041452      12.62437644      95.95000002       0.00000000       0.00000000       0.00000000      396        1        0        0        0
Mo      80.13608730      40.06818539      12.61100237      95.95000002       0.00000000       0.00000000       0.00000000      397        1        0        0        0
Mo      82.94549576      38.54598243      12.59587811      95.95000002       0.00000000       0.00000000       0.00000000      398        1        0        0        0
Mo      85.75737144      37.03154106      12.58385226      95.95000002       0.00000000       0.00000000       0.00000000      399        1        0        0        0
Mo      52.03623175      58.76652334      12.49853489      95.95000002       0.00000000       0.00000000       0.00000000      400        1        0        0       -1
Mo      54.84265312      57.23076028      12.52949228      95.95000002       0.00000000       0.00000000       0.00000000      401        1        0        0        0
Mo      57.64775824      55.68476716      12.55560172      95.95000002       0.00000000       0.00000000       0.00000000      402        1        0        0        0
Mo      60.45156607      54.13029972      12.57665489      95.95000002       0.00000000       0.00000000       0.00000000      403        1        0        0        0
Mo      63.25421822      52.56979930      12.59355813      95.95000002       0.00000000       0.00000000       0.00000000      404        1        0        0        0
Mo      66.05603296      51.00604213      12.60726352      95.95000002       0.00000000       0.00000000       0.00000000      405        1        0        0        0
Mo      68.85751450      49.44190195      12.61798086      95.95000002       0.00000000       0.00000000       0.00000000      406        1        0        0        0
Mo      71.65934868      47.88027025      12.62491684      95.95000002       0.00000000       0.00000000       0.00000000      407        1        0        0        0
Mo      74.46237805      46.32402703      12.62659998      95.95000002       0.00000000       0.00000000       0.00000000      408        1        0        0        0
Mo      77.26750487      44.77586646      12.62175905      95.95000002       0.00000000       0.00000000       0.00000000      409        1        0        0        0
Mo      80.07545454      43.23780796      12.61051136      95.95000002       0.00000000       0.00000000       0.00000000      410        1        0        0        0
Mo      82.88644099      41.71047852      12.59522095      95.95000002       0.00000000       0.00000000       0.00000000      411        1        0        0        0
Mo      85.69988846      40.19258126      12.58032253      95.95000002       0.00000000       0.00000000       0.00000000      412        1        0        0        0
Mo      88.51433283      38.68094072      12.57098293      95.95000002       0.00000000       0.00000000       0.00000000      413        1        0        0        0
Mo      57.54605139      58.87841054      12.54915759      95.95000002       0.00000000       0.00000000       0.00000000      414        1        0        0        0
Mo      60.35295548      57.32400005      12.56696688      95.95000002       0.00000000       0.00000000       0.00000000      415        1        0        0        0
Mo      63.15949855      55.76283756      12.58128979      95.95000002       0.00000000       0.00000000       0.00000000      416        1        0        0        0
Mo      65.96578299      54.19766294      12.59342374      95.95000002       0.00000000       0.00000000       0.00000000      417        1        0        0        0
Mo      68.77202128      52.63132114      12.60388320      95.95000002       0.00000000       0.00000000       0.00000000      418        1        0        0        0
Mo      71.57855663      51.06665672      12.61200074      95.95000002       0.00000000       0.00000000       0.00000000      419        1        0        0        0
Mo      74.38587385      49.50650207      12.61612556      95.95000002       0.00000000       0.00000000       0.00000000      420        1        0        0        0
Mo      77.19458161      47.95360927      12.61437623      95.95000002       0.00000000       0.00000000       0.00000000      421        1        0        0        0
Mo      80.00529699      46.41033004      12.60579679      95.95000002       0.00000000       0.00000000       0.00000000      422        1        0        0        0
Mo      82.81838914      44.87798540      12.59147040      95.95000002       0.00000000       0.00000000       0.00000000      423        1        0        0        0
Mo      85.63367214      43.35619939      12.57487998      95.95000002       0.00000000       0.00000000       0.00000000      424        1        0        0        0
Mo      88.45019298      41.84265301      12.56112987      95.95000002       0.00000000       0.00000000       0.00000000      425        1        0        0        0
Mo      63.06115174      58.95416532      12.57667337      95.95000002       0.00000000       0.00000000       0.00000000      426        1        0        0        0
Mo      65.86955739      57.38811526      12.58499367      95.95000002       0.00000000       0.00000000       0.00000000      427        1        0        0        0
Mo      68.67856698      55.82021183      12.59264107      95.95000002       0.00000000       0.00000000       0.00000000      428        1        0        0        0
Mo      71.48833398      54.25327293      12.59935913      95.95000002       0.00000000       0.00000000       0.00000000      429        1        0        0        0
Mo      74.29906075      52.69009026      12.60363875      95.95000002       0.00000000       0.00000000       0.00000000      430        1        0        0        0
Mo      77.11102234      51.13340735      12.60333014      95.95000002       0.00000000       0.00000000       0.00000000      431        1        0        0        0
Mo      79.92456033      49.58572617      12.59669468      95.95000002       0.00000000       0.00000000       0.00000000      432        1        0        0        0
Mo      82.73996174      48.04882743      12.58359524      95.95000002       0.00000000       0.00000000       0.00000000      433        1        0        0        0
Mo      85.55721236      46.52310162      12.56625032      95.95000002       0.00000000       0.00000000       0.00000000      434        1        0        0        0
Mo      88.37573880      45.00709212      12.54902970      95.95000002       0.00000000       0.00000000       0.00000000      435        1        0        0        0
Mo      91.19425512      43.49761865      12.53722986      95.95000002       0.00000000       0.00000000       0.00000000      436        1        0        0        0
Mo      68.58157518      59.00868571      12.58848621      95.95000002       0.00000000       0.00000000       0.00000000      437        1        0        0        0
Mo      71.39225750      57.44010753      12.59148142      95.95000002       0.00000000       0.00000000       0.00000000      438        1        0        0        0
Mo      74.20449745      55.87462488      12.59328206      95.95000002       0.00000000       0.00000000       0.00000000      439        1        0        0        0
Mo      77.01835533      54.31498112      12.59187240      95.95000002       0.00000000       0.00000000       0.00000000      440        1        0        0        0
Mo      79.83388534      52.76374845      12.58519575      95.95000002       0.00000000       0.00000000       0.00000000      441        1        0        0        0
Mo      82.65114338      51.22297174      12.57229210      95.95000002       0.00000000       0.00000000       0.00000000      442        1        0        0        0
Mo      85.47007802      49.69359298      12.55421900      95.95000002       0.00000000       0.00000000       0.00000000      443        1        0        0        0
Mo      88.29031267      48.17491024      12.53427801      95.95000002       0.00000000       0.00000000       0.00000000      444        1        0        0        0
Mo      91.11092416      46.66445347      12.51734707      95.95000002       0.00000000       0.00000000       0.00000000      445        1        0        0        0
Mo      74.10658537      59.06005633      12.58927951      95.95000002       0.00000000       0.00000000       0.00000000      446        1        0        0        0
Mo      76.92014185      57.49812822      12.58447514      95.95000002       0.00000000       0.00000000       0.00000000      447        1        0        0        0
Mo      79.73592106      55.94408733      12.57530874      95.95000002       0.00000000       0.00000000       0.00000000      448        1        0        0        0
Mo      82.55375762      54.40014485      12.56055396      95.95000002       0.00000000       0.00000000       0.00000000      449        1        0        0        0
Mo      85.37344199      52.86760219      12.54060073      95.95000002       0.00000000       0.00000000       0.00000000      450        1        0        0        0
Mo      88.19462779      51.34633729      12.51784814      95.95000002       0.00000000       0.00000000       0.00000000      451        1        0        0        0
Mo      91.01662119      49.83453907      12.49642449      95.95000002       0.00000000       0.00000000       0.00000000      452        1        0        0       -1
Mo      93.83818372      48.32897554      12.48116169      95.95000002       0.00000000       0.00000000       0.00000000      453        1        0        0       -1
Mo      79.63497853      59.12649737      12.57149780      95.95000002       0.00000000       0.00000000       0.00000000      454        1        0        0        0
Mo      82.45142284      57.57998611      12.55291371      95.95000002       0.00000000       0.00000000       0.00000000      455        1        0        0        0
Mo      85.27026266      56.04479351      12.52929087      95.95000002       0.00000000       0.00000000       0.00000000      456        1        0        0        0
Mo      88.09108853      54.52120551      12.50269879      95.95000002       0.00000000       0.00000000       0.00000000      457        1        0        0        0
Mo      90.91331483      53.00794879      12.47673475      95.95000002       0.00000000       0.00000000       0.00000000      458        1        0        0       -1
Mo      93.73594108      51.50228389      12.45581376      95.95000002       0.00000000       0.00000000       0.00000000      459        1        0        0       -1
Mo      85.16475503      59.22476649      12.52479061      95.95000002       0.00000000       0.00000000       0.00000000      460        1        0        0        0
Mo      87.98348267      57.69910092      12.49313230      95.95000002       0.00000000       0.00000000       0.00000000      461        1        0        0       -1
Mo      90.80440592      56.18437642      12.46194696      95.95000002       0.00000000       0.00000000       0.00000000      462        1        0        0       -1
Mo      93.62667619      54.67828616      12.43545227      95.95000002       0.00000000       0.00000000       0.00000000      463        1        0        0       -1
Mo      96.44897546      53.17757686      12.41745468      95.95000002       0.00000000       0.00000000       0.00000000      464        1        0        0       -1
Mo      90.69391841      59.36342936      12.45585106      95.95000002       0.00000000       0.00000000       0.00000000      465        1        0        0       -1
Mo      93.51419767      57.85662882      12.42348633      95.95000002       0.00000000       0.00000000       0.00000000      466        1        0        0       -1
Mo      96.33570434      56.35633860      12.39950800      95.95000002       0.00000000       0.00000000       0.00000000      467        1        0        0       -1
Mo      96.22130685      59.53672965      12.39240357      95.95000002       0.00000000       0.00000000       0.00000000      468        1        0        0       -1
Mo      99.04139552      58.04074835      12.37318122      95.95000002       0.00000000       0.00000000       0.00000000      469        1        0        0       -1
W        4.64033099       1.45780548      19.13006475     183.84000005       0.00000000       0.00000000       0.00000000      470        3        0        0        0
W        4.74900823       4.64223805      19.11917832     183.84000005       0.00000000       0.00000000       0.00000000      471        3        0        0        0
W        7.45615852       2.95554145      19.10832261     183.84000005       0.00000000       0.00000000       0.00000000      472        3        0        0        0
W       10.16409431       1.27416662      19.08635043     183.84000005       0.00000000       0.00000000       0.00000000      473        3        0        0        0
W        7.56132032       6.14014569      19.09219636     183.84000005       0.00000000       0.00000000       0.00000000      474        3        0        0        0
W       10.26997071       4.45754991      19.07607139     183.84000005       0.00000000       0.00000000       0.00000000      475        3        0        0        0
W       12.97927804       2.78179863      19.05068118     183.84000005       0.00000000       0.00000000       0.00000000      476        3        0        0        0
W       15.68963172       1.11435798      19.01946602     183.84000005       0.00000000       0.00000000       0.00000000      477        3        0        0        0
W        7.66031596       9.32691069      19.06667501     183.84000005       0.00000000       0.00000000       0.00000000      478        3        0        0        0
W       10.37015122       7.64337196      19.05599030     183.84000005       0.00000000       0.00000000       0.00000000      479        3        0        0        0
W       13.08027941       5.96649506      19.03587040     183.84000005       0.00000000       0.00000000       0.00000000      480        3        0        0        0
W       15.79112910       4.29800276      19.00977026     183.84000005       0.00000000       0.00000000       0.00000000      481        3        0        0        0
W       18.50298206       2.63899277      18.98195558     183.84000005       0.00000000       0.00000000       0.00000000      482        3        0        0        0
W       21.21602742       0.98968133      18.95621428     183.84000005       0.00000000       0.00000000       0.00000000      483        3        0        0        0
W       10.46278079      10.83242126      19.02947548     183.84000005       0.00000000       0.00000000       0.00000000      484        3        0        0        0
W       13.17405174       9.15444161      19.01392062     183.84000005       0.00000000       0.00000000       0.00000000      485        3        0        0        0
W       15.88601136       7.48470569      18.99211081     183.84000005       0.00000000       0.00000000       0.00000000      486        3        0        0        0
W       18.59895148       5.82456977      18.96853702     183.84000005       0.00000000       0.00000000       0.00000000      487        3        0        0        0
W       21.31289145       4.17442740      18.94714472     183.84000005       0.00000000       0.00000000       0.00000000      488        3        0        0        0
W       24.02764100       2.53364053      18.93026224     183.84000005       0.00000000       0.00000000       0.00000000      489        3        0        0        0
W       26.74290148       0.90068322      18.91845293     183.84000005       0.00000000       0.00000000       0.00000000      490        3        0        0        0
W       10.54660342      14.02554652      19.00089707     183.84000005       0.00000000       0.00000000       0.00000000      491        3        0        0        0
W       13.25905803      12.34654033      18.98930461     183.84000005       0.00000000       0.00000000       0.00000000      492        3        0        0        0
W       15.97227156      10.67532328      18.97082249     183.84000005       0.00000000       0.00000000       0.00000000      493        3        0        0        0
W       18.68673370       9.01361122      18.95020820     183.84000005       0.00000000       0.00000000       0.00000000      494        3        0        0        0
W       21.40244774       7.36207215      18.93182494     183.84000005       0.00000000       0.00000000       0.00000000      495        3        0        0        0
W       24.11905080       5.72025546      18.91828975     183.84000005       0.00000000       0.00000000       0.00000000      496        3        0        0        0
W       26.83599381       4.08674469      18.91019441     183.84000005       0.00000000       0.00000000       0.00000000      497        3        0        0        0
W       29.55271348       2.45947873      18.90674031     183.84000005       0.00000000       0.00000000       0.00000000      498        3        0        0        0
W       32.26872950       0.83608436      18.90660685     183.84000005       0.00000000       0.00000000       0.00000000      499        3        0        0        0
W       13.33472185      15.54347214      18.96626787     183.84000005       0.00000000       0.00000000       0.00000000      500        3        0        0        0
W       16.04898177      13.87062034      18.95057895     183.84000005       0.00000000       0.00000000       0.00000000      501        3        0        0        0
W       18.76485846      12.20687905      18.93182912     183.84000005       0.00000000       0.00000000       0.00000000      502        3        0        0        0
W       21.48253060      10.55329618      18.91486316     183.84000005       0.00000000       0.00000000       0.00000000      503        3        0        0        0
W       24.20161000       8.90970755      18.90284314     183.84000005       0.00000000       0.00000000       0.00000000      504        3        0        0        0
W       26.92137103       7.27488067      18.89669244     183.84000005       0.00000000       0.00000000       0.00000000      505        3        0        0        0
W       29.64098904       5.64685286      18.89568558     183.84000005       0.00000000       0.00000000       0.00000000      506        3        0        0        0
W       32.35970745       4.02329845      18.89848239     183.84000005       0.00000000       0.00000000       0.00000000      507        3        0        0        0
W       35.07690274       2.40176261      18.90385728     183.84000005       0.00000000       0.00000000       0.00000000      508        3        0        0        0
W       37.79208978       0.77974350      18.91094177     183.84000005       0.00000000       0.00000000       0.00000000      509        3        0        0        0
W       13.40151253      18.74538867      18.94737462     183.84000005       0.00000000       0.00000000       0.00000000      510        3        0        0        0
W       16.11640171      17.07093175      18.93459046     183.84000005       0.00000000       0.00000000       0.00000000      511        3        0        0        0
W       18.83319349      15.40482667      18.91731768     183.84000005       0.00000000       0.00000000       0.00000000      512        3        0        0        0
W       21.55242440      13.74859880      18.90069246     183.84000005       0.00000000       0.00000000       0.00000000      513        3        0        0        0
W       24.27387025      12.10248019      18.88853372     183.84000005       0.00000000       0.00000000       0.00000000      514        3        0        0        0
W       26.99676791      10.46551711      18.88235100     183.84000005       0.00000000       0.00000000       0.00000000      515        3        0        0        0
W       29.72010439       8.83590662      18.88172895     183.84000005       0.00000000       0.00000000       0.00000000      516        3        0        0        0
W       32.44285457       7.21139876      18.88544605     183.84000005       0.00000000       0.00000000       0.00000000      517        3        0        0        0
W       35.16410549       5.58957218      18.89242067     183.84000005       0.00000000       0.00000000       0.00000000      518        3        0        0        0
W       37.88308797       3.96793418      18.90205486     183.84000005       0.00000000       0.00000000       0.00000000      519        3        0        0        0
W       40.59918577       2.34392868      18.91412504     183.84000005       0.00000000       0.00000000       0.00000000      520        3        0        0        0
W       43.31197389       0.71498738      18.92853527     183.84000005       0.00000000       0.00000000       0.00000000      521        3        0        0        0
W       16.17583632      20.27605228      18.92376866     183.84000005       0.00000000       0.00000000       0.00000000      522        3        0        0        0
W       18.89285835      18.60744257      18.90835678     183.84000005       0.00000000       0.00000000       0.00000000      523        3        0        0        0
W       21.61286725      16.94810454      18.89185664     183.84000005       0.00000000       0.00000000       0.00000000      524        3        0        0        0
W       24.33599035      15.29877296      18.87866553     183.84000005       0.00000000       0.00000000       0.00000000      525        3        0        0        0
W       27.06160566      13.65888198      18.87103930     183.84000005       0.00000000       0.00000000       0.00000000      526        3        0        0        0
W       29.78864289      12.02686890      18.86907988     183.84000005       0.00000000       0.00000000       0.00000000      527        3        0        0        0
W       32.51588337      10.40059958      18.87178714     183.84000005       0.00000000       0.00000000       0.00000000      528        3        0        0        0
W       35.24215352       8.77770015      18.87821823     183.84000005       0.00000000       0.00000000       0.00000000      529        3        0        0        0
W       37.96639222       7.15569809      18.88806813     183.84000005       0.00000000       0.00000000       0.00000000      530        3        0        0        0
W       40.68766561       5.53203247      18.90160665     183.84000005       0.00000000       0.00000000       0.00000000      531        3        0        0        0
W       43.40521012       3.90407275      18.91922252     183.84000005       0.00000000       0.00000000       0.00000000      532        3        0        0        0
W       46.11853509       2.26927970      18.94087719     183.84000005       0.00000000       0.00000000       0.00000000      533        3        0        0        0
W       48.82754115       0.62553695      18.96579012     183.84000005       0.00000000       0.00000000       0.00000000      534        3        0        0        0
W       16.22928538      23.48531881      18.91710099     183.84000005       0.00000000       0.00000000       0.00000000      535        3        0        0        0
W       18.94586488      21.81429031      18.90440461     183.84000005       0.00000000       0.00000000       0.00000000      536        3        0        0        0
W       21.66573390      20.15156651      18.88856935     183.84000005       0.00000000       0.00000000       0.00000000      537        3        0        0        0
W       24.38950742      18.49847195      18.87431378     183.84000005       0.00000000       0.00000000       0.00000000      538        3        0        0        0
W       27.11688586      16.85494060      18.86468372     183.84000005       0.00000000       0.00000000       0.00000000      539        3        0        0        0
W       29.84690552      15.21974854      18.86047592     183.84000005       0.00000000       0.00000000       0.00000000      540        3        0        0        0
W       32.57827535      13.59093575      18.86101794     183.84000005       0.00000000       0.00000000       0.00000000      541        3        0        0        0
W       35.30964208      11.96619702      18.86543781     183.84000005       0.00000000       0.00000000       0.00000000      542        3        0        0        0
W       38.03970836      10.34308686      18.87355051     183.84000005       0.00000000       0.00000000       0.00000000      543        3        0        0        0
W       40.76725314       8.71905714      18.88603415     183.84000005       0.00000000       0.00000000       0.00000000      544        3        0        0        0
W       43.49115739       7.09145643      18.90397890     183.84000005       0.00000000       0.00000000       0.00000000      545        3        0        0        0
W       46.21051092       5.45764920      18.92804531     183.84000005       0.00000000       0.00000000       0.00000000      546        3        0        0        0
W       48.92480101       3.81532898      18.95764972     183.84000005       0.00000000       0.00000000       0.00000000      547        3        0        0        0
W       51.63408177       2.16292643      18.99075443     183.84000005       0.00000000       0.00000000       0.00000000      548        3        0        0        0
W       54.33897894       0.49994377      19.02445790     183.84000005       0.00000000       0.00000000       0.00000000      549        3        0        0        0
W       18.99464662      25.02465765      18.90372302     183.84000005       0.00000000       0.00000000       0.00000000      550        3        0        0        0
W       21.71351648      23.35848773      18.88949421     183.84000005       0.00000000       0.00000000       0.00000000      551        3        0        0        0
W       24.43682738      21.70124792      18.87475081     183.84000005       0.00000000       0.00000000       0.00000000      552        3        0        0        0
W       27.16474499      20.05346989      18.86324504     183.84000005       0.00000000       0.00000000       0.00000000      553        3        0        0        0
W       29.89657786      18.41437974      18.85662056     183.84000005       0.00000000       0.00000000       0.00000000      554        3        0        0        0
W       32.63110240      16.78227330      18.85469524     183.84000005       0.00000000       0.00000000       0.00000000      555        3        0        0        0
W       35.36688974      15.15494982      18.85665204     183.84000005       0.00000000       0.00000000       0.00000000      556        3        0        0        0
W       38.10249487      13.52999997      18.86218625     183.84000005       0.00000000       0.00000000       0.00000000      557        3        0        0        0
W       40.83649757      11.90490068      18.87203796     183.84000005       0.00000000       0.00000000       0.00000000      558        3        0        0        0
W       43.56749743      10.27701514      18.88778835     183.84000005       0.00000000       0.00000000       0.00000000      559        3        0        0        0
W       46.29418190       8.64366861      18.91099414     183.84000005       0.00000000       0.00000000       0.00000000      560        3        0        0        0
W       49.01552573       7.00242375      18.94197818     183.84000005       0.00000000       0.00000000       0.00000000      561        3        0        0        0
W       51.73106777       5.35148257      18.97898958     183.84000005       0.00000000       0.00000000       0.00000000      562        3        0        0        0
W       54.44110127       3.69004182      19.01845045     183.84000005       0.00000000       0.00000000       0.00000000      563        3        0        0        0
W       57.14658467       2.01854753      19.05610146     183.84000005       0.00000000       0.00000000       0.00000000      564        3        0        0        0
W       59.84881694       0.33876340      19.08807701     183.84000005       0.00000000       0.00000000       0.00000000      565        3        0        0        0
W       19.04170752      28.23769177      18.90463722     183.84000005       0.00000000       0.00000000       0.00000000      566        3        0        0        0
W       21.75887876      26.56824553      18.89300132     183.84000005       0.00000000       0.00000000       0.00000000      567        3        0        0        0
W       24.48069917      24.90667406      18.87861976     183.84000005       0.00000000       0.00000000       0.00000000      568        3        0        0        0
W       27.20788794      23.25417381      18.86572051     183.84000005       0.00000000       0.00000000       0.00000000      569        3        0        0        0
W       29.94017122      21.61053098      18.85688756     183.84000005       0.00000000       0.00000000       0.00000000      570        3        0        0        0
W       32.67653231      19.97440273      18.85266297     183.84000005       0.00000000       0.00000000       0.00000000      571        3        0        0        0
W       35.41557127      18.34375508      18.85241101     183.84000005       0.00000000       0.00000000       0.00000000      572        3        0        0        0
W       38.15577710      16.71623523      18.85557721     183.84000005       0.00000000       0.00000000       0.00000000      573        3        0        0        0
W       40.89562485      15.08935281      18.86256987     183.84000005       0.00000000       0.00000000       0.00000000      574        3        0        0        0
W       43.63355512      13.46051480      18.87494769     183.84000005       0.00000000       0.00000000       0.00000000      575        3        0        0        0
W       46.36797443      11.82706713      18.89483194     183.84000005       0.00000000       0.00000000       0.00000000      576        3        0        0        0
W       49.09739665      10.18650771      18.92364317     183.84000005       0.00000000       0.00000000       0.00000000      577        3        0        0        0
W       51.82074792       8.53686853      18.96074395     183.84000005       0.00000000       0.00000000       0.00000000      578        3        0        0        0
W       54.53771157       6.87706667      19.00295744     183.84000005       0.00000000       0.00000000       0.00000000      579        3        0        0        0
W       57.24887744       5.20715241      19.04541814     183.84000005       0.00000000       0.00000000       0.00000000      580        3        0        0        0
W       59.95548372       3.52845092      19.08316787     183.84000005       0.00000000       0.00000000       0.00000000      581        3        0        0        0
W       62.65896989       1.84332348      19.11247341     183.84000005       0.00000000       0.00000000       0.00000000      582        3        0        0        0
W       65.36079216       0.15456295      19.13115902     183.84000005       0.00000000       0.00000000       0.00000000      583        3        0        0        0
W       21.80443370      29.78012415      18.89814962     183.84000005       0.00000000       0.00000000       0.00000000      584        3        0        0        0
W       24.52390655      28.11426325      18.88501649     183.84000005       0.00000000       0.00000000       0.00000000      585        3        0        0        0
W       27.24918606      26.45673779      18.87131253     183.84000005       0.00000000       0.00000000       0.00000000      586        3        0        0        0
W       29.98053251      24.80798053      18.86052792     183.84000005       0.00000000       0.00000000       0.00000000      587        3        0        0        0
W       32.71727799      23.16712962      18.85418021     183.84000005       0.00000000       0.00000000       0.00000000      588        3        0        0        0
W       35.45815726      21.53241360      18.85209226     183.84000005       0.00000000       0.00000000       0.00000000      589        3        0        0        0
W       38.20165599      19.90158199      18.85353714     183.84000005       0.00000000       0.00000000       0.00000000      590        3        0        0        0
W       40.94620108      18.27218997      18.85836712     183.84000005       0.00000000       0.00000000       0.00000000      591        3        0        0        0
W       43.69017291      16.64170434      18.86759869     183.84000005       0.00000000       0.00000000       0.00000000      592        3        0        0        0
W       46.43185362      15.00754516      18.88326489     183.84000005       0.00000000       0.00000000       0.00000000      593        3        0        0        0
W       49.16946391      13.36722587      18.90746804     183.84000005       0.00000000       0.00000000       0.00000000      594        3        0        0        0
W       51.90140001      11.71866920      18.94090648     183.84000005       0.00000000       0.00000000       0.00000000      595        3        0        0        0
W       54.62663497      10.06056379      18.98173637     183.84000005       0.00000000       0.00000000       0.00000000      596        3        0        0        0
W       57.34507825       8.39258851      19.02565804     183.84000005       0.00000000       0.00000000       0.00000000      597        3        0        0        0
W       60.05759430       6.71555012      19.06725020     183.84000005       0.00000000       0.00000000       0.00000000      598        3        0        0        0
W       62.76559828       5.03134615      19.10176202     183.84000005       0.00000000       0.00000000       0.00000000      599        3        0        0        0
W       65.47063417       3.34253993      19.12621172     183.84000005       0.00000000       0.00000000       0.00000000      600        3        0        0        0
W       68.17421806       1.65182986      19.13919508     183.84000005       0.00000000       0.00000000       0.00000000      601        3        0        0        0
W       21.85268260      32.99326564      18.90509856     183.84000005       0.00000000       0.00000000       0.00000000      602        3        0        0        0
W       24.56916814      31.32341102      18.89404080     183.84000005       0.00000000       0.00000000       0.00000000      603        3        0        0        0
W       27.29151982      29.66078552      18.88015389     183.84000005       0.00000000       0.00000000       0.00000000      604        3        0        0        0
W       30.02060526      28.00650516      18.86760445     183.84000005       0.00000000       0.00000000       0.00000000      605        3        0        0        0
W       32.75624950      26.36029920      18.85905415     183.84000005       0.00000000       0.00000000       0.00000000      606        3        0        0        0
W       35.49745364      24.72078314      18.85515219     183.84000005       0.00000000       0.00000000       0.00000000      607        3        0        0        0
W       38.24276758      23.08589102      18.85527986     183.84000005       0.00000000       0.00000000       0.00000000      608        3        0        0        0
W       40.99059196      21.45325730      18.85876015     183.84000005       0.00000000       0.00000000       0.00000000      609        3        0        0        0
W       43.73928072      19.82042116      18.86577659     183.84000005       0.00000000       0.00000000       0.00000000      610        3        0        0        0
W       46.48709448      18.18490741      18.87766755     183.84000005       0.00000000       0.00000000       0.00000000      611        3        0        0        0
W       49.23215009      16.54431796      18.89647785     183.84000005       0.00000000       0.00000000       0.00000000      612        3        0        0        0
W       51.97252483      14.89655050      18.92380046     183.84000005       0.00000000       0.00000000       0.00000000      613        3        0        0        0
W       54.70658906      13.24011299      18.95939802     183.84000005       0.00000000       0.00000000       0.00000000      614        3        0        0        0
W       57.43345846      11.57436424      19.00051872     183.84000005       0.00000000       0.00000000       0.00000000      615        3        0        0        0
W       60.15328105       9.89961421      19.04246807     183.84000005       0.00000000       0.00000000       0.00000000      616        3        0        0        0
W       62.86712109       8.21715759      19.08012072     183.84000005       0.00000000       0.00000000       0.00000000      617        3        0        0        0
W       65.57653802       6.52915294      19.10945058     183.84000005       0.00000000       0.00000000       0.00000000      618        3        0        0        0
W       68.28318906       4.83821475      19.12813351     183.84000005       0.00000000       0.00000000       0.00000000      619        3        0        0        0
W        1.93489449       3.14698360      19.13512258     183.84000005       0.00000000       0.00000000       0.00000000      620        3        1        0        0
W       24.61909667      34.53330340      18.90673649     183.84000005       0.00000000       0.00000000       0.00000000      621        3        0        0        0
W       27.33773803      32.86577599      18.89340235     183.84000005       0.00000000       0.00000000       0.00000000      622        3        0        0        0
W       30.06337596      31.20579708      18.87931223     183.84000005       0.00000000       0.00000000       0.00000000      623        3        0        0        0
W       32.79644981      29.55375058      18.86823995     183.84000005       0.00000000       0.00000000       0.00000000      624        3        0        0        0
W       35.53639459      27.90876969      18.86201430     183.84000005       0.00000000       0.00000000       0.00000000      625        3        0        0        0
W       38.28194069      26.26909456      18.86056360     183.84000005       0.00000000       0.00000000       0.00000000      626        3        0        0        0
W       41.03149398      24.63250635      18.86294585     183.84000005       0.00000000       0.00000000       0.00000000      627        3        0        0        0
W       43.78336978      22.99664199      18.86850207     183.84000005       0.00000000       0.00000000       0.00000000      628        3        0        0        0
W       46.53582304      21.35914414      18.87754979     183.84000005       0.00000000       0.00000000       0.00000000      629        3        0        0        0
W       49.28697756      19.71774536      18.89142884     183.84000005       0.00000000       0.00000000       0.00000000      630        3        0        0        0
W       52.03481144      18.07040194      18.91186080     183.84000005       0.00000000       0.00000000       0.00000000      631        3        0        0        0
W       54.77733691      16.41551687      18.93979411     183.84000005       0.00000000       0.00000000       0.00000000      632        3        0        0        0
W       57.51299521      14.75216725      18.97432432     183.84000005       0.00000000       0.00000000       0.00000000      633        3        0        0        0
W       60.24108573      13.08022760      19.01244148     183.84000005       0.00000000       0.00000000       0.00000000      634        3        0        0        0
W       62.96195685      11.40039206      19.04979825     183.84000005       0.00000000       0.00000000       0.00000000      635        3        0        0        0
W       65.67685281       9.71421130      19.08195800     183.84000005       0.00000000       0.00000000       0.00000000      636        3        0        0        0
W       68.38749385       8.02400351      19.10545261     183.84000005       0.00000000       0.00000000       0.00000000      637        3        0        0        0
W       71.09562181       6.33247050      19.11817917     183.84000005       0.00000000       0.00000000       0.00000000      638        3        0        0        0
W       24.67609100      37.74288434      18.92446740     183.84000005       0.00000000       0.00000000       0.00000000      639        3        0        0        0
W       27.39056097      36.07092348      18.91267500     183.84000005       0.00000000       0.00000000       0.00000000      640        3        0        0        0
W       30.11181954      34.40536761      18.89758004     183.84000005       0.00000000       0.00000000       0.00000000      641        3        0        0        0
W       32.84096013      32.74723984      18.88371893     183.84000005       0.00000000       0.00000000       0.00000000      642        3        0        0        0
W       35.57802069      31.09628402      18.87427523     183.84000005       0.00000000       0.00000000       0.00000000      643        3        0        0        0
W       38.32209860      29.45119018      18.87023357     183.84000005       0.00000000       0.00000000       0.00000000      644        3        0        0        0
W       41.07170388      27.80999709      18.87087192     183.84000005       0.00000000       0.00000000       0.00000000      645        3        0        0        0
W       43.82511412      26.17048939      18.87494276     183.84000005       0.00000000       0.00000000       0.00000000      646        3        0        0        0
W       46.58054366      24.53044118      18.88171911     183.84000005       0.00000000       0.00000000       0.00000000      647        3        0        0        0
W       49.33613031      22.88772943      18.89149578     183.84000005       0.00000000       0.00000000       0.00000000      648        3        0        0        0
W       52.08987277      21.24042020      18.90546360     183.84000005       0.00000000       0.00000000       0.00000000      649        3        0        0        0
W       54.83966775      19.58689811      18.92500756     183.84000005       0.00000000       0.00000000       0.00000000      650        3        0        0        0
W       57.58354501      17.92602676      18.95068916     183.84000005       0.00000000       0.00000000       0.00000000      651        3        0        0        0
W       60.32007372      16.25728236      18.98146368     183.84000005       0.00000000       0.00000000       0.00000000      652        3        0        0        0
W       63.04874143      14.58082146      19.01462566     183.84000005       0.00000000       0.00000000       0.00000000      653        3        0        0        0
W       65.77010355      12.89754392      19.04640228     183.84000005       0.00000000       0.00000000       0.00000000      654        3        0        0        0
W       68.48561295      11.20921372      19.07278698     183.84000005       0.00000000       0.00000000       0.00000000      655        3        0        0        0
W       71.19714710       9.51835945      19.09040949     183.84000005       0.00000000       0.00000000       0.00000000      656        3        0        0        0
W        4.85278370       7.82780221      19.09714022     183.84000005       0.00000000       0.00000000       0.00000000      657        3        1        0        0
W       27.45232514      39.27523811      18.93897307     183.84000005       0.00000000       0.00000000       0.00000000      658        3        0        0        0
W       30.16867352      37.60452253      18.92398209     183.84000005       0.00000000       0.00000000       0.00000000      659        3        0        0        0
W       32.89280195      35.94039181      18.90758629     183.84000005       0.00000000       0.00000000       0.00000000      660        3        0        0        0
W       35.62543928      34.28320860      18.89412762     183.84000005       0.00000000       0.00000000       0.00000000      661        3        0        0        0
W       38.36626145      32.63222929      18.88602368     183.84000005       0.00000000       0.00000000       0.00000000      662        3        0        0        0
W       41.11408176      30.98589297      18.88341110     183.84000005       0.00000000       0.00000000       0.00000000      663        3        0        0        0
W       43.86722539      29.34222358      18.88498016     183.84000005       0.00000000       0.00000000       0.00000000      664        3        0        0        0
W       46.62384707      27.69915783      18.88921883     183.84000005       0.00000000       0.00000000       0.00000000      665        3        0        0        0
W       49.38204915      26.05471941      18.89534594     183.84000005       0.00000000       0.00000000       0.00000000      666        3        0        0        0
W       52.13985533      24.40710022      18.90366345     183.84000005       0.00000000       0.00000000       0.00000000      667        3        0        0        0
W       54.89517529      22.75472533      18.91532920     183.84000005       0.00000000       0.00000000       0.00000000      668        3        0        0        0
W       57.64588434      21.09633443      18.93165868     183.84000005       0.00000000       0.00000000       0.00000000      669        3        0        0        0
W       60.39008844      19.43107384      18.95322475     183.84000005       0.00000000       0.00000000       0.00000000      670        3        0        0        0
W       63.12652286      17.75859668      18.97919252     183.84000005       0.00000000       0.00000000       0.00000000      671        3        0        0        0
W       65.85490216      16.07918820      19.00719091     183.84000005       0.00000000       0.00000000       0.00000000      672        3        0        0        0
W       68.57604418      14.39395301      19.03363924     183.84000005       0.00000000       0.00000000       0.00000000      673        3        0        0        0
W       71.29164176      12.70494908      19.05445481     183.84000005       0.00000000       0.00000000       0.00000000      674        3        0        0        0
W       74.00370797      11.01496265      19.06612899     183.84000005       0.00000000       0.00000000       0.00000000      675        3        0        0        0
W       27.52461947      42.47775097      18.97163070     183.84000005       0.00000000       0.00000000       0.00000000      676        3        0        0        0
W       30.23602353      40.80249576      18.95840347     183.84000005       0.00000000       0.00000000       0.00000000      677        3        0        0        0
W       32.95455452      39.13274705      18.94060078     183.84000005       0.00000000       0.00000000       0.00000000      678        3        0        0        0
W       35.68156399      37.46940756      18.92307666     183.84000005       0.00000000       0.00000000       0.00000000      679        3        0        0        0
W       38.41743743      35.81233041      18.90965123     183.84000005       0.00000000       0.00000000       0.00000000      680        3        0        0        0
W       41.16153647      34.16048138      18.90187360     183.84000005       0.00000000       0.00000000       0.00000000      681        3        0        0        0
W       43.91244057      32.51225243      18.89911407     183.84000005       0.00000000       0.00000000       0.00000000      682        3        0        0        0
W       46.66831929      30.86581085      18.89963876     183.84000005       0.00000000       0.00000000       0.00000000      683        3        0        0        0
W       49.42720881      29.21934166      18.90185000     183.84000005       0.00000000       0.00000000       0.00000000      684        3        0        0        0
W       52.18710138      27.57116035      18.90509949     183.84000005       0.00000000       0.00000000       0.00000000      685        3        0        0        0
W       54.94592672      25.91975428      18.90991605     183.84000005       0.00000000       0.00000000       0.00000000      686        3        0        0        0
W       57.70154758      24.26380726      18.91769148     183.84000005       0.00000000       0.00000000       0.00000000      687        3        0        0        0
W       60.45187310      22.60223265      18.92994211     183.84000005       0.00000000       0.00000000       0.00000000      688        3        0        0        0
W       63.19514374      20.93424671      18.94739341     183.84000005       0.00000000       0.00000000       0.00000000      689        3        0        0        0
W       65.93032468      19.25953674      18.96926246     183.84000005       0.00000000       0.00000000       0.00000000      690        3        0        0        0
W       68.65743977      17.57852747      18.99302014     183.84000005       0.00000000       0.00000000       0.00000000      691        3        0        0        0
W       71.37764081      15.89263623      19.01471611     183.84000005       0.00000000       0.00000000       0.00000000      692        3        0        0        0
W       74.09287360      14.20430323      19.02993764     183.84000005       0.00000000       0.00000000       0.00000000      693        3        0        0        0
W        7.75154027      12.51656930      19.03526524     183.84000005       0.00000000       0.00000000       0.00000000      694        3        1        0        0
W       30.31488322      43.99873239      18.99832474     183.84000005       0.00000000       0.00000000       0.00000000      695        3        0        0        0
W       33.02785462      42.32394812      18.98102656     183.84000005       0.00000000       0.00000000       0.00000000      696        3        0        0        0
W       35.74862687      40.65481085      18.96053643     183.84000005       0.00000000       0.00000000       0.00000000      697        3        0        0        0
W       38.47826678      38.99171667      18.94152112     183.84000005       0.00000000       0.00000000       0.00000000      698        3        0        0        0
W       41.21685123      37.33420693      18.92707136     183.84000005       0.00000000       0.00000000       0.00000000      699        3        0        0        0
W       43.96347698      35.68116175      18.91792829     183.84000005       0.00000000       0.00000000       0.00000000      700        3        0        0        0
W       46.71653337      34.03108568      18.91294383     183.84000005       0.00000000       0.00000000       0.00000000      701        3        0        0        0
W       49.47405614      32.38237335      18.91027345     183.84000005       0.00000000       0.00000000       0.00000000      702        3        0        0        0
W       52.23397157      30.73346756      18.90854001     183.84000005       0.00000000       0.00000000       0.00000000      703        3        0        0        0
W       54.99418042      29.08291700      18.90750575     183.84000005       0.00000000       0.00000000       0.00000000      704        3        0        0        0
W       57.75255773      27.42937973      18.90815651     183.84000005       0.00000000       0.00000000       0.00000000      705        3        0        0        0
W       60.50697704      25.77161358      18.91225050     183.84000005       0.00000000       0.00000000       0.00000000      706        3        0        0        0
W       63.25544850      24.10849837      18.92145904     183.84000005       0.00000000       0.00000000       0.00000000      707        3        0        0        0
W       65.99642039      22.43918082      18.93635852     183.84000005       0.00000000       0.00000000       0.00000000      708        3        0        0        0
W       68.72918160      20.76339185      18.95567342     183.84000005       0.00000000       0.00000000       0.00000000      709        3        0        0        0
W       71.45416281      19.08182506      18.97614896     183.84000005       0.00000000       0.00000000       0.00000000      710        3        0        0        0
W       74.17290088      17.39634718      18.99320126     183.84000005       0.00000000       0.00000000       0.00000000      711        3        0        0        0
W       76.88756990      15.70983103      19.00232827     183.84000005       0.00000000       0.00000000       0.00000000      712        3        0        0        0
W       30.40496775      47.19311177      19.03930192     183.84000005       0.00000000       0.00000000       0.00000000      713        3        0        0        0
W       33.11302930      45.51396721      19.02466087     183.84000005       0.00000000       0.00000000       0.00000000      714        3        0        0        0
W       35.82770286      43.83956771      19.00330034     183.84000005       0.00000000       0.00000000       0.00000000      715        3        0        0        0
W       38.55052268      42.17077612      18.97980932     183.84000005       0.00000000       0.00000000       0.00000000      716        3        0        0        0
W       41.28229289      40.50768823      18.95839134     183.84000005       0.00000000       0.00000000       0.00000000      717        3        0        0        0
W       44.02281899      38.84973005      18.94143055     183.84000005       0.00000000       0.00000000       0.00000000      718        3        0        0        0
W       46.77097510      37.19584986      18.92913407     183.84000005       0.00000000       0.00000000       0.00000000      719        3        0        0        0
W       49.52499195      35.54473695      18.92022001     183.84000005       0.00000000       0.00000000       0.00000000      720        3        0        0        0
W       52.28279522      33.89499330      18.91309788     183.84000005       0.00000000       0.00000000       0.00000000      721        3        0        0        0
W       55.04223518      32.24522535      18.90688593     183.84000005       0.00000000       0.00000000       0.00000000      722        3        0        0        0
W       57.80117508      30.59406548      18.90190608     183.84000005       0.00000000       0.00000000       0.00000000      723        3        0        0        0
W       60.55750424      28.94015201      18.89959206     183.84000005       0.00000000       0.00000000       0.00000000      724        3        0        0        0
W       63.30917476      27.28211328      18.90187709     183.84000005       0.00000000       0.00000000       0.00000000      725        3        0        0        0
W       66.05436416      25.61865799      18.91020631     183.84000005       0.00000000       0.00000000       0.00000000      726        3        0        0        0
W       68.79181311      23.94887284      18.92447396     183.84000005       0.00000000       0.00000000       0.00000000      727        3        0        0        0
W       71.52123720      22.27268746      18.94240105     183.84000005       0.00000000       0.00000000       0.00000000      728        3        0        0        0
W       74.24355037      20.59125650      18.95978586     183.84000005       0.00000000       0.00000000       0.00000000      729        3        0        0        0
W       76.96067137      18.90701559      18.97165583     183.84000005       0.00000000       0.00000000       0.00000000      730        3        0        0        0
W       10.62122480      17.22327053      18.97413283     183.84000005       0.00000000       0.00000000       0.00000000      731        3        1        0        0
W       33.20897692      48.70309049      19.06611825     183.84000005       0.00000000       0.00000000       0.00000000      732        3        0        0        0
W       35.91842655      47.02408862      19.04637091     183.84000005       0.00000000       0.00000000       0.00000000      733        3        0        0        0
W       38.63470803      45.35008519      19.02069422     183.84000005       0.00000000       0.00000000       0.00000000      734        3        0        0        0
W       41.35915873      43.68168621      18.99353796     183.84000005       0.00000000       0.00000000       0.00000000      735        3        0        0        0
W       44.09234271      42.01887770      18.96865337     183.84000005       0.00000000       0.00000000       0.00000000      736        3        0        0        0
W       46.83382447      40.36111675      18.94798463     183.84000005       0.00000000       0.00000000       0.00000000      737        3        0        0        0
W       49.58228864      38.70747738      18.93158342     183.84000005       0.00000000       0.00000000       0.00000000      738        3        0        0        0
W       52.33585056      37.05678285      18.91837333     183.84000005       0.00000000       0.00000000       0.00000000      739        3        0        0        0
W       55.09238596      35.40771105      18.90722332     183.84000005       0.00000000       0.00000000       0.00000000      740        3        0        0        0
W       57.84974702      33.75885777      18.89778552     183.84000005       0.00000000       0.00000000       0.00000000      741        3        0        0        0
W       60.60583862      32.10874325      18.89081328     183.84000005       0.00000000       0.00000000       0.00000000      742        3        0        0        0
W       63.35862659      30.45579359      18.88791557     183.84000005       0.00000000       0.00000000       0.00000000      743        3        0        0        0
W       66.10619099      28.79838349      18.89081280     183.84000005       0.00000000       0.00000000       0.00000000      744        3        0        0        0
W       68.84693935      27.13506853      18.90025543     183.84000005       0.00000000       0.00000000       0.00000000      745        3        0        0        0
W       71.57999840      25.46505356      18.91503062     183.84000005       0.00000000       0.00000000       0.00000000      746        3        0        0        0
W       74.30559929      23.78871196      18.93170060     183.84000005       0.00000000       0.00000000       0.00000000      747        3        0        0        0
W       77.02515746      22.10784802      18.94537872     183.84000005       0.00000000       0.00000000       0.00000000      748        3        0        0        0
W       79.74090128      20.42551820      18.95139157     183.84000005       0.00000000       0.00000000       0.00000000      749        3        0        0        0
W       33.31338384      51.89160667      19.10061441     183.84000005       0.00000000       0.00000000       0.00000000      750        3        0        0        0
W       36.01900880      50.20876773      19.08461911     183.84000005       0.00000000       0.00000000       0.00000000      751        3        0        0        0
W       38.72988094      48.53022086      19.05958294     183.84000005       0.00000000       0.00000000       0.00000000      752        3        0        0        0
W       41.44747992      46.85696067      19.02919766     183.84000005       0.00000000       0.00000000       0.00000000      753        3        0        0        0
W       44.17295359      45.18952163      18.99781193     183.84000005       0.00000000       0.00000000       0.00000000      754        3        0        0        0
W       46.90664524      43.52791575      18.96898582     183.84000005       0.00000000       0.00000000       0.00000000      755        3        0        0        0
W       49.64790930      41.87166956      18.94453891     183.84000005       0.00000000       0.00000000       0.00000000      756        3        0        0        0
W       52.39530100      40.21989552      18.92459756     183.84000005       0.00000000       0.00000000       0.00000000      757        3        0        0        0
W       55.14690734      38.57137900      18.90837072     183.84000005       0.00000000       0.00000000       0.00000000      758        3        0        0        0
W       57.90065117      36.92467708      18.89511437     183.84000005       0.00000000       0.00000000       0.00000000      759        3        0        0        0
W       60.65446969      35.27818363      18.88481482     183.84000005       0.00000000       0.00000000       0.00000000      760        3        0        0        0
W       63.40636407      33.63014476      18.87836988     183.84000005       0.00000000       0.00000000       0.00000000      761        3        0        0        0
W       66.15440876      31.97868230      18.87722705     183.84000005       0.00000000       0.00000000       0.00000000      762        3        0        0        0
W       68.89685163      30.32195081      18.88252783     183.84000005       0.00000000       0.00000000       0.00000000      763        3        0        0        0
W       71.63240610      28.65854319      18.89400334     183.84000005       0.00000000       0.00000000       0.00000000      764        3        0        0        0
W       74.36067496      26.98806515      18.90923209     183.84000005       0.00000000       0.00000000       0.00000000      765        3        0        0        0
W       77.08244183      25.31157562      18.92388311     183.84000005       0.00000000       0.00000000       0.00000000      766        3        0        0        0
W       79.79956969      23.63163484      18.93301088     183.84000005       0.00000000       0.00000000       0.00000000      767        3        0        0        0
W       13.46077978      21.95185339      18.93306750     183.84000005       0.00000000       0.00000000       0.00000000      768        3        1        0        0
W       33.42327515      55.07962104      19.12510710     183.84000005       0.00000000       0.00000000       0.00000000      769        3        0        0        0
W       36.12668318      53.39369997      19.11422876     183.84000005       0.00000000       0.00000000       0.00000000      770        3        0        0        0
W       38.83380075      51.71142663      19.09237932     183.84000005       0.00000000       0.00000000       0.00000000      771        3        0        0        0
W       41.54593159      50.03399664      19.06192148     183.84000005       0.00000000       0.00000000       0.00000000      772        3        0        0        0
W       44.26437614      48.36236049      19.02674920     183.84000005       0.00000000       0.00000000       0.00000000      773        3        0        0        0
W       46.99009489      46.69709848      18.99137884     183.84000005       0.00000000       0.00000000       0.00000000      774        3        0        0        0
W       49.72323983      45.03825370      18.95940546     183.84000005       0.00000000       0.00000000       0.00000000      775        3        0        0        0
W       52.46302740      43.38528449      18.93257974     183.84000005       0.00000000       0.00000000       0.00000000      776        3        0        0        0
W       55.20798280      41.73712804      18.91101997     183.84000005       0.00000000       0.00000000       0.00000000      777        3        0        0        0
W       57.95626622      40.09232370      18.89406102     183.84000005       0.00000000       0.00000000       0.00000000      778        3        0        0        0
W       60.70592865      38.44914140      18.88112861     183.84000005       0.00000000       0.00000000       0.00000000      779        3        0        0        0
W       63.45504240      36.80566045      18.87229093     183.84000005       0.00000000       0.00000000       0.00000000      780        3        0        0        0
W       66.20172991      35.15980661      18.86833619     183.84000005       0.00000000       0.00000000       0.00000000      781        3        0        0        0
W       68.94419763      33.50945203      18.87030921     183.84000005       0.00000000       0.00000000       0.00000000      782        3        0        0        0
W       71.68091256      31.85272416      18.87856878     183.84000005       0.00000000       0.00000000       0.00000000      783        3        0        0        0
W       74.41097138      30.18854925      18.89177225     183.84000005       0.00000000       0.00000000       0.00000000      784        3        0        0        0
W       77.13450611      28.51720845      18.90652216     183.84000005       0.00000000       0.00000000       0.00000000      785        3        0        0        0
W       79.85283058      26.84059185      18.91811875     183.84000005       0.00000000       0.00000000       0.00000000      786        3        0        0        0
W       82.56815546      25.16197838      18.92225762     183.84000005       0.00000000       0.00000000       0.00000000      787        3        0        0        0
W       36.23832540      56.57878885      19.13306829     183.84000005       0.00000000       0.00000000       0.00000000      788        3        0        0        0
W       38.94343458      54.89357434      19.11612349     183.84000005       0.00000000       0.00000000       0.00000000      789        3        0        0        0
W       41.65195513      53.21282163      19.08850985     183.84000005       0.00000000       0.00000000       0.00000000      790        3        0        0        0
W       44.36499124      51.53768279      19.05297782     183.84000005       0.00000000       0.00000000       0.00000000      791        3        0        0        0
W       47.08366241      49.86916878      19.01393222     183.84000005       0.00000000       0.00000000       0.00000000      792        3        0        0        0
W       49.80876485      48.20786425      18.97618827     183.84000005       0.00000000       0.00000000       0.00000000      793        3        0        0        0
W       52.54031768      46.55363977      18.94320215     183.84000005       0.00000000       0.00000000       0.00000000      794        3        0        0        0
W       55.27748594      44.90563242      18.91638419     183.84000005       0.00000000       0.00000000       0.00000000      795        3        0        0        0
W       58.01885549      43.26240067      18.89562682     183.84000005       0.00000000       0.00000000       0.00000000      796        3        0        0        0
W       60.76273578      41.62211309      18.88019631     183.84000005       0.00000000       0.00000000       0.00000000      797        3        0        0        0
W       63.50735826      39.98269920      18.86949466     183.84000005       0.00000000       0.00000000       0.00000000      798        3        0        0        0
W       66.25095744      38.34193078      18.86351434     183.84000005       0.00000000       0.00000000       0.00000000      799        3        0        0        0
W       68.99179023      36.69749431      18.86283209     183.84000005       0.00000000       0.00000000       0.00000000      800        3        0        0        0
W       71.72822205      35.04719954      18.86802973     183.84000005       0.00000000       0.00000000       0.00000000      801        3        0        0        0
W       74.45899598      33.38942979      18.87868959     183.84000005       0.00000000       0.00000000       0.00000000      802        3        0        0        0
W       77.18365537      31.72372952      18.89256467     183.84000005       0.00000000       0.00000000       0.00000000      803        3        0        0        0
W       79.90287404      30.05122673      18.90566480     183.84000005       0.00000000       0.00000000       0.00000000      804        3        0        0        0
W       82.61842918      28.37464201      18.91345159     183.84000005       0.00000000       0.00000000       0.00000000      805        3        0        0        0
W       16.27905431      26.69779019      18.91279474     183.84000005       0.00000000       0.00000000       0.00000000      806        3        1        0        0
W       36.35089691      59.76396548      19.14015173     183.84000005       0.00000000       0.00000000       0.00000000      807        3        0        0        0
W       39.05555347      58.07646979      19.12899607     183.84000005       0.00000000       0.00000000       0.00000000      808        3        0        0        0
W       41.76228146      56.39316876      19.10622847     183.84000005       0.00000000       0.00000000       0.00000000      809        3        0        0        0
W       44.47192561      54.71533923      19.07350965     183.84000005       0.00000000       0.00000000       0.00000000      810        3        0        0        0
W       47.18540346      53.04419841      19.03435970     183.84000005       0.00000000       0.00000000       0.00000000      811        3        0        0        0
W       49.90368724      51.38074145      18.99378534     183.84000005       0.00000000       0.00000000       0.00000000      812        3        0        0        0
W       52.62743850      49.72528423      18.95649173     183.84000005       0.00000000       0.00000000       0.00000000      813        3        0        0        0
W       55.35656998      48.07723509      18.92529021     183.84000005       0.00000000       0.00000000       0.00000000      814        3        0        0        0
W       58.09025088      46.43522419      18.90096820     183.84000005       0.00000000       0.00000000       0.00000000      815        3        0        0        0
W       60.82720187      44.79735667      18.88303806     183.84000005       0.00000000       0.00000000       0.00000000      816        3        0        0        0
W       63.56594185      43.16143922      18.87057365     183.84000005       0.00000000       0.00000000       0.00000000      817        3        0        0        0
W       66.30491418      41.52512359      18.86289785     183.84000005       0.00000000       0.00000000       0.00000000      818        3        0        0        0
W       69.04252402      39.88598179      18.85996788     183.84000005       0.00000000       0.00000000       0.00000000      819        3        0        0        0
W       71.77717275      38.24163417      18.86223888     183.84000005       0.00000000       0.00000000       0.00000000      820        3        0        0        0
W       74.50742184      36.59007620      18.86991441     183.84000005       0.00000000       0.00000000       0.00000000      821        3        0        0        0
W       77.23235554      34.93021697      18.88190451     183.84000005       0.00000000       0.00000000       0.00000000      822        3        0        0        0
W       79.95200909      33.26240803      18.89527276     183.84000005       0.00000000       0.00000000       0.00000000      823        3        0        0        0
W       82.66757551      31.58866187      18.90577801     183.84000005       0.00000000       0.00000000       0.00000000      824        3        0        0        0
W       85.38119596      29.91240056      18.90945719     183.84000005       0.00000000       0.00000000       0.00000000      825        3        0        0        0
W       41.87359899      59.57482093      19.11312938     183.84000005       0.00000000       0.00000000       0.00000000      826        3        0        0        0
W       44.58169707      57.89498589      19.08533549     183.84000005       0.00000000       0.00000000       0.00000000      827        3        0        0        0
W       47.29212754      56.22189446      19.04928172     183.84000005       0.00000000       0.00000000       0.00000000      828        3        0        0        0
W       50.00567716      54.55674049      19.00938801     183.84000005       0.00000000       0.00000000       0.00000000      829        3        0        0        0
W       52.72318763      52.90017918      18.97069796     183.84000005       0.00000000       0.00000000       0.00000000      830        3        0        0        0
W       55.44513355      51.25193665      18.93705164     183.84000005       0.00000000       0.00000000       0.00000000      831        3        0        0        0
W       58.17131714      49.61079625      18.91022183     183.84000005       0.00000000       0.00000000       0.00000000      832        3        0        0        0
W       60.90097502      47.97485734      18.89024453     183.84000005       0.00000000       0.00000000       0.00000000      833        3        0        0        0
W       63.63302584      46.34184150      18.87620455     183.84000005       0.00000000       0.00000000       0.00000000      834        3        0        0        0
W       66.36623012      44.70930966      18.86703099     183.84000005       0.00000000       0.00000000       0.00000000      835        3        0        0        0
W       69.09924931      43.07476537      18.86213299     183.84000005       0.00000000       0.00000000       0.00000000      836        3        0        0        0
W       71.83066004      41.43573359      18.86164843     183.84000005       0.00000000       0.00000000       0.00000000      837        3        0        0        0
W       74.55903111      39.78996730      18.86607313     183.84000005       0.00000000       0.00000000       0.00000000      838        3        0        0        0
W       77.28318111      38.13588059      18.87529533     183.84000005       0.00000000       0.00000000       0.00000000      839        3        0        0        0
W       80.00260653      36.47310447      18.88760323     183.84000005       0.00000000       0.00000000       0.00000000      840        3        0        0        0
W       82.71785856      34.80287640      18.89951926     183.84000005       0.00000000       0.00000000       0.00000000      841        3        0        0        0
W       85.43058839      33.12802464      18.90681235     183.84000005       0.00000000       0.00000000       0.00000000      842        3        0        0        0
W       19.08946900      31.45244128      18.90640141     183.84000005       0.00000000       0.00000000       0.00000000      843        3        1        0        0
W       47.40017288      59.40188377      19.05534022     183.84000005       0.00000000       0.00000000       0.00000000      844        3        0        0        0
W       50.11122142      57.73547227      19.01904689     183.84000005       0.00000000       0.00000000       0.00000000      845        3        0        0        0
W       52.82476730      56.07801996      18.98218109     183.84000005       0.00000000       0.00000000       0.00000000      846        3        0        0        0
W       55.54141478      54.42949775      18.94887173     183.84000005       0.00000000       0.00000000       0.00000000      847        3        0        0        0
W       58.26138267      52.78889621      18.92154963     183.84000005       0.00000000       0.00000000       0.00000000      848        3        0        0        0
W       60.98440501      51.15439357      18.90081766     183.84000005       0.00000000       0.00000000       0.00000000      849        3        0        0        0
W       63.70984520      49.52368504      18.88599640     183.84000005       0.00000000       0.00000000       0.00000000      850        3        0        0        0
W       66.43684697      47.89427365      18.87589653     183.84000005       0.00000000       0.00000000       0.00000000      851        3        0        0        0
W       69.16441216      46.26362154      18.86956317     183.84000005       0.00000000       0.00000000       0.00000000      852        3        0        0        0
W       71.89141160      44.62921194      18.86678283     183.84000005       0.00000000       0.00000000       0.00000000      853        3        0        0        0
W       74.61660512      42.98866652      18.86808357     183.84000005       0.00000000       0.00000000       0.00000000      854        3        0        0        0
W       77.33878253      41.34005429      18.87404507     183.84000005       0.00000000       0.00000000       0.00000000      855        3        0        0        0
W       80.05710462      39.68239834      18.88416060     183.84000005       0.00000000       0.00000000       0.00000000      856        3        0        0        0
W       82.77154529      38.01617134      18.89606018     183.84000005       0.00000000       0.00000000       0.00000000      857        3        0        0        0
W       85.48315860      36.34348912      18.90582561     183.84000005       0.00000000       0.00000000       0.00000000      858        3        0        0        0
W       88.19394785      34.66783507      18.90948192     183.84000005       0.00000000       0.00000000       0.00000000      859        3        0        0        0
W       52.92831910      59.25842638      18.98675737     183.84000005       0.00000000       0.00000000       0.00000000      860        3        0        0        0
W       55.64206510      57.60958096      18.95649062     183.84000005       0.00000000       0.00000000       0.00000000      861        3        0        0        0
W       58.35797796      55.96923507      18.93119221     183.84000005       0.00000000       0.00000000       0.00000000      862        3        0        0        0
W       61.07604665      54.33569365      18.91173487     183.84000005       0.00000000       0.00000000       0.00000000      863        3        0        0        0
W       63.79599306      52.70670131      18.89767991     183.84000005       0.00000000       0.00000000       0.00000000      864        3        0        0        0
W       66.51732867      51.07975448      18.88789738     183.84000005       0.00000000       0.00000000       0.00000000      865        3        0        0        0
W       69.23941250      49.45229747      18.88126020     183.84000005       0.00000000       0.00000000       0.00000000      866        3        0        0        0
W       71.96146613      47.82179804      18.87725298     183.84000005       0.00000000       0.00000000       0.00000000      867        3        0        0        0
W       74.68256671      46.18581377      18.87625447     183.84000005       0.00000000       0.00000000       0.00000000      868        3        0        0        0
W       77.40169405      44.54219560      18.87920261     183.84000005       0.00000000       0.00000000       0.00000000      869        3        0        0        0
W       80.11794105      42.88949963      18.88658784     183.84000005       0.00000000       0.00000000       0.00000000      870        3        0        0        0
W       82.83090333      41.22751037      18.89730998     183.84000005       0.00000000       0.00000000       0.00000000      871        3        0        0        0
W       85.54106841      39.55759726      18.90828354     183.84000005       0.00000000       0.00000000       0.00000000      872        3        0        0        0
W       88.24992778      37.88267125      18.91529023     183.84000005       0.00000000       0.00000000       0.00000000      873        3        0        0        0
W       21.90598682      36.20661352      18.91494635     183.84000005       0.00000000       0.00000000       0.00000000      874        3        1        0        0
W       58.45717207      59.15157957      18.93489863     183.84000005       0.00000000       0.00000000       0.00000000      875        3        0        0        0
W       61.17264132      57.51856332      18.91876605     183.84000005       0.00000000       0.00000000       0.00000000      876        3        0        0        0
W       63.88911709      55.89071791      18.90737540     183.84000005       0.00000000       0.00000000       0.00000000      877        3        0        0        0
W       66.60633438      54.26558458      18.89964307     183.84000005       0.00000000       0.00000000       0.00000000      878        3        0        0        0
W       69.32393376      52.64062514      18.89439383     183.84000005       0.00000000       0.00000000       0.00000000      879        3        0        0        0
W       72.04145619      51.01331030      18.89089580     183.84000005       0.00000000       0.00000000       0.00000000      880        3        0        0        0
W       74.75832290      49.38116944      18.88926772     183.84000005       0.00000000       0.00000000       0.00000000      881        3        0        0        0
W       77.47382992      47.74192339      18.89046618     183.84000005       0.00000000       0.00000000       0.00000000      882        3        0        0        0
W       80.18723982      46.09379894      18.89559594     183.84000005       0.00000000       0.00000000       0.00000000      883        3        0        0        0
W       82.89804392      44.43601237      18.90472451     183.84000005       0.00000000       0.00000000       0.00000000      884        3        0        0        0
W       85.60634401      42.76922390      18.91594498     183.84000005       0.00000000       0.00000000       0.00000000      885        3        0        0        0
W       88.31312465      41.09569255      18.92547189     183.84000005       0.00000000       0.00000000       0.00000000      886        3        0        0        0
W       91.02018766      39.41893876      18.92909036     183.84000005       0.00000000       0.00000000       0.00000000      887        3        0        0        0
W       63.98521683      59.07569835      18.91106754     183.84000005       0.00000000       0.00000000       0.00000000      888        3        0        0        0
W       66.70060137      57.45175068      18.90692246     183.84000005       0.00000000       0.00000000       0.00000000      889        3        0        0        0
W       69.41564522      55.82860164      18.90479653     183.84000005       0.00000000       0.00000000       0.00000000      890        3        0        0        0
W       72.13007636      54.20374121      18.90381193     183.84000005       0.00000000       0.00000000       0.00000000      891        3        0        0        0
W       74.84358037      52.57469040      18.90378981     183.84000005       0.00000000       0.00000000       0.00000000      892        3        0        0        0
W       77.55576962      50.93909359      18.90542511     183.84000005       0.00000000       0.00000000       0.00000000      893        3        0        0        0
W       80.26619686      49.29496046      18.90995536     183.84000005       0.00000000       0.00000000       0.00000000      894        3        0        0        0
W       82.97448302      47.64107664      18.91821768     183.84000005       0.00000000       0.00000000       0.00000000      895        3        0        0        0
W       85.68059837      45.97748170      18.92949961     183.84000005       0.00000000       0.00000000       0.00000000      896        3        0        0        0
W       88.38517426      44.30577726      18.94096644     183.84000005       0.00000000       0.00000000       0.00000000      897        3        0        0        0
W       91.08960044      42.62901047      18.94834400     183.84000005       0.00000000       0.00000000       0.00000000      898        3        0        0        0
W       24.74211368      40.95097128      18.94795982     183.84000005       0.00000000       0.00000000       0.00000000      899        3        1        0        0
W       69.51051772      59.01634775      18.90852148     183.84000005       0.00000000       0.00000000       0.00000000      900        3        0        0        0
W       72.22408297      57.39324307      18.91152935     183.84000005       0.00000000       0.00000000       0.00000000      901        3        0        0        0
W       74.93604920      55.76654226      18.91519378     183.84000005       0.00000000       0.00000000       0.00000000      902        3        0        0        0
W       77.64622281      54.13383705      18.91978361     183.84000005       0.00000000       0.00000000       0.00000000      903        3        0        0        0
W       80.35442249      52.49299422      18.92621787     183.84000005       0.00000000       0.00000000       0.00000000      904        3        0        0        0
W       83.06050905      50.84249990      18.93550477     183.84000005       0.00000000       0.00000000       0.00000000      905        3        0        0        0
W       85.76453179      49.18189712      18.94774700     183.84000005       0.00000000       0.00000000       0.00000000      906        3        0        0        0
W       88.46698183      47.51218095      18.96120314     183.84000005       0.00000000       0.00000000       0.00000000      907        3        0        0        0
W       91.16896246      45.83587882      18.97220015     183.84000005       0.00000000       0.00000000       0.00000000      908        3        0        0        0
W       93.87209794      44.15653141      18.97650399     183.84000005       0.00000000       0.00000000       0.00000000      909        3        0        0        0
W       75.03177076      58.95697823      18.91923868     183.84000005       0.00000000       0.00000000       0.00000000      910        3        0        0        0
W       77.74203358      57.32646208      18.92864827     183.84000005       0.00000000       0.00000000       0.00000000      911        3        0        0        0
W       80.44966183      55.68820562      18.93949668     183.84000005       0.00000000       0.00000000       0.00000000      912        3        0        0        0
W       83.15471595      54.04048576      18.95234743     183.84000005       0.00000000       0.00000000       0.00000000      913        3        0        0        0
W       85.85741644      52.38248629      18.96743084     183.84000005       0.00000000       0.00000000       0.00000000      914        3        0        0        0
W       88.55828253      50.71469074      18.98376966     183.84000005       0.00000000       0.00000000       0.00000000      915        3        0        0        0
W       91.25829455      49.03911436      18.99856593     183.84000005       0.00000000       0.00000000       0.00000000      916        3        0        0        0
W       93.95886547      47.35897979      19.00777821     183.84000005       0.00000000       0.00000000       0.00000000      917        3        0        0        0
W       27.60797022      45.67782901      19.00799410     183.84000005       0.00000000       0.00000000       0.00000000      918        3        1        0        0
W       80.54812748      58.88097829      18.94514778     183.84000005       0.00000000       0.00000000       0.00000000      919        3        0        0        0
W       83.25403752      57.23546541      18.96373462     183.84000005       0.00000000       0.00000000       0.00000000      920        3        0        0        0
W       85.95690699      55.57963511      18.98390000     183.84000005       0.00000000       0.00000000       0.00000000      921        3        0        0        0
W       88.65734985      53.91357628      19.00470151     183.84000005       0.00000000       0.00000000       0.00000000      922        3        0        0        0
W       91.35633651      52.23884007      19.02397542     183.84000005       0.00000000       0.00000000       0.00000000      923        3        0        0        0
W       94.05518454      50.55829866      19.03827184     183.84000005       0.00000000       0.00000000       0.00000000      924        3        0        0        0
W       96.75541383      48.87535723      19.04404292     183.84000005       0.00000000       0.00000000       0.00000000      925        3        0        0        0
W       86.05940726      58.77379239      18.99256197     183.84000005       0.00000000       0.00000000       0.00000000      926        3        0        0        0
W       88.76111330      57.10930602      19.01945683     183.84000005       0.00000000       0.00000000       0.00000000      927        3        0        0        0
W       91.46051203      55.43549114      19.04425970     183.84000005       0.00000000       0.00000000       0.00000000      928        3        0        0        0
W       94.15888529      53.75485703      19.06399923     183.84000005       0.00000000       0.00000000       0.00000000      929        3        0        0        0
W       96.85767745      52.07062345      19.07547340     183.84000005       0.00000000       0.00000000       0.00000000      930        3        0        0        0
W       30.50470922      50.38587477      19.07636163     183.84000005       0.00000000       0.00000000       0.00000000      931        3        1        0        0
W       91.56737711      58.62944473      19.05568950     183.84000005       0.00000000       0.00000000       0.00000000      932        3        0        0        0
W       94.26684481      56.94904487      19.08139132     183.84000005       0.00000000       0.00000000       0.00000000      933        3        0        0        0
W       96.96563477      55.26399124      19.09870281     183.84000005       0.00000000       0.00000000       0.00000000      934        3        0        0        0
W       99.66521926      53.57732538      19.10545203     183.84000005       0.00000000       0.00000000       0.00000000      935        3        0        0        0
W       97.07603961      58.45565289      19.11140631     183.84000005       0.00000000       0.00000000       0.00000000      936        3        0        0        0
W       99.77599021      56.76763649      19.12410693     183.84000005       0.00000000       0.00000000       0.00000000      937        3        0        0        0
W      102.58926045      58.26712840      19.13815630     183.84000005       0.00000000       0.00000000       0.00000000      938        3        0        0        0
S        2.70031531       1.68589469      13.93167152      32.06000001       0.00000000       0.00000000       0.00000000      939        2        0        0        0
S        2.70941356       1.69030225      10.78991537      32.06000001       0.00000000       0.00000000       0.00000000      940        2        0        0       -1
S        5.51006652       0.19424273      13.94308316      32.06000001       0.00000000       0.00000000       0.00000000      941        2        0        0        0
S        5.52912165       0.19191302      10.80139373      32.06000001       0.00000000       0.00000000       0.00000000      942        2        0        0       -1
S       71.64117954       4.86691690      13.94303509      32.06000001       0.00000000       0.00000000       0.00000000      943        2       -1        0        0
S       71.65069913       4.88325575      10.80134153      32.06000001       0.00000000       0.00000000       0.00000000      944        2       -1        0       -1
S        5.39628699       3.37701936      13.94815980      32.06000001       0.00000000       0.00000000       0.00000000      945        2        0        0        0
S        5.41577904       3.38652987      10.80644767      32.06000001       0.00000000       0.00000000       0.00000000      946        2        0        0       -1
S        8.20462533       1.88237970      13.96518549      32.06000001       0.00000000       0.00000000       0.00000000      947        2        0        0        0
S        8.23320049       1.88529119      10.82355061      32.06000001       0.00000000       0.00000000       0.00000000      948        2        0        0       -1
S       11.01271071       0.38096971      13.99245649      32.06000001       0.00000000       0.00000000       0.00000000      949        2        0        0        0
S       11.04788304       0.37772493      10.85096713      32.06000001       0.00000000       0.00000000       0.00000000      950        2        0        0       -1
S        5.28714465       6.55854929      13.96532888      32.06000001       0.00000000       0.00000000       0.00000000      951        2        0        0        0
S        5.30654181       6.57924319      10.82368208      32.06000001       0.00000000       0.00000000       0.00000000      952        2        0        0       -1
S        8.09458507       5.06539593      13.97621006      32.06000001       0.00000000       0.00000000       0.00000000      953        2        0        0        0
S        8.12331132       5.07952723      10.83453886      32.06000001       0.00000000       0.00000000       0.00000000      954        2        0        0       -1
S       10.90229910       3.56567122      13.99766182      32.06000001       0.00000000       0.00000000       0.00000000      955        2        0        0        0
S       10.93822502       3.57364155      10.85605399      32.06000001       0.00000000       0.00000000       0.00000000      956        2        0        0       -1
S       13.71085859       2.05719881      14.02654205      32.06000001       0.00000000       0.00000000       0.00000000      957        2        0        0        0
S       13.75004420       2.05956573      10.88507566      32.06000001       0.00000000       0.00000000       0.00000000      958        2        0        0       -1
S       16.52066060       0.53812974      14.05836712      32.06000001       0.00000000       0.00000000       0.00000000      959        2        0        0        0
S       16.55823712       0.53559687      10.91715724      32.06000001       0.00000000       0.00000000       0.00000000      960        2        0        0       -1
S        7.99073125       8.24683960      13.99824699      32.06000001       0.00000000       0.00000000       0.00000000      961        2        0        0        0
S        8.01860212       8.27036333      10.85661758      32.06000001       0.00000000       0.00000000       0.00000000      962        2        0        0       -1
S       10.79750008       6.74844770      14.01400097      32.06000001       0.00000000       0.00000000       0.00000000      963        2        0        0        0
S       10.83318616       6.76598475      10.87235836      32.06000001       0.00000000       0.00000000       0.00000000      964        2        0        0       -1
S       13.60534568       5.24140349      14.03773463      32.06000001       0.00000000       0.00000000       0.00000000      965        2        0        0        0
S       13.64522456       5.25364071      10.89619334      32.06000001       0.00000000       0.00000000       0.00000000      966        2        0        0       -1
S       16.41477093       3.72365277      14.06497899      32.06000001       0.00000000       0.00000000       0.00000000      967        2        0        0        0
S       16.45401316       3.73134254      10.92367546      32.06000001       0.00000000       0.00000000       0.00000000      968        2        0        0       -1
S       19.22572238       2.19417242      14.09124017      32.06000001       0.00000000       0.00000000       0.00000000      969        2        0        0        0
S       19.25991717       2.19789565      10.95028339      32.06000001       0.00000000       0.00000000       0.00000000      970        2        0        0       -1
S       22.03751005       0.65329737      14.11357363      32.06000001       0.00000000       0.00000000       0.00000000      971        2        0        0        0
S       22.06407026       0.65334728      10.97298383      32.06000001       0.00000000       0.00000000       0.00000000      972        2        0        0       -1
S        7.89508461      11.42696331      14.02861318      32.06000001       0.00000000       0.00000000       0.00000000      973        2        0        0        0
S        7.92053311      11.45650180      10.88711688      32.06000001       0.00000000       0.00000000       0.00000000      974        2        0        0       -1
S       10.70075392       9.92954450      14.03887231      32.06000001       0.00000000       0.00000000       0.00000000      975        2        0        0        0
S       10.73447725       9.95331777      10.89730315      32.06000001       0.00000000       0.00000000       0.00000000      976        2        0        0       -1
S       13.50749964       8.42395829      14.05776221      32.06000001       0.00000000       0.00000000       0.00000000      977        2        0        0        0
S       13.54644863       8.44271890      10.91626780      32.06000001       0.00000000       0.00000000       0.00000000      978        2        0        0       -1
S       16.31580764       6.90766631      14.08094573      32.06000001       0.00000000       0.00000000       0.00000000      979        2        0        0        0
S       16.35529737       6.92248486      10.93968064      32.06000001       0.00000000       0.00000000       0.00000000      980        2        0        0       -1
S       19.12576510       5.37934840      14.10360837      32.06000001       0.00000000       0.00000000       0.00000000      981        2        0        0        0
S       19.16114969       5.39107651      10.96267374      32.06000001       0.00000000       0.00000000       0.00000000      982        2        0        0       -1
S       21.93688310       3.83920050      14.12230158      32.06000001       0.00000000       0.00000000       0.00000000      983        2        0        0        0
S       21.96514622       3.84813967      10.98170711      32.06000001       0.00000000       0.00000000       0.00000000      984        2        0        0       -1
S       24.74839394       2.28873008      14.13587887      32.06000001       0.00000000       0.00000000       0.00000000      985        2        0        0        0
S       24.76878160       2.29466321      10.99557218      32.06000001       0.00000000       0.00000000       0.00000000      986        2        0        0       -1
S       27.55970282       0.73024004      14.14524350      32.06000001       0.00000000       0.00000000       0.00000000      987        2        0        0        0
S       27.57323999       0.73274870      11.00515823      32.06000001       0.00000000       0.00000000       0.00000000      988        2        0        0       -1
S       10.61397737      13.10880720      14.06810494      32.06000001       0.00000000       0.00000000       0.00000000      989        2        0        0        0
S       10.64347012      13.13463200      10.92677736      32.06000001       0.00000000       0.00000000       0.00000000      990        2        0        0       -1
S       13.41963228      11.60473020      14.08236095      32.06000001       0.00000000       0.00000000       0.00000000      991        2        0        0        0
S       13.45531391      11.62562137      10.94107369      32.06000001       0.00000000       0.00000000       0.00000000      992        2        0        0       -1
S       16.22658862      10.09033423      14.10200355      32.06000001       0.00000000       0.00000000       0.00000000      993        2        0        0        0
S       16.26419883      10.10763492      10.96092985      32.06000001       0.00000000       0.00000000       0.00000000      994        2        0        0       -1
S       19.03496047       8.56371860      14.12203048      32.06000001       0.00000000       0.00000000       0.00000000      995        2        0        0        0
S       19.06973958       8.57881322      10.98127276      32.06000001       0.00000000       0.00000000       0.00000000      996        2        0        0       -1
S       21.84436178       7.02470263      14.13833517      32.06000001       0.00000000       0.00000000       0.00000000      997        2        0        0        0
S       21.87286399       7.03838791      10.99789102      32.06000001       0.00000000       0.00000000       0.00000000      998        2        0        0       -1
S       24.65414227       5.47468056      14.14908244      32.06000001       0.00000000       0.00000000       0.00000000      999        2        0        0        0
S       24.67517802       5.48694403      11.00888682      32.06000001       0.00000000       0.00000000       0.00000000     1000        2        0        0       -1
S       27.46385159       3.91605458      14.15482002      32.06000001       0.00000000       0.00000000       0.00000000     1001        2        0        0        0
S       27.47820158       3.92627888      11.01479297      32.06000001       0.00000000       0.00000000       0.00000000     1002        2        0        0       -1
S       30.27354821       2.35159518      14.15747798      32.06000001       0.00000000       0.00000000       0.00000000     1003        2        0        0        0
S       30.28284464       2.35898421      11.01755791      32.06000001       0.00000000       0.00000000       0.00000000     1004        2        0        0       -1
S       33.08379358       0.78404586      14.15900975      32.06000001       0.00000000       0.00000000       0.00000000     1005        2        0        0        0
S       33.08932605       0.78802427      11.01916604      32.06000001       0.00000000       0.00000000       0.00000000     1006        2        0        0       -1
S       10.53809801      16.28575027      14.09715711      32.06000001       0.00000000       0.00000000       0.00000000     1007        2        0        0        0
S       10.56127878      16.30987286      10.95623297      32.06000001       0.00000000       0.00000000       0.00000000     1008        2        0        0       -1
S       13.34292092      14.78300669      14.10685365      32.06000001       0.00000000       0.00000000       0.00000000     1009        2        0        0        0
S       13.37290872      14.80209042      10.96591679      32.06000001       0.00000000       0.00000000       0.00000000     1010        2        0        0       -1
S       16.14867156      13.27092529      14.12314804      32.06000001       0.00000000       0.00000000       0.00000000     1011        2        0        0        0
S       16.18203583      13.28633265      10.98238095      32.06000001       0.00000000       0.00000000       0.00000000     1012        2        0        0       -1
S       18.95537907      11.74681084      14.14124555      32.06000001       0.00000000       0.00000000       0.00000000     1013        2        0        0        0
S       18.98750560      11.76040507      11.00076781      32.06000001       0.00000000       0.00000000       0.00000000     1014        2        0        0       -1
S       21.76267148      10.20983443      14.15650000      32.06000001       0.00000000       0.00000000       0.00000000     1015        2        0        0        0
S       21.78975627      10.22311569      11.01631545      32.06000001       0.00000000       0.00000000       0.00000000     1016        2        0        0       -1
S       24.56992766       8.66102595      14.16621378      32.06000001       0.00000000       0.00000000       0.00000000     1017        2        0        0        0
S       24.59027709       8.67460908      11.02625612      32.06000001       0.00000000       0.00000000       0.00000000     1018        2        0        0       -1
S       27.37675816       7.10273339      14.17022029      32.06000001       0.00000000       0.00000000       0.00000000     1019        2        0        0        0
S       27.39080233       7.11632719      11.03039636      32.06000001       0.00000000       0.00000000       0.00000000     1020        2        0        0       -1
S       30.18336256       5.53786636      14.17013677      32.06000001       0.00000000       0.00000000       0.00000000     1021        2        0        0        0
S       30.19263378       5.55062262      11.03036272      32.06000001       0.00000000       0.00000000       0.00000000     1022        2        0        0       -1
S       32.99052885       3.96935656      14.16800338      32.06000001       0.00000000       0.00000000       0.00000000     1023        2        0        0        0
S       32.99638927       3.98030467      11.02823034      32.06000001       0.00000000       0.00000000       0.00000000     1024        2        0        0       -1
S       35.79936213       2.39998824      14.16514260      32.06000001       0.00000000       0.00000000       0.00000000     1025        2        0        0        0
S       35.80213258       2.40834576      11.02535516      32.06000001       0.00000000       0.00000000       0.00000000     1026        2        0        0       -1
S       38.61091121       0.83245293      14.16161242      32.06000001       0.00000000       0.00000000       0.00000000     1027        2        0        0        0
S       38.60963327       0.83776143      11.02180100      32.06000001       0.00000000       0.00000000       0.00000000     1028        2        0        0       -1
S       13.27708322      17.95785040      14.12770478      32.06000001       0.00000000       0.00000000       0.00000000     1029        2        0        0        0
S       13.29964438      17.97281950      10.98716726      32.06000001       0.00000000       0.00000000       0.00000000     1030        2        0        0       -1
S       16.08200895      16.44820695      14.14047694      32.06000001       0.00000000       0.00000000       0.00000000     1031        2        0        0        0
S       16.10923852      16.45907858      11.00004357      32.06000001       0.00000000       0.00000000       0.00000000     1032        2        0        0       -1
S       18.88735576      14.92730468      14.15680055      32.06000001       0.00000000       0.00000000       0.00000000     1033        2        0        0        0
S       18.91513344      14.93615800      11.01661181      32.06000001       0.00000000       0.00000000       0.00000000     1034        2        0        0       -1
S       21.69269327      13.39346832      14.17181506      32.06000001       0.00000000       0.00000000       0.00000000     1035        2        0        0        0
S       21.71701849      13.40240441      11.03190207      32.06000001       0.00000000       0.00000000       0.00000000     1036        2        0        0       -1
S       24.49735539      11.84709979      14.18201800      32.06000001       0.00000000       0.00000000       0.00000000     1037        2        0        0        0
S       24.51599311      11.85746941      11.04232875      32.06000001       0.00000000       0.00000000       0.00000000     1038        2        0        0       -1
S       27.30090227      10.29024384      14.18633487      32.06000001       0.00000000       0.00000000       0.00000000     1039        2        0        0        0
S       27.31379416      10.30238018      11.04677802      32.06000001       0.00000000       0.00000000       0.00000000     1040        2        0        0       -1
S       30.10355825       8.72579009      14.18576093      32.06000001       0.00000000       0.00000000       0.00000000     1041        2        0        0        0
S       30.11201574       8.73922099      11.04623709      32.06000001       0.00000000       0.00000000       0.00000000     1042        2        0        0       -1
S       32.90626181       7.15679010      14.18210408      32.06000001       0.00000000       0.00000000       0.00000000     1043        2        0        0        0
S       32.91168038       7.17065035      11.04253834      32.06000001       0.00000000       0.00000000       0.00000000     1044        2        0        0       -1
S       35.71039365       5.58618464      14.17675422      32.06000001       0.00000000       0.00000000       0.00000000     1045        2        0        0        0
S       35.71323603       5.59954689      11.03710571      32.06000001       0.00000000       0.00000000       0.00000000     1046        2        0        0       -1
S       38.51738035       4.01684047      14.16998769      32.06000001       0.00000000       0.00000000       0.00000000     1047        2        0        0        0
S       38.51676803       4.02885899      11.03023268      32.06000001       0.00000000       0.00000000       0.00000000     1048        2        0        0       -1
S       41.32827526       2.45165327      14.16090261      32.06000001       0.00000000       0.00000000       0.00000000     1049        2        0        0        0
S       41.32224550       2.46155479      11.02100629      32.06000001       0.00000000       0.00000000       0.00000000     1050        2        0        0       -1
S       44.14338812       0.89351355      14.14792979      32.06000001       0.00000000       0.00000000       0.00000000     1051        2        0        0        0
S       44.12974408       0.90053552      11.00783457      32.06000001       0.00000000       0.00000000       0.00000000     1052        2        0        0       -1
S       13.22057490      21.12861425      14.14330253      32.06000001       0.00000000       0.00000000       0.00000000     1053        2        0        0        0
S       13.23506837      21.13906103      11.00311848      32.06000001       0.00000000       0.00000000       0.00000000     1054        2        0        0       -1
S       16.02512601      19.62109380      14.15219907      32.06000001       0.00000000       0.00000000       0.00000000     1055        2        0        0        0
S       16.04525332      19.62694754      11.01205044      32.06000001       0.00000000       0.00000000       0.00000000     1056        2        0        0       -1
S       18.82963075      18.10375672      14.16642100      32.06000001       0.00000000       0.00000000       0.00000000     1057        2        0        0        0
S       18.85211800      18.10698974      11.02646085      32.06000001       0.00000000       0.00000000       0.00000000     1058        2        0        0       -1
S       21.63354407      16.57398760      14.18131673      32.06000001       0.00000000       0.00000000       0.00000000     1059        2        0        0        0
S       21.65442027      16.57702700      11.04161384      32.06000001       0.00000000       0.00000000       0.00000000     1060        2        0        0       -1
S       24.43610695      15.03136555      14.19278925      32.06000001       0.00000000       0.00000000       0.00000000     1061        2        0        0        0
S       24.45260993      15.03614421      11.05331692      32.06000001       0.00000000       0.00000000       0.00000000     1062        2        0        0       -1
S       27.23673471      13.47739141      14.19883437      32.06000001       0.00000000       0.00000000       0.00000000     1063        2        0        0        0
S       27.24817868      13.48485963      11.05951484      32.06000001       0.00000000       0.00000000       0.00000000     1064        2        0        0       -1
S       30.03552219      11.91472462      14.19966308      32.06000001       0.00000000       0.00000000       0.00000000     1065        2        0        0        0
S       30.04283976      11.92492069      11.06039506      32.06000001       0.00000000       0.00000000       0.00000000     1066        2        0        0       -1
S       32.83340423      10.34639189      14.19665961      32.06000001       0.00000000       0.00000000       0.00000000     1067        2        0        0        0
S       32.83794153      10.35882668      11.05735234      32.06000001       0.00000000       0.00000000       0.00000000     1068        2        0        0       -1
S       35.63192261       8.77538651      14.19109691      32.06000001       0.00000000       0.00000000       0.00000000     1069        2        0        0        0
S       35.63430515       8.78939930      11.05168801      32.06000001       0.00000000       0.00000000       0.00000000     1070        2        0        0       -1
S       38.43283051       7.20465918      14.18328494      32.06000001       0.00000000       0.00000000       0.00000000     1071        2        0        0        0
S       38.43236133       7.21956419      11.04372431      32.06000001       0.00000000       0.00000000       0.00000000     1072        2        0        0       -1
S       41.23765083       5.63726220      14.17234550      32.06000001       0.00000000       0.00000000       0.00000000     1073        2        0        0        0
S       41.23238206       5.65227987      11.03257454      32.06000001       0.00000000       0.00000000       0.00000000     1074        2        0        0       -1
S       44.04721338       4.07637434      14.15664697      32.06000001       0.00000000       0.00000000       0.00000000     1075        2        0        0        0
S       44.03470770       4.09045869      11.01659126      32.06000001       0.00000000       0.00000000       0.00000000     1076        2        0        0       -1
S       46.86133005       2.52500567      14.13479309      32.06000001       0.00000000       0.00000000       0.00000000     1077        2        0        0        0
S       46.83990086       2.53677763      10.99438117      32.06000001       0.00000000       0.00000000       0.00000000     1078        2        0        0       -1
S       49.67888960       0.98540043      14.10672438      32.06000001       0.00000000       0.00000000       0.00000000     1079        2        0        0        0
S       49.64872568       0.99335974      10.96593374      32.06000001       0.00000000       0.00000000       0.00000000     1080        2        0        0       -1
S       15.97567258      22.78922075      14.15852667      32.06000001       0.00000000       0.00000000       0.00000000     1081        2        0        0        0
S       15.98863036      22.79112760      11.01857792      32.06000001       0.00000000       0.00000000       0.00000000     1082        2        0        0       -1
S       18.77990397      21.27534934      14.17010664      32.06000001       0.00000000       0.00000000       0.00000000     1083        2        0        0        0
S       18.79689889      21.27392042      11.03028214      32.06000001       0.00000000       0.00000000       0.00000000     1084        2        0        0       -1
S       21.58309320      19.75017150      14.18450759      32.06000001       0.00000000       0.00000000       0.00000000     1085        2        0        0        0
S       21.60045329      19.74788136      11.04491550      32.06000001       0.00000000       0.00000000       0.00000000     1086        2        0        0       -1
S       24.38437601      18.21233075      14.19731367      32.06000001       0.00000000       0.00000000       0.00000000     1087        2        0        0        0
S       24.39888970      18.21146134      11.05796367      32.06000001       0.00000000       0.00000000       0.00000000     1088        2        0        0       -1
S       27.18297157      16.66260437      14.20566344      32.06000001       0.00000000       0.00000000       0.00000000     1089        2        0        0        0
S       27.19321273      16.66455334      11.06649780      32.06000001       0.00000000       0.00000000       0.00000000     1090        2        0        0       -1
S       29.97871294      15.10324173      14.20891663      32.06000001       0.00000000       0.00000000       0.00000000     1091        2        0        0        0
S       29.98505133      15.10844353      11.06984169      32.06000001       0.00000000       0.00000000       0.00000000     1092        2        0        0       -1
S       32.77234414      13.53710764      14.20795594      32.06000001       0.00000000       0.00000000       0.00000000     1093        2        0        0        0
S       32.77594935      13.54540140      11.06887337      32.06000001       0.00000000       0.00000000       0.00000000     1094        2        0        0       -1
S       35.56538548      11.96713127      14.20390076      32.06000001       0.00000000       0.00000000       0.00000000     1095        2        0        0        0
S       35.56703199      11.97819206      11.06473584      32.06000001       0.00000000       0.00000000       0.00000000     1096        2        0        0       -1
S       38.35976478      10.39620976      14.19707892      32.06000001       0.00000000       0.00000000       0.00000000     1097        2        0        0        0
S       38.35903563      10.40976488      11.05776682      32.06000001       0.00000000       0.00000000       0.00000000     1098        2        0        0       -1
S       41.15738839       8.82737283      14.18659377      32.06000001       0.00000000       0.00000000       0.00000000     1099        2        0        0        0
S       41.15252198       8.84312792      11.04705468      32.06000001       0.00000000       0.00000000       0.00000000     1100        2        0        0       -1
S       43.95964809       7.26392080      14.17059849      32.06000001       0.00000000       0.00000000       0.00000000     1101        2        0        0        0
S       43.94812307       7.28125974      11.03073076      32.06000001       0.00000000       0.00000000       0.00000000     1102        2        0        0       -1
S       46.76695692       5.70923685      14.14729112      32.06000001       0.00000000       0.00000000       0.00000000     1103        2        0        0        0
S       46.74672760       5.72691226      11.00698730      32.06000001       0.00000000       0.00000000       0.00000000     1104        2        0        0       -1
S       49.57862151       4.16615607      14.11625444      32.06000001       0.00000000       0.00000000       0.00000000     1105        2        0        0        0
S       49.54946825       4.18229750      10.97546016      32.06000001       0.00000000       0.00000000       0.00000000     1106        2        0        0       -1
S       52.39328730       2.63617946      14.07932377      32.06000001       0.00000000       0.00000000       0.00000000     1107        2        0        0        0
S       52.35741867       2.64874383      10.93810745      32.06000001       0.00000000       0.00000000       0.00000000     1108        2        0        0       -1
S       55.20968277       1.11903814      14.04035595      32.06000001       0.00000000       0.00000000       0.00000000     1109        2        0        0        0
S       55.17114768       1.12640664      10.89891188      32.06000001       0.00000000       0.00000000       0.00000000     1110        2        0        0       -1
S       15.93100645      25.95305627      14.16082449      32.06000001       0.00000000       0.00000000       0.00000000     1111        2        0        0        0
S       15.93728345      25.95267477      11.02099323      32.06000001       0.00000000       0.00000000       0.00000000     1112        2        0        0       -1
S       18.73549732      24.44217099      14.16922886      32.06000001       0.00000000       0.00000000       0.00000000     1113        2        0        0        0
S       18.74719875      24.43778118      11.02945311      32.06000001       0.00000000       0.00000000       0.00000000     1114        2        0        0       -1
S       21.53866773      22.92168765      14.18254043      32.06000001       0.00000000       0.00000000       0.00000000     1115        2        0        0        0
S       21.55272412      22.91561339      11.04295791      32.06000001       0.00000000       0.00000000       0.00000000     1116        2        0        0       -1
S       24.33956965      21.38925662      14.19632701      32.06000001       0.00000000       0.00000000       0.00000000     1117        2        0        0        0
S       24.35248667      21.38397485      11.05699188      32.06000001       0.00000000       0.00000000       0.00000000     1118        2        0        0       -1
S       27.13723574      19.84480343      14.20696737      32.06000001       0.00000000       0.00000000       0.00000000     1119        2        0        0        0
S       27.14679344      19.84203182      11.06784941      32.06000001       0.00000000       0.00000000       0.00000000     1120        2        0        0       -1
S       29.93116507      18.29002920      14.21290645      32.06000001       0.00000000       0.00000000       0.00000000     1121        2        0        0        0
S       29.93698198      18.29044875      11.07392734      32.06000001       0.00000000       0.00000000       0.00000000     1122        2        0        0       -1
S       32.72175210      16.72754612      14.21444788      32.06000001       0.00000000       0.00000000       0.00000000     1123        2        0        0        0
S       32.72464504      16.73112365      11.07551061      32.06000001       0.00000000       0.00000000       0.00000000     1124        2        0        0       -1
S       35.51030111      15.16016611      14.21258110      32.06000001       0.00000000       0.00000000       0.00000000     1125        2        0        0        0
S       35.51112297      15.16669240      11.07360142      32.06000001       0.00000000       0.00000000       0.00000000     1126        2        0        0       -1
S       38.29871266      13.59065424      14.20777444      32.06000001       0.00000000       0.00000000       0.00000000     1127        2        0        0        0
S       38.29739123      13.60012046      11.06868008      32.06000001       0.00000000       0.00000000       0.00000000     1128        2        0        0       -1
S       41.08908401      12.02185132      14.19928698      32.06000001       0.00000000       0.00000000       0.00000000     1129        2        0        0        0
S       41.08423198      12.03449688      11.05998864      32.06000001       0.00000000       0.00000000       0.00000000     1130        2        0        0       -1
S       43.88325167      10.45690770      14.18518359      32.06000001       0.00000000       0.00000000       0.00000000     1131        2        0        0        0
S       43.87250512      10.47291957      11.04556859      32.06000001       0.00000000       0.00000000       0.00000000     1132        2        0        0       -1
S       46.68227731       8.89929823      14.16318355      32.06000001       0.00000000       0.00000000       0.00000000     1133        2        0        0        0
S       46.66338798       8.91829026      11.02312177      32.06000001       0.00000000       0.00000000       0.00000000     1134        2        0        0       -1
S       49.48612685       7.35233856      14.13213476      32.06000001       0.00000000       0.00000000       0.00000000     1135        2        0        0        0
S       49.45842177       7.37296815      10.99151640      32.06000001       0.00000000       0.00000000       0.00000000     1136        2        0        0       -1
S       52.29388734       5.81831647      14.09328707      32.06000001       0.00000000       0.00000000       0.00000000     1137        2        0        0        0
S       52.25919303       5.83840956      10.95212364      32.06000001       0.00000000       0.00000000       0.00000000     1138        2        0        0       -1
S       55.10445764       4.29775655      14.05045888      32.06000001       0.00000000       0.00000000       0.00000000     1139        2        0        0        0
S       55.06675839       4.31492204      10.90894744      32.06000001       0.00000000       0.00000000       0.00000000     1140        2        0        0       -1
S       57.91707538       2.78923672      14.00900158      32.06000001       0.00000000       0.00000000       0.00000000     1141        2        0        0        0
S       57.88111126       2.80158458      10.86738980      32.06000001       0.00000000       0.00000000       0.00000000     1142        2        0        0       -1
S       60.73125782       1.28991087      13.97406140      32.06000001       0.00000000       0.00000000       0.00000000     1143        2        0        0        0
S       60.70100242       1.29638713      10.83243814      32.06000001       0.00000000       0.00000000       0.00000000     1144        2        0        0       -1
S       18.69378877      27.60499665      14.16547246      32.06000001       0.00000000       0.00000000       0.00000000     1145        2        0        0        0
S       18.70038749      27.59923001      11.02568719      32.06000001       0.00000000       0.00000000       0.00000000     1146        2        0        0       -1
S       21.49758477      26.08898947      14.17700040      32.06000001       0.00000000       0.00000000       0.00000000     1147        2        0        0        0
S       21.50840221      26.08060337      11.03735260      32.06000001       0.00000000       0.00000000       0.00000000     1148        2        0        0       -1
S       24.29893367      24.56225388      14.19122389      32.06000001       0.00000000       0.00000000       0.00000000     1149        2        0        0        0
S       24.31047110      24.55385430      11.05181411      32.06000001       0.00000000       0.00000000       0.00000000     1150        2        0        0       -1
S       27.09674183      23.02375018      14.20390157      32.06000001       0.00000000       0.00000000       0.00000000     1151        2        0        0        0
S       27.10603707      23.01739545      11.06473401      32.06000001       0.00000000       0.00000000       0.00000000     1152        2        0        0       -1
S       29.89017937      21.47449964      14.21246480      32.06000001       0.00000000       0.00000000       0.00000000     1153        2        0        0        0
S       29.89594299      21.47112563      11.07348110      32.06000001       0.00000000       0.00000000       0.00000000     1154        2        0        0       -1
S       32.67919599      19.91678461      14.21646037      32.06000001       0.00000000       0.00000000       0.00000000     1155        2        0        0        0
S       32.68167562      19.91637911      11.07757244      32.06000001       0.00000000       0.00000000       0.00000000     1156        2        0        0       -1
S       35.46471867      18.35330003      14.21667973      32.06000001       0.00000000       0.00000000       0.00000000     1157        2        0        0        0
S       35.46470689      18.35551465      11.07779707      32.06000001       0.00000000       0.00000000       0.00000000     1158        2        0        0       -1
S       38.24843880      16.78670233      14.21384153      32.06000001       0.00000000       0.00000000       0.00000000     1159        2        0        0        0
S       38.24620604      16.79143534      11.07488704      32.06000001       0.00000000       0.00000000       0.00000000     1160        2        0        0       -1
S       41.03243109      15.21960630      14.20762936      32.06000001       0.00000000       0.00000000       0.00000000     1161        2        0        0        0
S       41.02711344      15.22727800      11.06851466      32.06000001       0.00000000       0.00000000       0.00000000     1162        2        0        0       -1
S       43.81874991      13.65482477      14.19639263      32.06000001       0.00000000       0.00000000       0.00000000     1163        2        0        0        0
S       43.80841886      13.66625234      11.05700349      32.06000001       0.00000000       0.00000000       0.00000000     1164        2        0        0       -1
S       46.60897032      12.09556687      14.17767440      32.06000001       0.00000000       0.00000000       0.00000000     1165        2        0        0        0
S       46.59146106      12.11144414      11.03787979      32.06000001       0.00000000       0.00000000       0.00000000     1166        2        0        0       -1
S       49.40378548      10.54524804      14.14956952      32.06000001       0.00000000       0.00000000       0.00000000     1167        2        0        0        0
S       49.37807196      10.56544982      11.00923701      32.06000001       0.00000000       0.00000000       0.00000000     1168        2        0        0       -1
S       52.20297920       9.00677065      14.11229253      32.06000001       0.00000000       0.00000000       0.00000000     1169        2        0        0        0
S       52.17032817       9.02995458      10.97135540      32.06000001       0.00000000       0.00000000       0.00000000     1170        2        0        0       -1
S       55.00593025       7.48163080      14.06886181      32.06000001       0.00000000       0.00000000       0.00000000     1171        2        0        0        0
S       54.96991695       7.50545524      10.92744229      32.06000001       0.00000000       0.00000000       0.00000000     1172        2        0        0       -1
S       57.81214924       5.96937254      14.02445172      32.06000001       0.00000000       0.00000000       0.00000000     1173        2        0        0        0
S       57.77743864       5.99120424      10.88282445      32.06000001       0.00000000       0.00000000       0.00000000     1174        2        0        0       -1
S       60.62126118       4.46775095      13.98476044      32.06000001       0.00000000       0.00000000       0.00000000     1175        2        0        0        0
S       60.59200406       4.48542414      10.84309476      32.06000001       0.00000000       0.00000000       0.00000000     1176        2        0        0       -1
S       63.43269888       2.97358944      13.95409556      32.06000001       0.00000000       0.00000000       0.00000000     1177        2        0        0        0
S       63.41155653       2.98570518      10.81239577      32.06000001       0.00000000       0.00000000       0.00000000     1178        2        0        0       -1
S       66.24551645       1.48359787      13.93469614      32.06000001       0.00000000       0.00000000       0.00000000     1179        2        0        0        0
S       66.23377216       1.48936567      10.79294995      32.06000001       0.00000000       0.00000000       0.00000000     1180        2        0        0       -1
S       18.65233522      30.76495537      14.16021192      32.06000001       0.00000000       0.00000000       0.00000000     1181        2        0        0        0
S       18.65372648      30.75890563      11.02038749      32.06000001       0.00000000       0.00000000       0.00000000     1182        2        0        0       -1
S       21.45733595      29.25295122      14.16911219      32.06000001       0.00000000       0.00000000       0.00000000     1183        2        0        0        0
S       21.46451377      29.24318081      11.02935774      32.06000001       0.00000000       0.00000000       0.00000000     1184        2        0        0       -1
S       24.25984408      27.73195372      14.18302968      32.06000001       0.00000000       0.00000000       0.00000000     1185        2        0        0        0
S       24.26969407      27.72109665      11.04348138      32.06000001       0.00000000       0.00000000       0.00000000     1186        2        0        0       -1
S       27.05871353      26.19984648      14.19737598      32.06000001       0.00000000       0.00000000       0.00000000     1187        2        0        0        0
S       27.06773677      26.19040353      11.05808418      32.06000001       0.00000000       0.00000000       0.00000000     1188        2        0        0       -1
S       29.85285907      24.65680624      14.20850844      32.06000001       0.00000000       0.00000000       0.00000000     1189        2        0        0        0
S       29.85878440      24.65017732      11.06943942      32.06000001       0.00000000       0.00000000       0.00000000     1190        2        0        0       -1
S       32.64176235      23.10466698      14.21493192      32.06000001       0.00000000       0.00000000       0.00000000     1191        2        0        0        0
S       32.64403796      23.10100159      11.07600699      32.06000001       0.00000000       0.00000000       0.00000000     1192        2        0        0       -1
S       35.42585921      21.54599560      14.21698455      32.06000001       0.00000000       0.00000000       0.00000000     1193        2        0        0        0
S       35.42501072      21.54475163      11.07810915      32.06000001       0.00000000       0.00000000       0.00000000     1194        2        0        0       -1
S       38.20649021      19.98341213      14.21558429      32.06000001       0.00000000       0.00000000       0.00000000     1195        2        0        0        0
S       38.20304685      19.98412267      11.07667455      32.06000001       0.00000000       0.00000000       0.00000000     1196        2        0        0       -1
S       40.98555021      18.41939048      14.21101397      32.06000001       0.00000000       0.00000000       0.00000000     1197        2        0        0        0
S       40.97923925      18.42220788      11.07198977      32.06000001       0.00000000       0.00000000       0.00000000     1198        2        0        0       -1
S       43.76509795      16.85640809      14.20230130      32.06000001       0.00000000       0.00000000       0.00000000     1199        2        0        0        0
S       43.75465447      16.86225316      11.06305994      32.06000001       0.00000000       0.00000000       0.00000000     1200        2        0        0       -1
S       46.54698166      15.29720859      14.18736082      32.06000001       0.00000000       0.00000000       0.00000000     1201        2        0        0        0
S       46.53066352      15.30746923      11.04777940      32.06000001       0.00000000       0.00000000       0.00000000     1202        2        0        0       -1
S       49.33248729      13.74488538      14.16397581      32.06000001       0.00000000       0.00000000       0.00000000     1203        2        0        0        0
S       49.30918633      13.76070281      11.02392489      32.06000001       0.00000000       0.00000000       0.00000000     1204        2        0        0       -1
S       52.12217587      12.20250828      14.13132133      32.06000001       0.00000000       0.00000000       0.00000000     1205        2        0        0        0
S       52.09259285      12.22397533      10.99069940      32.06000001       0.00000000       0.00000000       0.00000000     1206        2        0        0       -1
S       54.91612405      10.67232905      14.09110656      32.06000001       0.00000000       0.00000000       0.00000000     1207        2        0        0        0
S       54.88312813      10.69812166      10.94993518      32.06000001       0.00000000       0.00000000       0.00000000     1208        2        0        0       -1
S       57.71437479       9.15501214      14.04747322      32.06000001       0.00000000       0.00000000       0.00000000     1209        2        0        0        0
S       57.68213056       9.18267937      10.90595943      32.06000001       0.00000000       0.00000000       0.00000000     1210        2        0        0       -1
S       60.51694442       7.64940498      14.00577100      32.06000001       0.00000000       0.00000000       0.00000000     1211        2        0        0        0
S       60.48945077       7.67607770      10.86415548      32.06000001       0.00000000       0.00000000       0.00000000     1212        2        0        0       -1
S       63.32337715       6.15295472      13.97087220      32.06000001       0.00000000       0.00000000       0.00000000     1213        2        0        0        0
S       63.30345627       6.17607076      10.82923158      32.06000001       0.00000000       0.00000000       0.00000000     1214        2        0        0       -1
S       66.13262707       4.66241949      13.94596795      32.06000001       0.00000000       0.00000000       0.00000000     1215        2        0        0        0
S       66.12179980       4.68013162      10.80427826      32.06000001       0.00000000       0.00000000       0.00000000     1216        2        0        0       -1
S       68.94330412       3.17443416      13.93266565      32.06000001       0.00000000       0.00000000       0.00000000     1217        2        0        0        0
S       68.94228229       3.18568231      10.79092451      32.06000001       0.00000000       0.00000000       0.00000000     1218        2        0        0       -1
S       21.41553163      32.41460609      14.15953985      32.06000001       0.00000000       0.00000000       0.00000000     1219        2        0        0        0
S       21.41809206      32.40384306      11.01965687      32.06000001       0.00000000       0.00000000       0.00000000     1220        2        0        0       -1
S       24.21980424      30.89915466      14.17205596      32.06000001       0.00000000       0.00000000       0.00000000     1221        2        0        0        0
S       24.22694444      30.88583515      11.03232049      32.06000001       0.00000000       0.00000000       0.00000000     1222        2        0        0       -1
S       27.02047809      29.37374017      14.18743272      32.06000001       0.00000000       0.00000000       0.00000000     1223        2        0        0        0
S       27.02855544      29.36080297      11.04794703      32.06000001       0.00000000       0.00000000       0.00000000     1224        2        0        0       -1
S       29.81632511      27.83749388      14.20108367      32.06000001       0.00000000       0.00000000       0.00000000     1225        2        0        0        0
S       29.82217466      27.82708585      11.06185162      32.06000001       0.00000000       0.00000000       0.00000000     1226        2        0        0       -1
S       32.60641006      26.29159813      14.21019072      32.06000001       0.00000000       0.00000000       0.00000000     1227        2        0        0        0
S       32.60849129      26.28441655      11.07114972      32.06000001       0.00000000       0.00000000       0.00000000     1228        2        0        0       -1
S       35.39061286      24.73840399      14.21420486      32.06000001       0.00000000       0.00000000       0.00000000     1229        2        0        0        0
S       35.38891910      24.73396733      11.07525922      32.06000001       0.00000000       0.00000000       0.00000000     1230        2        0        0       -1
S       38.16980417      23.18054332      14.21395600      32.06000001       0.00000000       0.00000000       0.00000000     1231        2        0        0        0
S       38.16494895      23.17801653      11.07500742      32.06000001       0.00000000       0.00000000       0.00000000     1232        2        0        0       -1
S       40.94559117      21.62047166      14.21029251      32.06000001       0.00000000       0.00000000       0.00000000     1233        2        0        0        0
S       40.93786185      21.61947097      11.07126121      32.06000001       0.00000000       0.00000000       0.00000000     1234        2        0        0       -1
S       43.71991319      20.06046332      14.20313337      32.06000001       0.00000000       0.00000000       0.00000000     1235        2        0        0        0
S       43.70882574      20.06150331      11.06393865      32.06000001       0.00000000       0.00000000       0.00000000     1236        2        0        0       -1
S       46.49469382      18.50283246      14.19124461      32.06000001       0.00000000       0.00000000       0.00000000     1237        2        0        0        0
S       46.47920028      18.50732489      11.05178455      32.06000001       0.00000000       0.00000000       0.00000000     1238        2        0        0       -1
S       49.27157520      16.95014718      14.17276273      32.06000001       0.00000000       0.00000000       0.00000000     1239        2        0        0        0
S       49.25083059      16.95992683      11.03292181      32.06000001       0.00000000       0.00000000       0.00000000     1240        2        0        0       -1
S       52.05176640      15.40518977      14.14633762      32.06000001       0.00000000       0.00000000       0.00000000     1241        2        0        0        0
S       52.02610851      15.42166642      11.00601420      32.06000001       0.00000000       0.00000000       0.00000000     1242        2        0        0       -1
S       54.83610211      13.87048962      14.11236778      32.06000001       0.00000000       0.00000000       0.00000000     1243        2        0        0        0
S       54.80758687      13.89383589      10.97152912      32.06000001       0.00000000       0.00000000       0.00000000     1244        2        0        0       -1
S       57.62529155      12.34757714      14.07346236      32.06000001       0.00000000       0.00000000       0.00000000     1245        2        0        0        0
S       57.59723210      12.37644766      10.93220403      32.06000001       0.00000000       0.00000000       0.00000000     1246        2        0        0       -1
S       60.41996175      10.83650437      14.03373705      32.06000001       0.00000000       0.00000000       0.00000000     1247        2        0        0        0
S       60.39575667      10.86832877      10.89226507      32.06000001       0.00000000       0.00000000       0.00000000     1248        2        0        0       -1
S       63.22014381       9.33586588      13.99760717      32.06000001       0.00000000       0.00000000       0.00000000     1249        2        0        0        0
S       63.20239579       9.36745380      10.85609381      32.06000001       0.00000000       0.00000000       0.00000000     1250        2        0        0       -1
S       66.02483573       7.84301487      13.96885847      32.06000001       0.00000000       0.00000000       0.00000000     1251        2        0        0        0
S       66.01525153       7.87135417      10.82731999      32.06000001       0.00000000       0.00000000       0.00000000     1252        2        0        0       -1
S       68.83239448       6.35454255      13.95014814      32.06000001       0.00000000       0.00000000       0.00000000     1253        2        0        0        0
S       68.83204424       6.37744848      10.80853426      32.06000001       0.00000000       0.00000000       0.00000000     1254        2        0        0       -1
S       21.36977643      35.57509052      14.14849534      32.06000001       0.00000000       0.00000000       0.00000000     1255        2        0        0        0
S       21.36632379      35.56337543      11.00846617      32.06000001       0.00000000       0.00000000       0.00000000     1256        2        0        0       -1
S       24.17632506      34.06465234      14.15809705      32.06000001       0.00000000       0.00000000       0.00000000     1257        2        0        0        0
S       24.17906668      34.04858661      11.01813251      32.06000001       0.00000000       0.00000000       0.00000000     1258        2        0        0       -1
S       26.97938389      32.54601999      14.17332618      32.06000001       0.00000000       0.00000000       0.00000000     1259        2        0        0        0
S       26.98509889      32.52867868      11.03356899      32.06000001       0.00000000       0.00000000       0.00000000     1260        2        0        0       -1
S       29.77769882      31.01709955      14.18913964      32.06000001       0.00000000       0.00000000       0.00000000     1261        2        0        0        0
S       29.78265797      31.00149006      11.04964916      32.06000001       0.00000000       0.00000000       0.00000000     1262        2        0        0       -1
S       32.57004009      29.47813264      14.20134099      32.06000001       0.00000000       0.00000000       0.00000000     1263        2        0        0        0
S       32.57166653      29.46596533      11.06208485      32.06000001       0.00000000       0.00000000       0.00000000     1264        2        0        0       -1
S       35.35573171      27.93103273      14.20800842      32.06000001       0.00000000       0.00000000       0.00000000     1265        2        0        0        0
S       35.35320920      27.92242334      11.06890233      32.06000001       0.00000000       0.00000000       0.00000000     1266        2        0        0       -1
S       38.13506972      26.37839850      14.20935098      32.06000001       0.00000000       0.00000000       0.00000000     1267        2        0        0        0
S       38.12882339      26.37248201      11.07028924      32.06000001       0.00000000       0.00000000       0.00000000     1268        2        0        0       -1
S       40.90926959      24.82276690      14.20648669      32.06000001       0.00000000       0.00000000       0.00000000     1269        2        0        0        0
S       40.89999855      24.81865919      11.06737395      32.06000001       0.00000000       0.00000000       0.00000000     1270        2        0        0       -1
S       43.68008573      23.26637105      14.20019524      32.06000001       0.00000000       0.00000000       0.00000000     1271        2        0        0        0
S       43.66807406      23.26391520      11.06095692      32.06000001       0.00000000       0.00000000       0.00000000     1272        2        0        0       -1
S       46.44942320      21.71126380      14.19031363      32.06000001       0.00000000       0.00000000       0.00000000     1273        2        0        0        0
S       46.43444237      21.71133379      11.05087465      32.06000001       0.00000000       0.00000000       0.00000000     1274        2        0        0       -1
S       49.21909964      20.15954652      14.17584637      32.06000001       0.00000000       0.00000000       0.00000000     1275        2        0        0        0
S       49.20083617      20.16388651      11.03611990      32.06000001       0.00000000       0.00000000       0.00000000     1276        2        0        0       -1
S       51.99074503      18.61350770      14.15563611      32.06000001       0.00000000       0.00000000       0.00000000     1277        2        0        0        0
S       51.96948045      18.62412734      11.01553875      32.06000001       0.00000000       0.00000000       0.00000000     1278        2        0        0       -1
S       54.76582167      17.07549210      14.12930980      32.06000001       0.00000000       0.00000000       0.00000000     1279        2        0        0        0
S       54.74292521      17.09379426      10.98879546      32.06000001       0.00000000       0.00000000       0.00000000     1280        2        0        0       -1
S       57.54570899      15.54742029      14.09797221      32.06000001       0.00000000       0.00000000       0.00000000     1281        2        0        0        0
S       57.52349082      15.57349468      10.95706359      32.06000001       0.00000000       0.00000000       0.00000000     1282        2        0        0       -1
S       60.33167474      14.03025974      14.06409053      32.06000001       0.00000000       0.00000000       0.00000000     1283        2        0        0        0
S       60.31260735      14.06267347      10.92288893      32.06000001       0.00000000       0.00000000       0.00000000     1284        2        0        0       -1
S       63.12445710      12.52381998      14.03075636      32.06000001       0.00000000       0.00000000       0.00000000     1285        2        0        0        0
S       63.11048364      12.55980533      10.88942620      32.06000001       0.00000000       0.00000000       0.00000000     1286        2        0        0       -1
S       65.92357858      11.02660724      14.00125061      32.06000001       0.00000000       0.00000000       0.00000000     1287        2        0        0        0
S       65.91616880      11.06263323      10.85990070      32.06000001       0.00000000       0.00000000       0.00000000     1288        2        0        0       -1
S       68.72731653       9.53576741      13.97885902      32.06000001       0.00000000       0.00000000       0.00000000     1289        2        0        0        0
S       68.72782381       9.56852149      10.83745066      32.06000001       0.00000000       0.00000000       0.00000000     1290        2        0        0       -1
S       71.53360421       8.04763620      13.96632297      32.06000001       0.00000000       0.00000000       0.00000000     1291        2        0        0        0
S       71.54322728       8.07485402      10.82478769      32.06000001       0.00000000       0.00000000       0.00000000     1292        2        0        0       -1
S       24.12683902      37.22924542      14.14086824      32.06000001       0.00000000       0.00000000       0.00000000     1293        2        0        0        0
S       24.12320174      37.21035570      11.00064614      32.06000001       0.00000000       0.00000000       0.00000000     1294        2        0        0       -1
S       26.93271123      35.71708484      14.15411416      32.06000001       0.00000000       0.00000000       0.00000000     1295        2        0        0        0
S       26.93409885      35.69471485      11.01401422      32.06000001       0.00000000       0.00000000       0.00000000     1296        2        0        0       -1
S       29.73403382      34.19584561      14.17101947      32.06000001       0.00000000       0.00000000       0.00000000     1297        2        0        0        0
S       29.73673849      34.17355825      11.03116236      32.06000001       0.00000000       0.00000000       0.00000000     1298        2        0        0       -1
S       32.52944762      32.66454113      14.18640876      32.06000001       0.00000000       0.00000000       0.00000000     1299        2        0        0        0
S       32.53007163      32.64529367      11.04681698      32.06000001       0.00000000       0.00000000       0.00000000     1300        2        0        0       -1
S       35.31781976      31.12428189      14.19673314      32.06000001       0.00000000       0.00000000       0.00000000     1301        2        0        0        0
S       35.31455523      31.10941294      11.05735095      32.06000001       0.00000000       0.00000000       0.00000000     1302        2        0        0       -1
S       38.09881123      29.57741348      14.20092645      32.06000001       0.00000000       0.00000000       0.00000000     1303        2        0        0        0
S       38.09154899      29.56667698      11.06165739      32.06000001       0.00000000       0.00000000       0.00000000     1304        2        0        0       -1
S       40.87311784      28.02655870      14.19977726      32.06000001       0.00000000       0.00000000       0.00000000     1305        2        0        0        0
S       40.86268258      28.01895723      11.06051391      32.06000001       0.00000000       0.00000000       0.00000000     1306        2        0        0       -1
S       43.64222806      26.47405550      14.19460913      32.06000001       0.00000000       0.00000000       0.00000000     1307        2        0        0        0
S       43.62951435      26.46881228      11.05526326      32.06000001       0.00000000       0.00000000       0.00000000     1308        2        0        0       -1
S       46.40799391      24.92189078      14.18627393      32.06000001       0.00000000       0.00000000       0.00000000     1309        2        0        0        0
S       46.39355585      24.91906820      11.04678001      32.06000001       0.00000000       0.00000000       0.00000000     1310        2        0        0       -1
S       49.17232852      23.37188816      14.17484740      32.06000001       0.00000000       0.00000000       0.00000000     1311        2        0        0        0
S       49.15648751      23.37253525      11.03514884      32.06000001       0.00000000       0.00000000       0.00000000     1312        2        0        0       -1
S       51.93710641      21.82590204      14.15988753      32.06000001       0.00000000       0.00000000       0.00000000     1313        2        0        0        0
S       51.92033440      21.83177482      11.01993108      32.06000001       0.00000000       0.00000000       0.00000000     1314        2        0        0       -1
S       54.70419977      20.28587932      14.14097552      32.06000001       0.00000000       0.00000000       0.00000000     1315        2        0        0        0
S       54.68744466      20.29881045      11.00072448      32.06000001       0.00000000       0.00000000       0.00000000     1316        2        0        0       -1
S       57.47551872      18.75368716      14.11825559      32.06000001       0.00000000       0.00000000       0.00000000     1317        2        0        0        0
S       57.46017740      18.77481929      10.97770151      32.06000001       0.00000000       0.00000000       0.00000000     1318        2        0        0       -1
S       60.25290767      17.23076154      14.09264432      32.06000001       0.00000000       0.00000000       0.00000000     1319        2        0        0        0
S       60.24040239      17.25997288      10.95181132      32.06000001       0.00000000       0.00000000       0.00000000     1320        2        0        0       -1
S       63.03775885      15.71780287      14.06563393      32.06000001       0.00000000       0.00000000       0.00000000     1321        2        0        0        0
S       63.02912495      15.75349068      10.92458917      32.06000001       0.00000000       0.00000000       0.00000000     1322        2        0        0       -1
S       65.83038129      14.21452756      14.03918599      32.06000001       0.00000000       0.00000000       0.00000000     1323        2        0        0        0
S       65.82642605      14.25370743      10.89803815      32.06000001       0.00000000       0.00000000       0.00000000     1324        2        0        0       -1
S       68.62952506      12.71923769      14.01608108      32.06000001       0.00000000       0.00000000       0.00000000     1325        2        0        0        0
S       68.63143499      12.75818832      10.87487378      32.06000001       0.00000000       0.00000000       0.00000000     1326        2        0        0       -1
S       71.43287635      11.22876783      13.99977718      32.06000001       0.00000000       0.00000000       0.00000000     1327        2        0        0        0
S       71.44233340      11.26416514      10.85844130      32.06000001       0.00000000       0.00000000       0.00000000     1328        2        0        0       -1
S       74.23826090       9.73921895      13.99331714      32.06000001       0.00000000       0.00000000       0.00000000     1329        2        0        0        0
S       74.25675393       9.76900983      10.85180618      32.06000001       0.00000000       0.00000000       0.00000000     1330        2        0        0       -1
S       24.06879565      40.39382516      14.12043386      32.06000001       0.00000000       0.00000000       0.00000000     1331        2        0        0        0
S       24.05716983      40.37253060      10.97994408      32.06000001       0.00000000       0.00000000       0.00000000     1332        2        0        0       -1
S       26.87773988      38.88722325      14.12948451      32.06000001       0.00000000       0.00000000       0.00000000     1333        2        0        0        0
S       26.87281979      38.86023640      10.98900437      32.06000001       0.00000000       0.00000000       0.00000000     1334        2        0        0       -1
S       29.68238264      37.37355035      14.14551310      32.06000001       0.00000000       0.00000000       0.00000000     1335        2        0        0        0
S       29.68120334      37.34423009      11.00519686      32.06000001       0.00000000       0.00000000       0.00000000     1336        2        0        0       -1
S       32.48139169      35.85049236      14.16329203      32.06000001       0.00000000       0.00000000       0.00000000     1337        2        0        0        0
S       32.48026318      35.82272367      11.02323916      32.06000001       0.00000000       0.00000000       0.00000000     1338        2        0        0       -1
S       35.27337096      34.31796520      14.17792933      32.06000001       0.00000000       0.00000000       0.00000000     1339        2        0        0        0
S       35.26955790      34.29463463      11.03813990      32.06000001       0.00000000       0.00000000       0.00000000     1340        2        0        0       -1
S       38.05740160      32.77764336      14.18664121      32.06000001       0.00000000       0.00000000       0.00000000     1341        2        0        0        0
S       38.04994082      32.75985959      11.04704692      32.06000001       0.00000000       0.00000000       0.00000000     1342        2        0        0       -1
S       40.83354001      31.23203356      14.18909455      32.06000001       0.00000000       0.00000000       0.00000000     1343        2        0        0        0
S       40.82296341      31.21939842      11.04959326      32.06000001       0.00000000       0.00000000       0.00000000     1344        2        0        0       -1
S       43.60286339      29.68362845      14.18649644      32.06000001       0.00000000       0.00000000       0.00000000     1345        2        0        0        0
S       43.59035290      29.67515404      11.04698633      32.06000001       0.00000000       0.00000000       0.00000000     1346        2        0        0       -1
S       46.36710029      28.13452905      14.18035558      32.06000001       0.00000000       0.00000000       0.00000000     1347        2        0        0        0
S       46.35380048      28.12952404      11.04076153      32.06000001       0.00000000       0.00000000       0.00000000     1348        2        0        0       -1
S       49.12822895      26.58649361      14.17172774      32.06000001       0.00000000       0.00000000       0.00000000     1349        2        0        0        0
S       49.11503207      26.58503717      11.03200470      32.06000001       0.00000000       0.00000000       0.00000000     1350        2        0        0       -1
S       51.88828533      25.04112835      14.16107492      32.06000001       0.00000000       0.00000000       0.00000000     1351        2        0        0        0
S       51.87594954      25.04411252      11.02119577      32.06000001       0.00000000       0.00000000       0.00000000     1352        2        0        0       -1
S       54.64937733      23.50002455      14.14845582      32.06000001       0.00000000       0.00000000       0.00000000     1353        2        0        0        0
S       54.63867404      23.50885804      11.00839929      32.06000001       0.00000000       0.00000000       0.00000000     1354        2        0        0       -1
S       57.41374006      21.96478016      14.13376938      32.06000001       0.00000000       0.00000000       0.00000000     1355        2        0        0        0
S       57.40541126      21.98085220      10.99351792      32.06000001       0.00000000       0.00000000       0.00000000     1356        2        0        0       -1
S       60.18364229      20.43689788      14.11693368      32.06000001       0.00000000       0.00000000       0.00000000     1357        2        0        0        0
S       60.17817225      20.46095555      10.97647677      32.06000001       0.00000000       0.00000000       0.00000000     1358        2        0        0       -1
S       62.96101186      18.91757190      14.09803120      32.06000001       0.00000000       0.00000000       0.00000000     1359        2        0        0        0
S       62.95848363      18.94922245      10.95736561      32.06000001       0.00000000       0.00000000       0.00000000     1360        2        0        0       -1
S       65.74685935      17.40740043      14.07757236      32.06000001       0.00000000       0.00000000       0.00000000     1361        2        0        0        0
S       65.74724396      17.44485138      10.93671924      32.06000001       0.00000000       0.00000000       0.00000000     1362        2        0        0       -1
S       68.54072289      15.90593819      14.05708184      32.06000001       0.00000000       0.00000000       0.00000000     1363        2        0        0        0
S       68.54461530      15.94607879      10.91609101      32.06000001       0.00000000       0.00000000       0.00000000     1364        2        0        0       -1
S       71.34061751      14.41115541      14.03961606      32.06000001       0.00000000       0.00000000       0.00000000     1365        2        0        0        0
S       71.34971731      14.45031095      10.89848905      32.06000001       0.00000000       0.00000000       0.00000000     1366        2        0        0       -1
S       74.14394675      12.91953667      14.02910510      32.06000001       0.00000000       0.00000000       0.00000000     1367        2        0        0        0
S       74.16050387      12.95467771      10.88778822      32.06000001       0.00000000       0.00000000       0.00000000     1368        2        0        0       -1
S       26.81208274      42.05686830      14.10035839      32.06000001       0.00000000       0.00000000       0.00000000     1369        2        0        0        0
S       26.79957793      42.02691017      10.95951599      32.06000001       0.00000000       0.00000000       0.00000000     1370        2        0        0       -1
S       29.62012330      40.54988806      14.11299186      32.06000001       0.00000000       0.00000000       0.00000000     1371        2        0        0        0
S       29.61367964      40.51509436      10.97219014      32.06000001       0.00000000       0.00000000       0.00000000     1372        2        0        0       -1
S       32.42294468      39.03510681      14.13122255      32.06000001       0.00000000       0.00000000       0.00000000     1373        2        0        0        0
S       32.41930501      38.99938777      10.99061391      32.06000001       0.00000000       0.00000000       0.00000000     1374        2        0        0       -1
S       35.21910044      37.51107190      14.14972370      32.06000001       0.00000000       0.00000000       0.00000000     1375        2        0        0        0
S       35.21501176      37.47850104      11.00939636      32.06000001       0.00000000       0.00000000       0.00000000     1376        2        0        0       -1
S       38.00729167      35.97831376      14.16414969      32.06000001       0.00000000       0.00000000       0.00000000     1377        2        0        0        0
S       38.00082573      35.95171588      11.02409696      32.06000001       0.00000000       0.00000000       0.00000000     1378        2        0        0       -1
S       40.78693314      34.43877572      14.17244150      32.06000001       0.00000000       0.00000000       0.00000000     1379        2        0        0        0
S       40.77787115      34.41913427      11.03259206      32.06000001       0.00000000       0.00000000       0.00000000     1380        2        0        0       -1
S       43.55851157      32.89492225      14.17479533      32.06000001       0.00000000       0.00000000       0.00000000     1381        2        0        0        0
S       43.54783426      32.88177468      11.03505105      32.06000001       0.00000000       0.00000000       0.00000000     1382        2        0        0       -1
S       46.32346098      31.34904053      14.17266452      32.06000001       0.00000000       0.00000000       0.00000000     1383        2        0        0        0
S       46.31254800      31.34137134      11.03293806      32.06000001       0.00000000       0.00000000       0.00000000     1384        2        0        0       -1
S       49.08374517      29.80301207      14.16769161      32.06000001       0.00000000       0.00000000       0.00000000     1385        2        0        0        0
S       49.07385488      29.80001920      11.02792628      32.06000001       0.00000000       0.00000000       0.00000000     1386        2        0        0       -1
S       51.84151969      28.25840218      14.16113281      32.06000001       0.00000000       0.00000000       0.00000000     1387        2        0        0        0
S       51.83364927      28.25987982      11.02130183      32.06000001       0.00000000       0.00000000       0.00000000     1388        2        0        0       -1
S       54.59903691      26.71661446      14.15371544      32.06000001       0.00000000       0.00000000       0.00000000     1389        2        0        0        0
S       54.59391851      26.72299645      11.01380426      32.06000001       0.00000000       0.00000000       0.00000000     1390        2        0        0       -1
S       57.35869063      25.17899975      14.14562299      32.06000001       0.00000000       0.00000000       0.00000000     1391        2        0        0        0
S       57.35669865      25.19115235      11.00561496      32.06000001       0.00000000       0.00000000       0.00000000     1392        2        0        0       -1
S       60.12297860      23.64692320      14.13648942      32.06000001       0.00000000       0.00000000       0.00000000     1393        2        0        0        0
S       60.12395819      23.66573464      10.99636452      32.06000001       0.00000000       0.00000000       0.00000000     1394        2        0        0       -1
S       62.89420550      22.12173962      14.12554982      32.06000001       0.00000000       0.00000000       0.00000000     1395        2        0        0        0
S       62.89746036      22.14758552      10.98528356      32.06000001       0.00000000       0.00000000       0.00000000     1396        2        0        0       -1
S       65.67393800      20.60459283      14.11213189      32.06000001       0.00000000       0.00000000       0.00000000     1397        2        0        0        0
S       65.67864022      20.63683653      10.97168914      32.06000001       0.00000000       0.00000000       0.00000000     1398        2        0        0       -1
S       68.46244975      19.09600894      14.09645438      32.06000001       0.00000000       0.00000000       0.00000000     1399        2        0        0        0
S       68.46844734      19.13268710      10.95581759      32.06000001       0.00000000       0.00000000       0.00000000     1400        2        0        0       -1
S       71.25844699      17.59525318      14.08046096      32.06000001       0.00000000       0.00000000       0.00000000     1401        2        0        0        0
S       71.26699836      17.63323305      10.93964218      32.06000001       0.00000000       0.00000000       0.00000000     1402        2        0        0       -1
S       74.05945822      16.09983416      14.06792020      32.06000001       0.00000000       0.00000000       0.00000000     1403        2        0        0        0
S       74.07310532      16.13570710      10.92691145      32.06000001       0.00000000       0.00000000       0.00000000     1404        2        0        0       -1
S       76.86299694      14.60581832      14.06301368      32.06000001       0.00000000       0.00000000       0.00000000     1405        2        0        0        0
S       76.88423090      14.63711209      10.92180595      32.06000001       0.00000000       0.00000000       0.00000000     1406        2        0        0       -1
S       26.73414336      45.22674459      14.06880202      32.06000001       0.00000000       0.00000000       0.00000000     1407        2        0        0        0
S       26.71407323      45.19623226      10.92767881      32.06000001       0.00000000       0.00000000       0.00000000     1408        2        0        0       -1
S       29.54546610      43.72489943      14.07583688      32.06000001       0.00000000       0.00000000       0.00000000     1409        2        0        0        0
S       29.53317840      43.68786129      10.93463464      32.06000001       0.00000000       0.00000000       0.00000000     1410        2        0        0       -1
S       32.35203309      42.21752409      14.09186006      32.06000001       0.00000000       0.00000000       0.00000000     1411        2        0        0        0
S       32.34537538      42.17689497      10.95071852      32.06000001       0.00000000       0.00000000       0.00000000     1412        2        0        0       -1
S       35.15254946      40.70210243      14.11237679      32.06000001       0.00000000       0.00000000       0.00000000     1413        2        0        0        0
S       35.14841930      40.66211209      10.97144630      32.06000001       0.00000000       0.00000000       0.00000000     1414        2        0        0       -1
S       37.94558439      39.17779607      14.13232924      32.06000001       0.00000000       0.00000000       0.00000000     1415        2        0        0        0
S       37.94135321      39.14256643      10.99170457      32.06000001       0.00000000       0.00000000       0.00000000     1416        2        0        0       -1
S       40.73009503      37.64545911      14.14796579      32.06000001       0.00000000       0.00000000       0.00000000     1417        2        0        0        0
S       40.72451837      37.61770409      11.00765210      32.06000001       0.00000000       0.00000000       0.00000000     1418        2        0        0       -1
S       43.50591247      36.10706467      14.15776030      32.06000001       0.00000000       0.00000000       0.00000000     1419        2        0        0        0
S       43.49920832      36.08762551      11.01769585      32.06000001       0.00000000       0.00000000       0.00000000     1420        2        0        0       -1
S       46.27394234      34.56490514      14.16217014      32.06000001       0.00000000       0.00000000       0.00000000     1421        2        0        0        0
S       46.26720404      34.55318750      11.02226694      32.06000001       0.00000000       0.00000000       0.00000000     1422        2        0        0       -1
S       49.03593291      33.02104842      14.16269277      32.06000001       0.00000000       0.00000000       0.00000000     1423        2        0        0        0
S       49.03044299      33.01584297      11.02287261      32.06000001       0.00000000       0.00000000       0.00000000     1424        2        0        0       -1
S       51.79405922      31.47719427      14.16097701      32.06000001       0.00000000       0.00000000       0.00000000     1425        2        0        0        0
S       51.79089897      31.47736561      11.02118639      32.06000001       0.00000000       0.00000000       0.00000000     1426        2        0        0       -1
S       54.55066117      29.93475382      14.15832271      32.06000001       0.00000000       0.00000000       0.00000000     1427        2        0        0        0
S       54.55056027      29.93962818      11.01853252      32.06000001       0.00000000       0.00000000       0.00000000     1428        2        0        0       -1
S       57.30819442      28.39498478      14.15542745      32.06000001       0.00000000       0.00000000       0.00000000     1429        2        0        0        0
S       57.31139227      28.40447787      11.01562213      32.06000001       0.00000000       0.00000000       0.00000000     1430        2        0        0       -1
S       60.06922674      26.85913200      14.15220252      32.06000001       0.00000000       0.00000000       0.00000000     1431        2        0        0        0
S       60.07529171      26.87364247      11.01236382      32.06000001       0.00000000       0.00000000       0.00000000     1432        2        0        0       -1
S       62.83625561      25.32854174      14.14774177      32.06000001       0.00000000       0.00000000       0.00000000     1433        2        0        0        0
S       62.84406309      25.34859581      11.00784401      32.06000001       0.00000000       0.00000000       0.00000000     1434        2        0        0       -1
S       65.61125348      23.80463833      14.14073404      32.06000001       0.00000000       0.00000000       0.00000000     1435        2        0        0        0
S       65.61939391      23.83033715      11.00073059      32.06000001       0.00000000       0.00000000       0.00000000     1436        2        0        0       -1
S       68.39510505      22.28862664      14.13036912      32.06000001       0.00000000       0.00000000       0.00000000     1437        2        0        0        0
S       68.40273144      22.31908230      10.99020001      32.06000001       0.00000000       0.00000000       0.00000000     1438        2        0        0       -1
S       71.18723197      20.78085812      14.11740269      32.06000001       0.00000000       0.00000000       0.00000000     1439        2        0        0        0
S       71.19495149      20.81392050      10.97702969      32.06000001       0.00000000       0.00000000       0.00000000     1440        2        0        0       -1
S       73.98568871      19.28009926      14.10472845      32.06000001       0.00000000       0.00000000       0.00000000     1441        2        0        0        0
S       73.99582185      19.31269769      10.96415097      32.06000001       0.00000000       0.00000000       0.00000000     1442        2        0        0       -1
S       76.78789015      17.78321513      14.09672989      32.06000001       0.00000000       0.00000000       0.00000000     1443        2        0        0        0
S       76.80354968      17.81240931      10.95595588      32.06000001       0.00000000       0.00000000       0.00000000     1444        2        0        0       -1
S       29.45786244      46.89918387      14.03778393      32.06000001       0.00000000       0.00000000       0.00000000     1445        2        0        0        0
S       29.44032269      46.86376191      10.89636597      32.06000001       0.00000000       0.00000000       0.00000000     1446        2        0        0       -1
S       32.26789981      45.39760892      14.04918038      32.06000001       0.00000000       0.00000000       0.00000000     1447        2        0        0        0
S       32.25824228      45.35669644      10.90769925      32.06000001       0.00000000       0.00000000       0.00000000     1448        2        0        0       -1
S       35.07261356      43.88992902      14.06893867      32.06000001       0.00000000       0.00000000       0.00000000     1449        2        0        0        0
S       35.06855901      43.84680583      10.92752621      32.06000001       0.00000000       0.00000000       0.00000000     1450        2        0        0       -1
S       37.87068145      42.37424721      14.09255988      32.06000001       0.00000000       0.00000000       0.00000000     1451        2        0        0        0
S       37.86949477      42.33323141      10.95137500      32.06000001       0.00000000       0.00000000       0.00000000     1452        2        0        0       -1
S       40.66086248      40.85007867      14.11536365      32.06000001       0.00000000       0.00000000       0.00000000     1453        2        0        0        0
S       40.66041201      40.81516215      10.97452742      32.06000001       0.00000000       0.00000000       0.00000000     1454        2        0        0       -1
S       43.44248541      39.31835739      14.13403386      32.06000001       0.00000000       0.00000000       0.00000000     1455        2        0        0        0
S       43.44184251      39.29200190      10.99357229      32.06000001       0.00000000       0.00000000       0.00000000     1456        2        0        0       -1
S       46.21580632      37.78091380      14.14728301      32.06000001       0.00000000       0.00000000       0.00000000     1457        2        0        0        0
S       46.21518399      37.76369183      11.00714099      32.06000001       0.00000000       0.00000000       0.00000000     1458        2        0        0       -1
S       48.98207925      36.23980215      14.15554326      32.06000001       0.00000000       0.00000000       0.00000000     1459        2        0        0        0
S       48.98230328      36.23085587      11.01562973      32.06000001       0.00000000       0.00000000       0.00000000     1460        2        0        0       -1
S       51.74327255      34.69689477      14.16015970      32.06000001       0.00000000       0.00000000       0.00000000     1461        2        0        0        0
S       51.74525379      34.69471070      11.02039019      32.06000001       0.00000000       0.00000000       0.00000000     1462        2        0        0       -1
S       54.50169364      33.15377350      14.16265008      32.06000001       0.00000000       0.00000000       0.00000000     1463        2        0        0        0
S       54.50612310      33.15685720      11.02296628      32.06000001       0.00000000       0.00000000       0.00000000     1464        2        0        0       -1
S       57.25979189      31.61179818      14.16419372      32.06000001       0.00000000       0.00000000       0.00000000     1465        2        0        0        0
S       57.26693308      31.61910894      11.02456776      32.06000001       0.00000000       0.00000000       0.00000000     1466        2        0        0       -1
S       60.02010909      30.07224895      14.16525800      32.06000001       0.00000000       0.00000000       0.00000000     1467        2        0        0        0
S       60.02957496      30.08338889      11.02567414      32.06000001       0.00000000       0.00000000       0.00000000     1468        2        0        0       -1
S       62.78518546      28.53648547      14.16535684      32.06000001       0.00000000       0.00000000       0.00000000     1469        2        0        0        0
S       62.79582573      28.55161334      11.02578698      32.06000001       0.00000000       0.00000000       0.00000000     1470        2        0        0       -1
S       65.55723747      27.00605966      14.16318550      32.06000001       0.00000000       0.00000000       0.00000000     1471        2        0        0        0
S       65.56741143      27.02548397      11.02357867      32.06000001       0.00000000       0.00000000       0.00000000     1472        2        0        0       -1
S       68.33763850      25.48260394      14.15737783      32.06000001       0.00000000       0.00000000       0.00000000     1473        2        0        0        0
S       68.34600042      25.50614805      11.01766261      32.06000001       0.00000000       0.00000000       0.00000000     1474        2        0        0       -1
S       71.12646010      23.96730177      14.14770307      32.06000001       0.00000000       0.00000000       0.00000000     1475        2        0        0        0
S       71.13295821      23.99375124      11.00780738      32.06000001       0.00000000       0.00000000       0.00000000     1476        2        0        0       -1
S       73.92239224      22.46006962      14.13600516      32.06000001       0.00000000       0.00000000       0.00000000     1477        2        0        0        0
S       73.92882906      22.48707735      10.99589439      32.06000001       0.00000000       0.00000000       0.00000000     1478        2        0        0       -1
S       76.72316854      20.95889161      14.12615068      32.06000001       0.00000000       0.00000000       0.00000000     1479        2        0        0        0
S       76.73274027      20.98358143      10.98583875      32.06000001       0.00000000       0.00000000       0.00000000     1480        2        0        0       -1
S       79.52645164      19.45981426      14.12255886      32.06000001       0.00000000       0.00000000       0.00000000     1481        2        0        0        0
S       79.54213295      19.47995549      10.98208502      32.06000001       0.00000000       0.00000000       0.00000000     1482        2        0        0       -1
S       29.35830305      50.07342823      14.00287115      32.06000001       0.00000000       0.00000000       0.00000000     1483        2        0        0        0
S       29.33717565      50.04323537      10.86140879      32.06000001       0.00000000       0.00000000       0.00000000     1484        2        0        0       -1
S       32.17133896      48.57599876      14.00827968      32.06000001       0.00000000       0.00000000       0.00000000     1485        2        0        0        0
S       32.15936093      48.53949876      10.86669312      32.06000001       0.00000000       0.00000000       0.00000000     1486        2        0        0       -1
S       34.97979155      47.07448037      14.02456975      32.06000001       0.00000000       0.00000000       0.00000000     1487        2        0        0        0
S       34.97586639      47.03355028      10.88294798      32.06000001       0.00000000       0.00000000       0.00000000     1488        2        0        0       -1
S       37.78259906      45.56657321      14.04884214      32.06000001       0.00000000       0.00000000       0.00000000     1489        2        0        0        0
S       37.78454895      45.52459999      10.90730611      32.06000001       0.00000000       0.00000000       0.00000000     1490        2        0        0       -1
S       40.57859078      44.05076582      14.07673481      32.06000001       0.00000000       0.00000000       0.00000000     1491        2        0        0        0
S       40.58392328      44.01193305      10.93545761      32.06000001       0.00000000       0.00000000       0.00000000     1492        2        0        0       -1
S       43.36684488      42.52669920      14.10379091      32.06000001       0.00000000       0.00000000       0.00000000     1493        2        0        0        0
S       43.37353391      42.49465186      10.96291800      32.06000001       0.00000000       0.00000000       0.00000000     1494        2        0        0       -1
S       46.14707925      40.99520773      14.12683707      32.06000001       0.00000000       0.00000000       0.00000000     1495        2        0        0        0
S       46.15404248      40.97197117      10.98639845      32.06000001       0.00000000       0.00000000       0.00000000     1496        2        0        0       -1
S       48.91988521      39.45787219      14.14453172      32.06000001       0.00000000       0.00000000       0.00000000     1497        2        0        0        0
S       48.92695904      39.44364705      11.00445997      32.06000001       0.00000000       0.00000000       0.00000000     1498        2        0        0       -1
S       51.68671760      37.91652070      14.15710437      32.06000001       0.00000000       0.00000000       0.00000000     1499        2        0        0        0
S       51.69428619      37.91019169      11.01730220      32.06000001       0.00000000       0.00000000       0.00000000     1500        2        0        0       -1
S       54.44961277      36.37293452      14.16570688      32.06000001       0.00000000       0.00000000       0.00000000     1501        2        0        0        0
S       54.45821303      36.37281394      11.02609584      32.06000001       0.00000000       0.00000000       0.00000000     1502        2        0        0       -1
S       57.21088914      34.82874241      14.17173114      32.06000001       0.00000000       0.00000000       0.00000000     1503        2        0        0        0
S       57.22088780      34.83320979      11.03226132      32.06000001       0.00000000       0.00000000       0.00000000     1504        2        0        0       -1
S       59.97299285      33.28545462      14.17620490      32.06000001       0.00000000       0.00000000       0.00000000     1505        2        0        0        0
S       59.98427314      33.29338609      11.03684614      32.06000001       0.00000000       0.00000000       0.00000000     1506        2        0        0       -1
S       62.73841240      31.74458365      14.17932429      32.06000001       0.00000000       0.00000000       0.00000000     1507        2        0        0        0
S       62.75013296      31.75553296      11.04004053      32.06000001       0.00000000       0.00000000       0.00000000     1508        2        0        0       -1
S       65.50946863      30.20780029      14.18028832      32.06000001       0.00000000       0.00000000       0.00000000     1509        2        0        0        0
S       65.52013378      30.22184861      11.04102027      32.06000001       0.00000000       0.00000000       0.00000000     1510        2        0        0       -1
S       68.28789115      28.67698734      14.17772810      32.06000001       0.00000000       0.00000000       0.00000000     1511        2        0        0        0
S       68.29595485      28.69423215      11.03839582      32.06000001       0.00000000       0.00000000       0.00000000     1512        2        0        0       -1
S       71.07432786      27.15391662      14.17079444      32.06000001       0.00000000       0.00000000       0.00000000     1513        2        0        0        0
S       71.07920010      27.17380367      11.03131564      32.06000001       0.00000000       0.00000000       0.00000000     1514        2        0        0       -1
S       73.86810691      25.63946607      14.16037078      32.06000001       0.00000000       0.00000000       0.00000000     1515        2        0        0        0
S       73.87096777      25.66038550      11.02068158      32.06000001       0.00000000       0.00000000       0.00000000     1516        2        0        0       -1
S       76.66746489      24.13276018      14.14951090      32.06000001       0.00000000       0.00000000       0.00000000     1517        2        0        0        0
S       76.67121514      24.15223960      11.00960249      32.06000001       0.00000000       0.00000000       0.00000000     1518        2        0        0       -1
S       79.47015386      22.63074245      14.14260882      32.06000001       0.00000000       0.00000000       0.00000000     1519        2        0        0        0
S       79.47824424      22.64633047      11.00252494      32.06000001       0.00000000       0.00000000       0.00000000     1520        2        0        0       -1
S       32.06466149      51.75349506      13.97384863      32.06000001       0.00000000       0.00000000       0.00000000     1521        2        0        0        0
S       32.05148543      51.72506441      10.83223999      32.06000001       0.00000000       0.00000000       0.00000000     1522        2        0        0       -1
S       34.87611168      50.25657411      13.98491377      32.06000001       0.00000000       0.00000000       0.00000000     1523        2        0        0        0
S       34.87240173      50.22247064      10.84325158      32.06000001       0.00000000       0.00000000       0.00000000     1524        2        0        0       -1
S       37.68291260      48.75493008      14.00670222      32.06000001       0.00000000       0.00000000       0.00000000     1525        2        0        0        0
S       37.68744648      48.71715486      10.86506696      32.06000001       0.00000000       0.00000000       0.00000000     1526        2        0        0       -1
S       40.48417578      47.24666003      14.03626918      32.06000001       0.00000000       0.00000000       0.00000000     1527        2        0        0        0
S       40.49475126      47.20850695      10.89476802      32.06000001       0.00000000       0.00000000       0.00000000     1528        2        0        0       -1
S       43.27902701      45.73041367      14.06921897      32.06000001       0.00000000       0.00000000       0.00000000     1529        2        0        0        0
S       43.29297910      45.69571464      10.92802289      32.06000001       0.00000000       0.00000000       0.00000000     1530        2        0        0       -1
S       46.06687071      44.20578400      14.10101321      32.06000001       0.00000000       0.00000000       0.00000000     1531        2        0        0        0
S       46.08182152      44.17763663      10.96026065      32.06000001       0.00000000       0.00000000       0.00000000     1532        2        0        0       -1
S       48.84769702      42.67339143      14.12837014      32.06000001       0.00000000       0.00000000       0.00000000     1533        2        0        0        0
S       48.86212656      42.65330999      10.98807319      32.06000001       0.00000000       0.00000000       0.00000000     1534        2        0        0       -1
S       51.62224223      41.13459812      14.14982797      32.06000001       0.00000000       0.00000000       0.00000000     1535        2        0        0        0
S       51.63561321      41.12251279      11.00991552      32.06000001       0.00000000       0.00000000       0.00000000     1536        2        0        0       -1
S       54.39196180      39.59118741      14.16554424      32.06000001       0.00000000       0.00000000       0.00000000     1537        2        0        0        0
S       54.40444974      39.58596178      11.02593648      32.06000001       0.00000000       0.00000000       0.00000000     1538        2        0        0       -1
S       57.15881529      38.04508626      14.17666010      32.06000001       0.00000000       0.00000000       0.00000000     1539        2        0        0        0
S       57.17087047      38.04514974      11.03729085      32.06000001       0.00000000       0.00000000       0.00000000     1540        2        0        0       -1
S       59.92503903      36.49817872      14.18451822      32.06000001       0.00000000       0.00000000       0.00000000     1541        2        0        0        0
S       59.93692101      36.50208023      11.04533237      32.06000001       0.00000000       0.00000000       0.00000000     1542        2        0        0       -1
S       62.69299545      34.95228599      14.18996259      32.06000001       0.00000000       0.00000000       0.00000000     1543        2        0        0        0
S       62.70437883      34.95907902      11.05090682      32.06000001       0.00000000       0.00000000       0.00000000     1544        2        0        0       -1
S       65.46500500      33.40928845      14.19290491      32.06000001       0.00000000       0.00000000       0.00000000     1545        2        0        0        0
S       65.47483790      33.41864344      11.05391263      32.06000001       0.00000000       0.00000000       0.00000000     1546        2        0        0       -1
S       68.24302382      31.87126293      14.19240225      32.06000001       0.00000000       0.00000000       0.00000000     1547        2        0        0        0
S       68.24988050      31.88319779      11.05338427      32.06000001       0.00000000       0.00000000       0.00000000     1548        2        0        0       -1
S       71.02818377      30.34037186      14.18743646      32.06000001       0.00000000       0.00000000       0.00000000     1549        2        0        0        0
S       71.03114743      30.35465196      11.04829754      32.06000001       0.00000000       0.00000000       0.00000000     1550        2        0        0       -1
S       73.82043574      28.81825054      14.17816302      32.06000001       0.00000000       0.00000000       0.00000000     1551        2        0        0        0
S       73.82007347      28.83381293      11.03882292      32.06000001       0.00000000       0.00000000       0.00000000     1552        2        0        0       -1
S       76.61858496      27.30506949      14.16677942      32.06000001       0.00000000       0.00000000       0.00000000     1553        2        0        0        0
S       76.61728712      27.31990700      11.02719948      32.06000001       0.00000000       0.00000000       0.00000000     1554        2        0        0       -1
S       79.42071175      25.79882731      14.15725108      32.06000001       0.00000000       0.00000000       0.00000000     1555        2        0        0        0
S       79.42197210      25.81053156      11.01746278      32.06000001       0.00000000       0.00000000       0.00000000     1556        2        0        0       -1
S       82.22480002      24.29534366      14.15378645      32.06000001       0.00000000       0.00000000       0.00000000     1557        2        0        0        0
S       82.23157826      24.30219151      11.01386376      32.06000001       0.00000000       0.00000000       0.00000000     1558        2        0        0       -1
S       31.95122232      54.93069556      13.94910231      32.06000001       0.00000000       0.00000000       0.00000000     1559        2        0        0        0
S       31.93796226      54.91265184      10.80744373      32.06000001       0.00000000       0.00000000       0.00000000     1560        2        0        0       -1
S       34.76459373      53.43723628      13.95423561      32.06000001       0.00000000       0.00000000       0.00000000     1561        2        0        0        0
S       34.76130134      53.41295026      10.81253782      32.06000001       0.00000000       0.00000000       0.00000000     1562        2        0        0       -1
S       37.57433631      51.94035606      13.97135344      32.06000001       0.00000000       0.00000000       0.00000000     1563        2        0        0        0
S       37.58064771      51.91073853      10.82970147      32.06000001       0.00000000       0.00000000       0.00000000     1564        2        0        0       -1
S       40.37975947      50.43815439      13.99902552      32.06000001       0.00000000       0.00000000       0.00000000     1565        2        0        0        0
S       40.39421268      50.40517592      10.85748933      32.06000001       0.00000000       0.00000000       0.00000000     1566        2        0        0       -1
S       43.18031893      48.92889719      14.03406020      32.06000001       0.00000000       0.00000000       0.00000000     1567        2        0        0        0
S       43.20025074      48.89557880      10.89271893      32.06000001       0.00000000       0.00000000       0.00000000     1568        2        0        0       -1
S       45.97544414      47.41120403      14.07168677      32.06000001       0.00000000       0.00000000       0.00000000     1569        2        0        0        0
S       45.99756642      47.38084908      10.93067779      32.06000001       0.00000000       0.00000000       0.00000000     1570        2        0        0       -1
S       48.76471517      45.88451584      14.10708734      32.06000001       0.00000000       0.00000000       0.00000000     1571        2        0        0        0
S       48.78613115      45.85963026      10.96652406      32.06000001       0.00000000       0.00000000       0.00000000     1572        2        0        0       -1
S       51.54815821      44.34933031      14.13697757      32.06000001       0.00000000       0.00000000       0.00000000     1573        2        0        0        0
S       51.56713645      44.33107507      10.99687332      32.06000001       0.00000000       0.00000000       0.00000000     1574        2        0        0       -1
S       54.32643273      42.80708850      14.16013045      32.06000001       0.00000000       0.00000000       0.00000000     1575        2        0        0        0
S       54.34253048      42.79539095      11.02043112      32.06000001       0.00000000       0.00000000       0.00000000     1576        2        0        0       -1
S       57.10086081      41.25983334      14.17696812      32.06000001       0.00000000       0.00000000       0.00000000     1577        2        0        0        0
S       57.11448517      41.25380453      11.03760199      32.06000001       0.00000000       0.00000000       0.00000000     1578        2        0        0       -1
S       59.87326886      39.70981047      14.18873904      32.06000001       0.00000000       0.00000000       0.00000000     1579        2        0        0        0
S       59.88504105      39.70824916      11.04963544      32.06000001       0.00000000       0.00000000       0.00000000     1580        2        0        0       -1
S       62.64577859      38.15923686      14.19666942      32.06000001       0.00000000       0.00000000       0.00000000     1581        2        0        0        0
S       62.65596094      38.16109158      11.05775607      32.06000001       0.00000000       0.00000000       0.00000000     1582        2        0        0       -1
S       65.42061389      36.61030626      14.20130977      32.06000001       0.00000000       0.00000000       0.00000000     1583        2        0        0        0
S       65.42876722      36.61496411      11.06251013      32.06000001       0.00000000       0.00000000       0.00000000     1584        2        0        0       -1
S       68.19983713      35.06532244      14.20230814      32.06000001       0.00000000       0.00000000       0.00000000     1585        2        0        0        0
S       68.20490955      35.07258544      11.06352693      32.06000001       0.00000000       0.00000000       0.00000000     1586        2        0        0       -1
S       70.98495351      33.52673136      14.19882482      32.06000001       0.00000000       0.00000000       0.00000000     1587        2        0        0        0
S       70.98593981      33.53641193      11.05995103      32.06000001       0.00000000       0.00000000       0.00000000     1588        2        0        0       -1
S       73.77649392      31.99673322      14.19058974      32.06000001       0.00000000       0.00000000       0.00000000     1589        2        0        0        0
S       73.77343745      32.00806875      11.05152527      32.06000001       0.00000000       0.00000000       0.00000000     1590        2        0        0       -1
S       76.57386172      30.47641485      14.17902481      32.06000001       0.00000000       0.00000000       0.00000000     1591        2        0        0        0
S       76.56852938      30.48774745      11.03970597      32.06000001       0.00000000       0.00000000       0.00000000     1592        2        0        0       -1
S       79.37558218      28.96485503      14.16749639      32.06000001       0.00000000       0.00000000       0.00000000     1593        2        0        0        0
S       79.37120175      28.97389562      11.02792623      32.06000001       0.00000000       0.00000000       0.00000000     1594        2        0        0       -1
S       82.17977379      27.45877212      14.16033107      32.06000001       0.00000000       0.00000000       0.00000000     1595        2        0        0        0
S       82.17978141      27.46346716      11.02058110      32.06000001       0.00000000       0.00000000       0.00000000     1596        2        0        0       -1
S       34.64862092      56.61722726      13.93477652      32.06000001       0.00000000       0.00000000       0.00000000     1597        2        0        0        0
S       34.64601840      56.60427803      10.79303104      32.06000001       0.00000000       0.00000000       0.00000000     1598        2        0        0       -1
S       37.46004681      55.12397321      13.94617854      32.06000001       0.00000000       0.00000000       0.00000000     1599        2        0        0        0
S       37.46754402      55.10480692      10.80448521      32.06000001       0.00000000       0.00000000       0.00000000     1600        2        0        0       -1
S       40.26827770      53.62635189      13.96943529      32.06000001       0.00000000       0.00000000       0.00000000     1601        2        0        0        0
S       40.28512716      53.60189901      10.82788663      32.06000001       0.00000000       0.00000000       0.00000000     1602        2        0        0       -1
S       43.07304505      52.12262445      14.00271314      32.06000001       0.00000000       0.00000000       0.00000000     1603        2        0        0        0
S       43.09709776      52.09469318      10.86135318      32.06000001       0.00000000       0.00000000       0.00000000     1604        2        0        0       -1
S       45.87415346      50.61100858      14.04216593      32.06000001       0.00000000       0.00000000       0.00000000     1605        2        0        0        0
S       45.90183092      50.58221389      10.90102475      32.06000001       0.00000000       0.00000000       0.00000000     1606        2        0        0       -1
S       48.67115243      49.08999600      14.08245798      32.06000001       0.00000000       0.00000000       0.00000000     1607        2        0        0        0
S       48.69848254      49.06308915      10.94164642      32.06000001       0.00000000       0.00000000       0.00000000     1608        2        0        0       -1
S       51.46353039      47.55905029      14.11879027      32.06000001       0.00000000       0.00000000       0.00000000     1609        2        0        0        0
S       51.48754390      47.53610588      10.97843090      32.06000001       0.00000000       0.00000000       0.00000000     1610        2        0        0       -1
S       54.25113137      46.01897586      14.14848754      32.06000001       0.00000000       0.00000000       0.00000000     1611        2        0        0        0
S       54.27056222      46.00103113      11.00859949      32.06000001       0.00000000       0.00000000       0.00000000     1612        2        0        0       -1
S       57.03444847      44.47164170      14.17101263      32.06000001       0.00000000       0.00000000       0.00000000     1613        2        0        0        0
S       57.04947041      44.45881481      11.03153437      32.06000001       0.00000000       0.00000000       0.00000000     1614        2        0        0       -1
S       59.81466559      42.91945641      14.18716420      32.06000001       0.00000000       0.00000000       0.00000000     1615        2        0        0        0
S       59.82614543      42.91128551      11.04801826      32.06000001       0.00000000       0.00000000       0.00000000     1616        2        0        0       -1
S       62.59348383      41.36497146      14.19818336      32.06000001       0.00000000       0.00000000       0.00000000     1617        2        0        0        0
S       62.60222831      41.36080429      11.05929464      32.06000001       0.00000000       0.00000000       0.00000000     1618        2        0        0       -1
S       65.37290026      39.81072392      14.20499038      32.06000001       0.00000000       0.00000000       0.00000000     1619        2        0        0        0
S       65.37911907      39.81003761      11.06627475      32.06000001       0.00000000       0.00000000       0.00000000     1620        2        0        0       -1
S       68.15495681      38.25928514      14.20772496      32.06000001       0.00000000       0.00000000       0.00000000     1621        2        0        0        0
S       68.15810738      38.26180916      11.06908058      32.06000001       0.00000000       0.00000000       0.00000000     1622        2        0        0       -1
S       70.94139581      36.71334366      14.20583977      32.06000001       0.00000000       0.00000000       0.00000000     1623        2        0        0        0
S       70.94058251      36.71886457      11.06714464      32.06000001       0.00000000       0.00000000       0.00000000     1624        2        0        0       -1
S       73.73323735      35.17551782      14.19887229      32.06000001       0.00000000       0.00000000       0.00000000     1625        2        0        0        0
S       73.72811503      35.18340902      11.06000798      32.06000001       0.00000000       0.00000000       0.00000000     1626        2        0        0       -1
S       76.53047796      33.64766856      14.18759798      32.06000001       0.00000000       0.00000000       0.00000000     1627        2        0        0        0
S       76.52215456      33.65647955      11.04847898      32.06000001       0.00000000       0.00000000       0.00000000     1628        2        0        0       -1
S       79.33214734      32.12993024      14.17472259      32.06000001       0.00000000       0.00000000       0.00000000     1629        2        0        0        0
S       79.32337010      32.13744342      11.03531744      32.06000001       0.00000000       0.00000000       0.00000000     1630        2        0        0       -1
S       82.13665869      30.62007491      14.16441298      32.06000001       0.00000000       0.00000000       0.00000000     1631        2        0        0        0
S       82.13098407      30.62395635      11.02477294      32.06000001       0.00000000       0.00000000       0.00000000     1632        2        0        0       -1
S       84.94226009      29.11363944      14.16072715      32.06000001       0.00000000       0.00000000       0.00000000     1633        2        0        0        0
S       84.94248160      29.11250330      11.02095313      32.06000001       0.00000000       0.00000000       0.00000000     1634        2        0        0       -1
S       34.53157339      59.79696132      13.92747825      32.06000001       0.00000000       0.00000000       0.00000000     1635        2        0        0        0
S       34.52979615      59.79602892      10.78570701      32.06000001       0.00000000       0.00000000       0.00000000     1636        2        0        0       -1
S       37.34328764      58.30647798      13.93274976      32.06000001       0.00000000       0.00000000       0.00000000     1637        2        0        0        0
S       37.35168802      58.29886762      10.79100877      32.06000001       0.00000000       0.00000000       0.00000000     1638        2        0        0       -1
S       40.15293666      56.81227690      13.95033063      32.06000001       0.00000000       0.00000000       0.00000000     1639        2        0        0        0
S       40.17116092      56.79837271      10.80871670      32.06000001       0.00000000       0.00000000       0.00000000     1640        2        0        0       -1
S       42.96027979      55.31260071      13.97918749      32.06000001       0.00000000       0.00000000       0.00000000     1641        2        0        0        0
S       42.98676478      55.29326937      10.83777901      32.06000001       0.00000000       0.00000000       0.00000000     1642        2        0        0       -1
S       45.76547667      53.80564558      14.01662791      32.06000001       0.00000000       0.00000000       0.00000000     1643        2        0        0        0
S       45.79691806      53.78244490      10.87542112      32.06000001       0.00000000       0.00000000       0.00000000     1644        2        0        0       -1
S       48.56846026      52.28948081      14.05790099      32.06000001       0.00000000       0.00000000       0.00000000     1645        2        0        0        0
S       48.60036135      52.26461102      10.91691471      32.06000001       0.00000000       0.00000000       0.00000000     1646        2        0        0       -1
S       51.36860100      50.76272386      14.09753947      32.06000001       0.00000000       0.00000000       0.00000000     1647        2        0        0        0
S       51.39693357      50.73850313      10.95691461      32.06000001       0.00000000       0.00000000       0.00000000     1648        2        0        0       -1
S       54.16510364      49.22541875      14.13164184      32.06000001       0.00000000       0.00000000       0.00000000     1649        2        0        0        0
S       54.18767823      49.20362420      10.99149069      32.06000001       0.00000000       0.00000000       0.00000000     1650        2        0        0       -1
S       56.95761507      47.67903677      14.15870317      32.06000001       0.00000000       0.00000000       0.00000000     1651        2        0        0        0
S       56.97418388      47.66067984      11.01900885      32.06000001       0.00000000       0.00000000       0.00000000     1652        2        0        0       -1
S       59.74653113      46.12589876      14.17895069      32.06000001       0.00000000       0.00000000       0.00000000     1653        2        0        0        0
S       59.75803318      46.11139093      11.03963923      32.06000001       0.00000000       0.00000000       0.00000000     1654        2        0        0       -1
S       62.53294779      44.56868877      14.19339632      32.06000001       0.00000000       0.00000000       0.00000000     1655        2        0        0        0
S       62.54060741      44.55810695      11.05439706      32.06000001       0.00000000       0.00000000       0.00000000     1656        2        0        0       -1
S       65.31846628      43.01018550      14.20302525      32.06000001       0.00000000       0.00000000       0.00000000     1657        2        0        0        0
S       65.32307196      43.00350334      11.06425936      32.06000001       0.00000000       0.00000000       0.00000000     1658        2        0        0       -1
S       68.10494882      41.45319266      14.20821372      32.06000001       0.00000000       0.00000000       0.00000000     1659        2        0        0        0
S       68.10648510      41.45040643      11.06958149      32.06000001       0.00000000       0.00000000       0.00000000     1660        2        0        0       -1
S       70.89420230      39.90060000      14.20859928      32.06000001       0.00000000       0.00000000       0.00000000     1661        2        0        0        0
S       70.89200174      39.90164970      11.06997724      32.06000001       0.00000000       0.00000000       0.00000000     1662        2        0        0       -1
S       73.68757820      38.35532824      14.20358803      32.06000001       0.00000000       0.00000000       0.00000000     1663        2        0        0        0
S       73.68105129      38.35976021      11.06484175      32.06000001       0.00000000       0.00000000       0.00000000     1664        2        0        0       -1
S       76.48559501      36.81986265      14.19339478      32.06000001       0.00000000       0.00000000       0.00000000     1665        2        0        0        0
S       76.47522284      36.82641401      11.05441453      32.06000001       0.00000000       0.00000000       0.00000000     1666        2        0        0       -1
S       79.28780737      35.29533481      14.18001267      32.06000001       0.00000000       0.00000000       0.00000000     1667        2        0        0        0
S       79.27571547      35.30183853      11.04073592      32.06000001       0.00000000       0.00000000       0.00000000     1668        2        0        0       -1
S       82.09301322      33.78066280      14.16724945      32.06000001       0.00000000       0.00000000       0.00000000     1669        2        0        0        0
S       82.08259077      33.78451622      11.02768989      32.06000001       0.00000000       0.00000000       0.00000000     1670        2        0        0       -1
S       84.89961445      32.27231333      14.15958929      32.06000001       0.00000000       0.00000000       0.00000000     1671        2        0        0        0
S       84.89424156      32.27144948      11.01983853      32.06000001       0.00000000       0.00000000       0.00000000     1672        2        0        0       -1
S       42.84535854      58.49974399      13.96623160      32.06000001       0.00000000       0.00000000       0.00000000     1673        2        0        0        0
S       42.87319241      58.49108749      10.82470570      32.06000001       0.00000000       0.00000000       0.00000000     1674        2        0        0       -1
S       45.65276018      56.99606158      13.99912705      32.06000001       0.00000000       0.00000000       0.00000000     1675        2        0        0        0
S       45.68651907      56.98183938      10.85780038      32.06000001       0.00000000       0.00000000       0.00000000     1676        2        0        0       -1
S       48.45946828      55.48348088      14.03788035      32.06000001       0.00000000       0.00000000       0.00000000     1677        2        0        0        0
S       48.49468710      55.46501265      10.89675125      32.06000001       0.00000000       0.00000000       0.00000000     1678        2        0        0       -1
S       51.26519901      53.96022640      14.07728898      32.06000001       0.00000000       0.00000000       0.00000000     1679        2        0        0        0
S       51.29719854      53.93936529      10.93644412      32.06000001       0.00000000       0.00000000       0.00000000     1680        2        0        0       -1
S       54.06897016      52.42570863      14.11285188      32.06000001       0.00000000       0.00000000       0.00000000     1681        2        0        0        0
S       54.09466126      52.40434443      10.97242275      32.06000001       0.00000000       0.00000000       0.00000000     1682        2        0        0       -1
S       56.86977525      50.88090902      14.14226041      32.06000001       0.00000000       0.00000000       0.00000000     1683        2        0        0        0
S       56.88832102      50.86051078      11.00228462      32.06000001       0.00000000       0.00000000       0.00000000     1684        2        0        0       -1
S       59.66722539      49.32789780      14.16521742      32.06000001       0.00000000       0.00000000       0.00000000     1685        2        0        0        0
S       59.67945039      49.30949111      11.02564844      32.06000001       0.00000000       0.00000000       0.00000000     1686        2        0        0       -1
S       62.46172121      47.76929245      14.18249346      32.06000001       0.00000000       0.00000000       0.00000000     1687        2        0        0        0
S       62.46910086      47.75363305      11.04326818      32.06000001       0.00000000       0.00000000       0.00000000     1688        2        0        0       -1
S       65.25433235      46.20792498      14.19500616      32.06000001       0.00000000       0.00000000       0.00000000     1689        2        0        0        0
S       65.25809974      46.19564123      11.05605802      32.06000001       0.00000000       0.00000000       0.00000000     1690        2        0        0       -1
S       68.04657338      44.64669730      14.20315437      32.06000001       0.00000000       0.00000000       0.00000000     1691        2        0        0        0
S       68.04716969      44.63834179      11.06439797      32.06000001       0.00000000       0.00000000       0.00000000     1692        2        0        0       -1
S       70.84011300      43.08859584      14.20656915      32.06000001       0.00000000       0.00000000       0.00000000     1693        2        0        0        0
S       70.83713489      43.08456235      11.06789371      32.06000001       0.00000000       0.00000000       0.00000000     1694        2        0        0       -1
S       73.63641396      41.53671148      14.20443843      32.06000001       0.00000000       0.00000000       0.00000000     1695        2        0        0        0
S       73.62914631      41.53695729      11.06570945      32.06000001       0.00000000       0.00000000       0.00000000     1696        2        0        0       -1
S       76.43634850      39.99397317      14.19640158      32.06000001       0.00000000       0.00000000       0.00000000     1697        2        0        0        0
S       76.42472810      39.99760926      11.05748798      32.06000001       0.00000000       0.00000000       0.00000000     1698        2        0        0       -1
S       79.23994322      38.46238923      14.18364080      32.06000001       0.00000000       0.00000000       0.00000000     1699        2        0        0        0
S       79.22540108      38.46744983      11.04444958      32.06000001       0.00000000       0.00000000       0.00000000     1700        2        0        0       -1
S       82.04641842      36.94205960      14.16937246      32.06000001       0.00000000       0.00000000       0.00000000     1701        2        0        0        0
S       82.03194536      36.94578677      11.02987455      32.06000001       0.00000000       0.00000000       0.00000000     1702        2        0        0       -1
S       84.85444837      35.43059882      14.15817175      32.06000001       0.00000000       0.00000000       0.00000000     1703        2        0        0        0
S       84.84369051      35.43028742      11.01842738      32.06000001       0.00000000       0.00000000       0.00000000     1704        2        0        0       -1
S       87.66250742      33.92336242      14.15429664      32.06000001       0.00000000       0.00000000       0.00000000     1705        2        0        0        0
S       87.65821768      33.91753515      11.01441751      32.06000001       0.00000000       0.00000000       0.00000000     1706        2        0        0       -1
S       48.34794057      58.67307046      14.02660277      32.06000001       0.00000000       0.00000000       0.00000000     1707        2        0        0        0
S       48.38550827      58.66437174      10.88529744      32.06000001       0.00000000       0.00000000       0.00000000     1708        2        0        0       -1
S       51.15674832      57.15232426      14.06291758      32.06000001       0.00000000       0.00000000       0.00000000     1709        2        0        0        0
S       51.19183538      57.13930079      10.92188117      32.06000001       0.00000000       0.00000000       0.00000000     1710        2        0        0       -1
S       53.96528957      55.62010624      14.09694363      32.06000001       0.00000000       0.00000000       0.00000000     1711        2        0        0        0
S       53.99413257      55.60416476      10.95628099      32.06000001       0.00000000       0.00000000       0.00000000     1712        2        0        0       -1
S       56.77235994      54.07698951      14.12599174      32.06000001       0.00000000       0.00000000       0.00000000     1713        2        0        0        0
S       56.79343645      54.05946854      10.98574122      32.06000001       0.00000000       0.00000000       0.00000000     1714        2        0        0       -1
S       59.57699833      52.52474093      14.14939949      32.06000001       0.00000000       0.00000000       0.00000000     1715        2        0        0        0
S       59.59081744      52.50679109      11.00953630      32.06000001       0.00000000       0.00000000       0.00000000     1716        2        0        0       -1
S       62.37895231      50.96580850      14.16780290      32.06000001       0.00000000       0.00000000       0.00000000     1717        2        0        0        0
S       62.38706269      50.94848974      11.02828328      32.06000001       0.00000000       0.00000000       0.00000000     1718        2        0        0       -1
S       65.17872345      49.40293819      14.18212877      32.06000001       0.00000000       0.00000000       0.00000000     1719        2        0        0        0
S       65.18265604      49.38732473      11.04290463      32.06000001       0.00000000       0.00000000       0.00000000     1720        2        0        0       -1
S       67.97738365      47.83897953      14.19279138      32.06000001       0.00000000       0.00000000       0.00000000     1721        2        0        0        0
S       67.97792761      47.82616663      11.05379896      32.06000001       0.00000000       0.00000000       0.00000000     1722        2        0        0       -1
S       70.77629772      46.27686734      14.19933943      32.06000001       0.00000000       0.00000000       0.00000000     1723        2        0        0        0
S       70.77328396      46.26784971      11.06048946      32.06000001       0.00000000       0.00000000       0.00000000     1724        2        0        0       -1
S       73.57680677      44.71968553      14.20066332      32.06000001       0.00000000       0.00000000       0.00000000     1725        2        0        0        0
S       73.56946706      44.71507297      11.06183595      32.06000001       0.00000000       0.00000000       0.00000000     1726        2        0        0       -1
S       76.37989279      43.17057365      14.19576608      32.06000001       0.00000000       0.00000000       0.00000000     1727        2        0        0        0
S       76.36771948      43.17015337      11.05682407      32.06000001       0.00000000       0.00000000       0.00000000     1728        2        0        0       -1
S       79.18588958      41.63218890      14.18488493      32.06000001       0.00000000       0.00000000       0.00000000     1729        2        0        0        0
S       79.16961180      41.63454155      11.04571269      32.06000001       0.00000000       0.00000000       0.00000000     1730        2        0        0       -1
S       81.99439113      40.10573571      14.17034775      32.06000001       0.00000000       0.00000000       0.00000000     1731        2        0        0        0
S       81.97642298      40.10827841      11.03087815      32.06000001       0.00000000       0.00000000       0.00000000     1732        2        0        0       -1
S       84.80439617      38.59010566      14.15640979      32.06000001       0.00000000       0.00000000       0.00000000     1733        2        0        0        0
S       84.78834276      38.58974243      11.01665442      32.06000001       0.00000000       0.00000000       0.00000000     1734        2        0        0       -1
S       87.61455018      37.08168777      14.14796607      32.06000001       0.00000000       0.00000000       0.00000000     1735        2        0        0        0
S       87.60391350      37.07595817      11.00801570      32.06000001       0.00000000       0.00000000       0.00000000     1736        2        0        0       -1
S       53.85824290      58.80978055      14.08879729      32.06000001       0.00000000       0.00000000       0.00000000     1737        2        0        0        0
S       53.89006343      58.80315099      10.94795061      32.06000001       0.00000000       0.00000000       0.00000000     1738        2        0        0       -1
S       56.66891469      57.26801561      14.11508096      32.06000001       0.00000000       0.00000000       0.00000000     1739        2        0        0        0
S       56.69285479      57.25806382      10.97461954      32.06000001       0.00000000       0.00000000       0.00000000     1740        2        0        0       -1
S       59.47841196      55.71664152      14.13645979      32.06000001       0.00000000       0.00000000       0.00000000     1741        2        0        0        0
S       59.49453388      55.70411787      10.99634794      32.06000001       0.00000000       0.00000000       0.00000000     1742        2        0        0       -1
S       62.28606742      54.15793388      14.15361883      32.06000001       0.00000000       0.00000000       0.00000000     1743        2        0        0        0
S       62.29580898      54.14368758      11.01381410      32.06000001       0.00000000       0.00000000       0.00000000     1744        2        0        0       -1
S       65.09191225      52.59451115      14.16766379      32.06000001       0.00000000       0.00000000       0.00000000     1745        2        0        0        0
S       65.09695124      52.57960568      11.02813356      32.06000001       0.00000000       0.00000000       0.00000000     1746        2        0        0       -1
S       67.89659081      51.02909838      14.17918304      32.06000001       0.00000000       0.00000000       0.00000000     1747        2        0        0        0
S       67.89795639      51.01482860      11.03989145      32.06000001       0.00000000       0.00000000       0.00000000     1748        2        0        0       -1
S       70.70110707      49.46448104      14.18776471      32.06000001       0.00000000       0.00000000       0.00000000     1749        2        0        0        0
S       70.69881017      49.45225375      11.04865303      32.06000001       0.00000000       0.00000000       0.00000000     1750        2        0        0       -1
S       73.50653265      47.90358395      14.19208683      32.06000001       0.00000000       0.00000000       0.00000000     1751        2        0        0        0
S       73.49977874      47.89463848      11.05305982      32.06000001       0.00000000       0.00000000       0.00000000     1752        2        0        0       -1
S       76.31372729      46.34950268      14.19056686      32.06000001       0.00000000       0.00000000       0.00000000     1753        2        0        0        0
S       76.30165266      46.34445611      11.05149716      32.06000001       0.00000000       0.00000000       0.00000000     1754        2        0        0       -1
S       79.12309302      44.80521256      14.18244651      32.06000001       0.00000000       0.00000000       0.00000000     1755        2        0        0        0
S       79.10576394      44.80354035      11.04320899      32.06000001       0.00000000       0.00000000       0.00000000     1756        2        0        0       -1
S       81.93443862      43.27276922      14.16889351      32.06000001       0.00000000       0.00000000       0.00000000     1757        2        0        0        0
S       81.91357550      43.27255165      11.02939514      32.06000001       0.00000000       0.00000000       0.00000000     1758        2        0        0       -1
S       84.74703248      41.75230568      14.15336102      32.06000001       0.00000000       0.00000000       0.00000000     1759        2        0        0        0
S       84.72592376      41.75056278      11.01356645      32.06000001       0.00000000       0.00000000       0.00000000     1760        2        0        0       -1
S       87.55975375      40.24146664      14.14079244      32.06000001       0.00000000       0.00000000       0.00000000     1761        2        0        0        0
S       87.54229390      40.23511190      11.00075002      32.06000001       0.00000000       0.00000000       0.00000000     1762        2        0        0       -1
S       90.37131113      38.73566379      14.13588718      32.06000001       0.00000000       0.00000000       0.00000000     1763        2        0        0        0
S       90.36047612      38.72284075      10.99569458      32.06000001       0.00000000       0.00000000       0.00000000     1764        2        0        0       -1
S       59.37602505      58.90478375      14.13117116      32.06000001       0.00000000       0.00000000       0.00000000     1765        2        0        0        0
S       59.39458712      58.90128493      10.99090391      32.06000001       0.00000000       0.00000000       0.00000000     1766        2        0        0       -1
S       62.18682964      57.34632283      14.14490710      32.06000001       0.00000000       0.00000000       0.00000000     1767        2        0        0        0
S       62.19862573      57.33949203      11.00490522      32.06000001       0.00000000       0.00000000       0.00000000     1768        2        0        0       -1
S       64.99659845      55.78271922      14.15625782      32.06000001       0.00000000       0.00000000       0.00000000     1769        2        0        0        0
S       65.00332258      55.77310091      11.01648044      32.06000001       0.00000000       0.00000000       0.00000000     1770        2        0        0       -1
S       67.80571172      54.21659012      14.16620997      32.06000001       0.00000000       0.00000000       0.00000000     1771        2        0        0        0
S       67.80852018      54.20516250      11.02663236      32.06000001       0.00000000       0.00000000       0.00000000     1772        2        0        0       -1
S       70.61488778      52.65056531      14.17462670      32.06000001       0.00000000       0.00000000       0.00000000     1773        2        0        0        0
S       70.61390381      52.63868217      11.03522286      32.06000001       0.00000000       0.00000000       0.00000000     1774        2        0        0       -1
S       73.42491392      51.08736317      14.18021619      32.06000001       0.00000000       0.00000000       0.00000000     1775        2        0        0        0
S       73.41931544      51.07652493      11.04092644      32.06000001       0.00000000       0.00000000       0.00000000     1776        2        0        0       -1
S       76.23640829      49.52987685      14.18104946      32.06000001       0.00000000       0.00000000       0.00000000     1777        2        0        0        0
S       76.22504413      49.52132060      11.04177074      32.06000001       0.00000000       0.00000000       0.00000000     1778        2        0        0       -1
S       79.04963381      47.98107273      14.17554268      32.06000001       0.00000000       0.00000000       0.00000000     1779        2        0        0        0
S       79.03197840      47.97521562      11.03615479      32.06000001       0.00000000       0.00000000       0.00000000     1780        2        0        0       -1
S       81.86440173      46.44345777      14.16364704      32.06000001       0.00000000       0.00000000       0.00000000     1781        2        0        0        0
S       81.84143609      46.43940729      11.02404412      32.06000001       0.00000000       0.00000000       0.00000000     1782        2        0        0       -1
S       84.68009745      44.91814280      14.14762829      32.06000001       0.00000000       0.00000000       0.00000000     1783        2        0        0        0
S       84.65457467      44.91364061      11.00774296      32.06000001       0.00000000       0.00000000       0.00000000     1784        2        0        0       -1
S       87.49577960      43.40402902      14.13183417      32.06000001       0.00000000       0.00000000       0.00000000     1785        2        0        0        0
S       87.47162710      43.39602889      10.99167178      32.06000001       0.00000000       0.00000000       0.00000000     1786        2        0        0       -1
S       90.31029266      41.89763513      14.12144566      32.06000001       0.00000000       0.00000000       0.00000000     1787        2        0        0        0
S       90.29133719      41.88346726      10.98107452      32.06000001       0.00000000       0.00000000       0.00000000     1788        2        0        0       -1
S       64.89754626      58.96859524      14.15224370      32.06000001       0.00000000       0.00000000       0.00000000     1789        2        0        0        0
S       64.90590130      58.96744481      11.01232963      32.06000001       0.00000000       0.00000000       0.00000000     1790        2        0        0       -1
S       67.70859576      57.40188094      14.15841343      32.06000001       0.00000000       0.00000000       0.00000000     1791        2        0        0        0
S       67.71298892      57.39729232      11.01864302      32.06000001       0.00000000       0.00000000       0.00000000     1792        2        0        0       -1
S       70.52035582      55.83491307      14.16414122      32.06000001       0.00000000       0.00000000       0.00000000     1793        2        0        0        0
S       70.52095767      55.82764532      11.02449892      32.06000001       0.00000000       0.00000000       0.00000000     1794        2        0        0       -1
S       73.33347000      54.27025889      14.16847060      32.06000001       0.00000000       0.00000000       0.00000000     1795        2        0        0        0
S       73.32939854      54.26149836      11.02892224      32.06000001       0.00000000       0.00000000       0.00000000     1796        2        0        0       -1
S       76.14834820      52.71060073      14.16947507      32.06000001       0.00000000       0.00000000       0.00000000     1797        2        0        0        0
S       76.13819835      52.70166113      11.02994904      32.06000001       0.00000000       0.00000000       0.00000000     1798        2        0        0       -1
S       78.96502726      51.15872357      14.16511521      32.06000001       0.00000000       0.00000000       0.00000000     1799        2        0        0        0
S       78.94776725      51.15057132      11.02551282      32.06000001       0.00000000       0.00000000       0.00000000     1800        2        0        0       -1
S       81.78314686      49.61720491      14.15438763      32.06000001       0.00000000       0.00000000       0.00000000     1801        2        0        0        0
S       81.75905628      49.60991010      11.01460569      32.06000001       0.00000000       0.00000000       0.00000000     1802        2        0        0       -1
S       84.60203246      48.08770381      14.13831561      32.06000001       0.00000000       0.00000000       0.00000000     1803        2        0        0        0
S       84.57320992      48.08008112      10.99827274      32.06000001       0.00000000       0.00000000       0.00000000     1804        2        0        0       -1
S       87.42079440      46.57011580      14.12020016      32.06000001       0.00000000       0.00000000       0.00000000     1805        2        0        0        0
S       87.39089838      46.55985306      10.97987467      32.06000001       0.00000000       0.00000000       0.00000000     1806        2        0        0       -1
S       90.23837813      45.06210354      14.10492415      32.06000001       0.00000000       0.00000000       0.00000000     1807        2        0        0        0
S       90.21165844      45.04650303      10.96435958      32.06000001       0.00000000       0.00000000       0.00000000     1808        2        0        0       -1
S       93.05368444      43.55938882      14.09738889      32.06000001       0.00000000       0.00000000       0.00000000     1809        2        0        0        0
S       93.03352633      43.53658135      10.95664380      32.06000001       0.00000000       0.00000000       0.00000000     1810        2        0        0       -1
S       70.42225822      59.01828553      14.16038101      32.06000001       0.00000000       0.00000000       0.00000000     1811        2        0        0        0
S       70.42424846      59.01873346      11.02060341      32.06000001       0.00000000       0.00000000       0.00000000     1812        2        0        0       -1
S       73.23598414      57.45234384      14.16118024      32.06000001       0.00000000       0.00000000       0.00000000     1813        2        0        0        0
S       73.23348298      57.44964275      11.02144926      32.06000001       0.00000000       0.00000000       0.00000000     1814        2        0        0       -1
S       76.05222176      55.89107351      14.15982213      32.06000001       0.00000000       0.00000000       0.00000000     1815        2        0        0        0
S       76.04357795      55.88597333      11.02008382      32.06000001       0.00000000       0.00000000       0.00000000     1816        2        0        0       -1
S       78.87086450      54.33710242      14.15424953      32.06000001       0.00000000       0.00000000       0.00000000     1817        2        0        0        0
S       78.85460018      54.33042629      11.01442427      32.06000001       0.00000000       0.00000000       0.00000000     1818        2        0        0       -1
S       81.69132453      52.79289092      14.14298226      32.06000001       0.00000000       0.00000000       0.00000000     1819        2        0        0        0
S       81.66710890      52.78511788      11.00298299      32.06000001       0.00000000       0.00000000       0.00000000     1820        2        0        0       -1
S       84.51272868      51.26024286      14.12613735      32.06000001       0.00000000       0.00000000       0.00000000     1821        2        0        0        0
S       84.48201848      51.25108425      10.98589002      32.06000001       0.00000000       0.00000000       0.00000000     1822        2        0        0       -1
S       87.33410895      49.73962235      14.10594413      32.06000001       0.00000000       0.00000000       0.00000000     1823        2        0        0        0
S       87.30012610      49.72781454      10.96542366      32.06000001       0.00000000       0.00000000       0.00000000     1824        2        0        0       -1
S       90.15444752      48.22959846      14.08650573      32.06000001       0.00000000       0.00000000       0.00000000     1825        2        0        0        0
S       90.12148359      48.21314565      10.94574931      32.06000001       0.00000000       0.00000000       0.00000000     1826        2        0        0       -1
S       92.97267961      46.72680963      14.07278658      32.06000001       0.00000000       0.00000000       0.00000000     1827        2        0        0        0
S       92.94488384      46.70376625      10.93183125      32.06000001       0.00000000       0.00000000       0.00000000     1828        2        0        0       -1
S       75.95266429      59.07169799      14.15626584      32.06000001       0.00000000       0.00000000       0.00000000     1829        2        0        0        0
S       75.94548726      59.07381421      11.01639333      32.06000001       0.00000000       0.00000000       0.00000000     1830        2        0        0       -1
S       78.77089171      57.51585170      14.14732239      32.06000001       0.00000000       0.00000000       0.00000000     1831        2        0        0        0
S       78.75594485      57.51484096      11.00732247      32.06000001       0.00000000       0.00000000       0.00000000     1832        2        0        0       -1
S       81.59174604      55.96958594      14.13330256      32.06000001       0.00000000       0.00000000       0.00000000     1833        2        0        0        0
S       81.56818362      55.96555375      10.99310236      32.06000001       0.00000000       0.00000000       0.00000000     1834        2        0        0       -1
S       84.41412304      54.43466363      14.11398157      32.06000001       0.00000000       0.00000000       0.00000000     1835        2        0        0        0
S       84.38287235      54.42753761      10.97352645      32.06000001       0.00000000       0.00000000       0.00000000     1836        2        0        0       -1
S       87.23688062      52.91172693      14.09093245      32.06000001       0.00000000       0.00000000       0.00000000     1837        2        0        0        0
S       87.20073532      52.90100390      10.95021858      32.06000001       0.00000000       0.00000000       0.00000000     1838        2        0        0       -1
S       90.05898297      51.39986410      14.06750011      32.06000001       0.00000000       0.00000000       0.00000000     1839        2        0        0        0
S       90.02205994      51.38448997      10.92658453      32.06000001       0.00000000       0.00000000       0.00000000     1840        2        0        0       -1
S       92.87942639      49.89643934      14.04821245      32.06000001       0.00000000       0.00000000       0.00000000     1841        2        0        0        0
S       92.84616027      49.87507068      10.90713297      32.06000001       0.00000000       0.00000000       0.00000000     1842        2        0        0       -1
S       95.69723837      48.39757973      14.03744293      32.06000001       0.00000000       0.00000000       0.00000000     1843        2        0        0        0
S       95.67109759      48.36919670      10.89618184      32.06000001       0.00000000       0.00000000       0.00000000     1844        2        0        0       -1
S       81.48899187      59.14728988      14.12975371      32.06000001       0.00000000       0.00000000       0.00000000     1845        2        0        0        0
S       81.46645122      59.15068280      10.98939785      32.06000001       0.00000000       0.00000000       0.00000000     1846        2        0        0       -1
S       84.31015605      57.61030527      14.10624867      32.06000001       0.00000000       0.00000000       0.00000000     1847        2        0        0        0
S       84.27925346      57.60942506      10.96560038      32.06000001       0.00000000       0.00000000       0.00000000     1848        2        0        0       -1
S       87.13238888      56.08549289      14.07894358      32.06000001       0.00000000       0.00000000       0.00000000     1849        2        0        0        0
S       87.09564182      56.07983487      10.93803439      32.06000001       0.00000000       0.00000000       0.00000000     1850        2        0        0       -1
S       89.95459342      54.57211810      14.05090394      32.06000001       0.00000000       0.00000000       0.00000000     1851        2        0        0        0
S       89.91594849      54.56117299      10.90983525      32.06000001       0.00000000       0.00000000       0.00000000     1852        2        0        0       -1
S       92.77586522      53.06795417      14.02626104      32.06000001       0.00000000       0.00000000       0.00000000     1853        2        0        0        0
S       92.73975156      53.05110082      10.88510227      32.06000001       0.00000000       0.00000000       0.00000000     1854        2        0        0       -1
S       95.59531099      51.56962326      14.00924069      32.06000001       0.00000000       0.00000000       0.00000000     1855        2        0        0        0
S       95.56553813      51.54624934      10.86794954      32.06000001       0.00000000       0.00000000       0.00000000     1856        2        0        0       -1
S       87.02527449      59.26072111      14.07425713      32.06000001       0.00000000       0.00000000       0.00000000     1857        2        0        0        0
S       86.98876221      59.26363770      10.93315277      32.06000001       0.00000000       0.00000000       0.00000000     1858        2        0        0       -1
S       89.84557686      57.74580292      14.04077052      32.06000001       0.00000000       0.00000000       0.00000000     1859        2        0        0        0
S       89.80666218      57.74292188      10.89950670      32.06000001       0.00000000       0.00000000       0.00000000     1860        2        0        0       -1
S       92.66583551      56.24082923      14.01047423      32.06000001       0.00000000       0.00000000       0.00000000     1861        2        0        0        0
S       92.62892676      56.23177583      10.86917653      32.06000001       0.00000000       0.00000000       0.00000000     1862        2        0        0       -1
S       95.48533203      54.74268859      13.98746868      32.06000001       0.00000000       0.00000000       0.00000000     1863        2        0        0        0
S       95.45424309      54.72725588      10.84611370      32.06000001       0.00000000       0.00000000       0.00000000     1864        2        0        0       -1
S       98.30319074      53.24796520      13.97475319      32.06000001       0.00000000       0.00000000       0.00000000     1865        2        0        0        0
S       98.28047422      53.22599441      10.83326884      32.06000001       0.00000000       0.00000000       0.00000000     1866        2        0        0       -1
S       92.55386333      59.41506775      14.00414577      32.06000001       0.00000000       0.00000000       0.00000000     1867        2        0        0        0
S       92.51721251      59.41635274      10.86266220      32.06000001       0.00000000       0.00000000       0.00000000     1868        2        0        0       -1
S       95.37157334      57.91672268      13.97510089      32.06000001       0.00000000       0.00000000       0.00000000     1869        2        0        0        0
S       95.34061469      57.91163054      10.83360685      32.06000001       0.00000000       0.00000000       0.00000000     1870        2        0        0       -1
S       98.18894841      56.42296191      13.95623573      32.06000001       0.00000000       0.00000000       0.00000000     1871        2        0        0        0
S       98.16617946      56.41140684      10.81466892      32.06000001       0.00000000       0.00000000       0.00000000     1872        2        0        0       -1
S       98.07327265      59.59873315      13.94909562      32.06000001       0.00000000       0.00000000       0.00000000     1873        2        0        0        0
S       98.05120766      59.59887855      10.80743177      32.06000001       0.00000000       0.00000000       0.00000000     1874        2        0        0       -1
S      100.88843861      58.10802546      13.93578115      32.06000001       0.00000000       0.00000000       0.00000000     1875        2        0        0        0
S      100.87581679      58.10162851      10.79406136      32.06000001       0.00000000       0.00000000       0.00000000     1876        2        0        0       -1
S        2.80435579       1.52456539      20.71635188      32.06000001       0.00000000       0.00000000       0.00000000     1877        2        0        0        0
S        2.79613860       1.51917733      17.55610211      32.06000001       0.00000000       0.00000000       0.00000000     1878        2        0        0        0
S        2.91322933       4.71592594      20.70532401      32.06000001       0.00000000       0.00000000       0.00000000     1879        2        0        0        0
S        2.90575464       4.69891423      17.54510636      32.06000001       0.00000000       0.00000000       0.00000000     1880        2        0        0        0
S        5.62489208       3.02358149      20.70034222      32.06000001       0.00000000       0.00000000       0.00000000     1881        2        0        0        0
S        5.60729843       3.01198313      17.54008278      32.06000001       0.00000000       0.00000000       0.00000000     1882        2        0        0        0
S        8.33681309       1.33539073      20.68363727      32.06000001       0.00000000       0.00000000       0.00000000     1883        2        0        0        0
S        8.30993997       1.32932474      17.52338623      32.06000001       0.00000000       0.00000000       0.00000000     1884        2        0        0        0
S        5.73045293       6.21436135      20.68385985      32.06000001       0.00000000       0.00000000       0.00000000     1885        2        0        0        0
S        5.71390509       6.19194589      17.52361931      32.06000001       0.00000000       0.00000000       0.00000000     1886        2        0        0        0
S        8.44331092       4.52498439      20.67316073      32.06000001       0.00000000       0.00000000       0.00000000     1887        2        0        0        0
S        8.41733932       4.50790070      17.51283794      32.06000001       0.00000000       0.00000000       0.00000000     1888        2        0        0        0
S       11.15571315       2.84126865      20.65180256      32.06000001       0.00000000       0.00000000       0.00000000     1889        2        0        0        0
S       11.12231157       2.82946960      17.49144510      32.06000001       0.00000000       0.00000000       0.00000000     1890        2        0        0        0
S       13.86730730       1.16493937      20.62227318      32.06000001       0.00000000       0.00000000       0.00000000     1891        2        0        0        0
S       13.82994731       1.15810559      17.46195787      32.06000001       0.00000000       0.00000000       0.00000000     1892        2        0        0        0
S        5.82968651       9.40572940      20.65740990      32.06000001       0.00000000       0.00000000       0.00000000     1893        2        0        0        0
S        5.81499426       9.37475293      17.49722413      32.06000001       0.00000000       0.00000000       0.00000000     1894        2        0        0        0
S        8.54400678       7.71581218      20.65237003      32.06000001       0.00000000       0.00000000       0.00000000     1895        2        0        0        0
S        8.51961579       7.68965839      17.49202846      32.06000001       0.00000000       0.00000000       0.00000000     1896        2        0        0        0
S       11.25748034       6.03117558      20.63656692      32.06000001       0.00000000       0.00000000       0.00000000     1897        2        0        0        0
S       11.22523900       6.00986241      17.47612233      32.06000001       0.00000000       0.00000000       0.00000000     1898        2        0        0        0
S       13.96974875       4.35379737      20.61240944      32.06000001       0.00000000       0.00000000       0.00000000     1899        2        0        0        0
S       13.93317043       4.33715875      17.45195675      32.06000001       0.00000000       0.00000000       0.00000000     1900        2        0        0        0
S       16.68065522       2.68519114      20.58368784      32.06000001       0.00000000       0.00000000       0.00000000     1901        2        0        0        0
S       16.64417934       2.67311769      17.42340243      32.06000001       0.00000000       0.00000000       0.00000000     1902        2        0        0        0
S       19.39067329       1.02626624      20.55461583      32.06000001       0.00000000       0.00000000       0.00000000     1903        2        0        0        0
S       19.35834449       1.01869181      17.39467341      32.06000001       0.00000000       0.00000000       0.00000000     1904        2        0        0        0
S        8.63672753      10.90779056      20.62423753      32.06000001       0.00000000       0.00000000       0.00000000     1905        2        0        0        0
S        8.61529946      10.87602482      17.46393903      32.06000001       0.00000000       0.00000000       0.00000000     1906        2        0        0        0
S       11.35170132       9.22258322      20.61340829      32.06000001       0.00000000       0.00000000       0.00000000     1907        2        0        0        0
S       11.32174382       9.19501991      17.45297290      32.06000001       0.00000000       0.00000000       0.00000000     1908        2        0        0        0
S       14.06534958       7.54439179      20.59395418      32.06000001       0.00000000       0.00000000       0.00000000     1909        2        0        0        0
S       14.03035903       7.52076708      17.43349217      32.06000001       0.00000000       0.00000000       0.00000000     1910        2        0        0        0
S       16.77747963       5.87497342      20.56978783      32.06000001       0.00000000       0.00000000       0.00000000     1911        2        0        0        0
S       16.74210169       5.85514678      17.40946773      32.06000001       0.00000000       0.00000000       0.00000000     1912        2        0        0        0
S       19.48839352       4.21529190      20.54524621      32.06000001       0.00000000       0.00000000       0.00000000     1913        2        0        0        0
S       19.45697015       4.19942516      17.38522736      32.06000001       0.00000000       0.00000000       0.00000000     1914        2        0        0        0
S       22.19883032       2.56539908      20.52374918      32.06000001       0.00000000       0.00000000       0.00000000     1915        2        0        0        0
S       22.17414385       2.55382969      17.36409049      32.06000001       0.00000000       0.00000000       0.00000000     1916        2        0        0        0
S       24.90957854       0.92444193      20.50705172      32.06000001       0.00000000       0.00000000       0.00000000     1917        2        0        0        0
S       24.89247034       0.91746139      17.34771775      32.06000001       0.00000000       0.00000000       0.00000000     1918        2        0        0        0
S        8.71989631      14.10127296      20.59292780      32.06000001       0.00000000       0.00000000       0.00000000     1919        2        0        0        0
S        8.70313262      14.06816562      17.43279350      32.06000001       0.00000000       0.00000000       0.00000000     1920        2        0        0        0
S       11.43648189      12.41582560      20.58649718      32.06000001       0.00000000       0.00000000       0.00000000     1921        2        0        0        0
S       11.41043355      12.38628260      17.42621440      32.06000001       0.00000000       0.00000000       0.00000000     1922        2        0        0        0
S       14.15181869      10.73679417      20.57095807      32.06000001       0.00000000       0.00000000       0.00000000     1923        2        0        0        0
S       14.11970941      10.71049020      17.41064663      32.06000001       0.00000000       0.00000000       0.00000000     1924        2        0        0        0
S       16.86577390       9.06642791      20.55027406      32.06000001       0.00000000       0.00000000       0.00000000     1925        2        0        0        0
S       16.83237764       9.04292768      17.39009498      32.06000001       0.00000000       0.00000000       0.00000000     1926        2        0        0        0
S       19.57859442       7.40594612      20.52911633      32.06000001       0.00000000       0.00000000       0.00000000     1927        2        0        0        0
S       19.54857861       7.38517441      17.36920130      32.06000001       0.00000000       0.00000000       0.00000000     1928        2        0        0        0
S       22.29087304       5.75548343      20.51121231      32.06000001       0.00000000       0.00000000       0.00000000     1929        2        0        0        0
S       22.26734160       5.73778544      17.35160112      32.06000001       0.00000000       0.00000000       0.00000000     1930        2        0        0        0
S       25.00320500       4.11418501      20.49841487      32.06000001       0.00000000       0.00000000       0.00000000     1931        2        0        0        0
S       24.98718230       4.10012546      17.33906905      32.06000001       0.00000000       0.00000000       0.00000000     1932        2        0        0        0
S       27.71587616       2.48044423      20.49078512      32.06000001       0.00000000       0.00000000       0.00000000     1933        2        0        0        0
S       27.70677968       2.47052786      17.33163128      32.06000001       0.00000000       0.00000000       0.00000000     1934        2        0        0        0
S       30.42880269       0.85217812      20.48732678      32.06000001       0.00000000       0.00000000       0.00000000     1935        2        0        0        0
S       30.42529854       0.84670145      17.32829265      32.06000001       0.00000000       0.00000000       0.00000000     1936        2        0        0        0
S       11.51106208      15.61173599      20.56010551      32.06000001       0.00000000       0.00000000       0.00000000     1937        2        0        0        0
S       11.49051983      15.58411290      17.40010275      32.06000001       0.00000000       0.00000000       0.00000000     1938        2        0        0        0
S       14.22800396      13.93179214      20.54802480      32.06000001       0.00000000       0.00000000       0.00000000     1939        2        0        0        0
S       14.20024700      13.90703568      17.38798389      32.06000001       0.00000000       0.00000000       0.00000000     1940        2        0        0        0
S       16.94388921      12.26006738      20.52993225      32.06000001       0.00000000       0.00000000       0.00000000     1941        2        0        0        0
S       16.91356319      12.23746408      17.37001410      32.06000001       0.00000000       0.00000000       0.00000000     1942        2        0        0        0
S       19.65900196      10.59827257      20.51078182      32.06000001       0.00000000       0.00000000       0.00000000     1943        2        0        0        0
S       19.63103878      10.57725605      17.35110583      32.06000001       0.00000000       0.00000000       0.00000000     1944        2        0        0        0
S       22.37389638       8.94680727      20.49481406      32.06000001       0.00000000       0.00000000       0.00000000     1945        2        0        0        0
S       22.35178323       8.92730807      17.33540358      32.06000001       0.00000000       0.00000000       0.00000000     1946        2        0        0        0
S       25.08905850       7.30490911      20.48428673      32.06000001       0.00000000       0.00000000       0.00000000     1947        2        0        0        0
S       25.07409758       7.28732169      17.32509061      32.06000001       0.00000000       0.00000000       0.00000000     1948        2        0        0        0
S       27.80458418       5.67096528      20.47940170      32.06000001       0.00000000       0.00000000       0.00000000     1949        2        0        0        0
S       27.79631374       5.65588800      17.32033566      32.06000001       0.00000000       0.00000000       0.00000000     1950        2        0        0        0
S       30.52011178       4.04286936      20.47911481      32.06000001       0.00000000       0.00000000       0.00000000     1951        2        0        0        0
S       30.51728992       4.03087209      17.32010067      32.06000001       0.00000000       0.00000000       0.00000000     1952        2        0        0        0
S       33.23500207       2.41827123      20.48206235      32.06000001       0.00000000       0.00000000       0.00000000     1953        2        0        0        0
S       33.23642023       2.40985847      17.32305062      32.06000001       0.00000000       0.00000000       0.00000000     1954        2        0        0        0
S       35.94856232       0.79469549      20.48708375      32.06000001       0.00000000       0.00000000       0.00000000     1955        2        0        0        0
S       35.95343308       0.79041022      17.32805242      32.06000001       0.00000000       0.00000000       0.00000000     1956        2        0        0        0
S       11.57603204      18.81120478      20.53717519      32.06000001       0.00000000       0.00000000       0.00000000     1957        2        0        0        0
S       11.56202660      18.78786855      17.37749134      32.06000001       0.00000000       0.00000000       0.00000000     1958        2        0        0        0
S       14.29417015      17.13045045      20.52858804      32.06000001       0.00000000       0.00000000       0.00000000     1959        2        0        0        0
S       14.27197592      17.10996845      17.36884562      32.06000001       0.00000000       0.00000000       0.00000000     1960        2        0        0        0
S       17.01165700      15.45695896      20.51283205      32.06000001       0.00000000       0.00000000       0.00000000     1961        2        0        0        0
S       16.98539632      15.43857195      17.35319147      32.06000001       0.00000000       0.00000000       0.00000000     1962        2        0        0        0
S       19.72888026      13.79312393      20.49481450      32.06000001       0.00000000       0.00000000       0.00000000     1963        2        0        0        0
S       19.70355657      13.77580142      17.33540151      32.06000001       0.00000000       0.00000000       0.00000000     1964        2        0        0        0
S       22.44644901      12.13982960      20.47928779      32.06000001       0.00000000       0.00000000       0.00000000     1965        2        0        0        0
S       22.42595306      12.12288472      17.32012864      32.06000001       0.00000000       0.00000000       0.00000000     1966        2        0        0        0
S       25.16485580      10.49656943      20.46913443      32.06000001       0.00000000       0.00000000       0.00000000     1967        2        0        0        0
S       25.15089033      10.47989582      17.31017541      32.06000001       0.00000000       0.00000000       0.00000000     1968        2        0        0        0
S       27.88411359       8.86181532      20.46497887      32.06000001       0.00000000       0.00000000       0.00000000     1969        2        0        0        0
S       27.87643291       8.84574952      17.30612507      32.06000001       0.00000000       0.00000000       0.00000000     1970        2        0        0        0
S       30.60364808       7.23346456      20.46593972      32.06000001       0.00000000       0.00000000       0.00000000     1971        2        0        0        0
S       30.60110545       7.21852104      17.30709530      32.06000001       0.00000000       0.00000000       0.00000000     1972        2        0        0        0
S       33.32249406       5.60916061      20.47072665      32.06000001       0.00000000       0.00000000       0.00000000     1973        2        0        0        0
S       33.32403495       5.59590394      17.31182358      32.06000001       0.00000000       0.00000000       0.00000000     1974        2        0        0        0
S       36.03959671       3.98641176      20.47833272      32.06000001       0.00000000       0.00000000       0.00000000     1975        2        0        0        0
S       36.04473853       3.97553123      17.31933639      32.06000001       0.00000000       0.00000000       0.00000000     1976        2        0        0        0
S       38.75404688       2.36261508      20.48817918      32.06000001       0.00000000       0.00000000       0.00000000     1977        2        0        0        0
S       38.76289061       2.35505530      17.32907647      32.06000001       0.00000000       0.00000000       0.00000000     1978        2        0        0        0
S       41.46523006       0.73513061      20.49998352      32.06000001       0.00000000       0.00000000       0.00000000     1979        2        0        0        0
S       41.47823073       0.73206809      17.34076983      32.06000001       0.00000000       0.00000000       0.00000000     1980        2        0        0        0
S       14.35181950      20.33351591      20.51395502      32.06000001       0.00000000       0.00000000       0.00000000     1981        2        0        0        0
S       14.33581843      20.31801768      17.35447816      32.06000001       0.00000000       0.00000000       0.00000000     1982        2        0        0        0
S       17.07030338      18.65810648      20.50094514      32.06000001       0.00000000       0.00000000       0.00000000     1983        2        0        0        0
S       17.04876155      18.64510821      17.34153512      32.06000001       0.00000000       0.00000000       0.00000000     1984        2        0        0        0
S       19.78904788      16.99159282      20.48400875      32.06000001       0.00000000       0.00000000       0.00000000     1985        2        0        0        0
S       19.76672620      16.97985115      17.32480671      32.06000001       0.00000000       0.00000000       0.00000000     1986        2        0        0        0
S       22.50877551      15.33553793      20.46817728      32.06000001       0.00000000       0.00000000       0.00000000     1987        2        0        0        0
S       22.48990222      15.32381254      17.30923020      32.06000001       0.00000000       0.00000000       0.00000000     1988        2        0        0        0
S       25.23008953      13.68988617      20.45703153      32.06000001       0.00000000       0.00000000       0.00000000     1989        2        0        0        0
S       25.21689405      13.67746313      17.29829677      32.06000001       0.00000000       0.00000000       0.00000000     1990        2        0        0        0
S       27.95305982      12.05333154      20.45183844      32.06000001       0.00000000       0.00000000       0.00000000     1991        2        0        0        0
S       27.94566953      12.04009500      17.29322236      32.06000001       0.00000000       0.00000000       0.00000000     1992        2        0        0        0
S       30.67704755      10.42384553      20.45207289      32.06000001       0.00000000       0.00000000       0.00000000     1993        2        0        0        0
S       30.67445269      10.41004052      17.29346865      32.06000001       0.00000000       0.00000000       0.00000000     1994        2        0        0        0
S       33.40086007       8.79910349      20.45659876      32.06000001       0.00000000       0.00000000       0.00000000     1995        2        0        0        0
S       33.40207251       8.78510766      17.29791958      32.06000001       0.00000000       0.00000000       0.00000000     1996        2        0        0        0
S       36.12308440       7.17664908      20.46460085      32.06000001       0.00000000       0.00000000       0.00000000     1997        2        0        0        0
S       36.12781715       7.16295667      17.30578779      32.06000001       0.00000000       0.00000000       0.00000000     1998        2        0        0        0
S       38.84240490       5.55387684      20.47586524      32.06000001       0.00000000       0.00000000       0.00000000     1999        2        0        0        0
S       38.85114198       5.54126963      17.31687791      32.06000001       0.00000000       0.00000000       0.00000000     2000        2        0        0        0
S       41.55784501       3.92801922      20.49054746      32.06000001       0.00000000       0.00000000       0.00000000     2001        2        0        0        0
S       41.57147765       3.91773299      17.33135687      32.06000001       0.00000000       0.00000000       0.00000000     2002        2        0        0        0
S       44.26894740       2.29630215      20.50873500      32.06000001       0.00000000       0.00000000       0.00000000     2003        2        0        0        0
S       44.28822142       2.28995094      17.34933136      32.06000001       0.00000000       0.00000000       0.00000000     2004        2        0        0        0
S       46.97584996       0.65631520      20.53009321      32.06000001       0.00000000       0.00000000       0.00000000     2005        2        0        0        0
S       47.00089411       0.65546617      17.37049094      32.06000001       0.00000000       0.00000000       0.00000000     2006        2        0        0        0
S       14.40319491      23.54099096      20.50349623      32.06000001       0.00000000       0.00000000       0.00000000     2007        2        0        0        0
S       14.39337986      23.52966312      17.34423316      32.06000001       0.00000000       0.00000000       0.00000000     2008        2        0        0        0
S       17.12198192      21.86390715      20.49399159      32.06000001       0.00000000       0.00000000       0.00000000     2009        2        0        0        0
S       17.10541694      21.85559853      17.33474564      32.06000001       0.00000000       0.00000000       0.00000000     2010        2        0        0        0
S       19.84147160      20.19439477      20.47878076      32.06000001       0.00000000       0.00000000       0.00000000     2011        2        0        0        0
S       19.82228666      20.18798519      17.31970769      32.06000001       0.00000000       0.00000000       0.00000000     2012        2        0        0        0
S       22.56251164      18.53482005      20.46276338      32.06000001       0.00000000       0.00000000       0.00000000     2013        2        0        0        0
S       22.54509132      18.52876207      17.30394380      32.06000001       0.00000000       0.00000000       0.00000000     2014        2        0        0        0
S       25.28587443      16.88576542      20.45012202      32.06000001       0.00000000       0.00000000       0.00000000     2015        2        0        0        0
S       25.27305244      16.87883074      17.29153722      32.06000001       0.00000000       0.00000000       0.00000000     2016        2        0        0        0
S       28.01181581      15.24630946      20.44290443      32.06000001       0.00000000       0.00000000       0.00000000     2017        2        0        0        0
S       28.00429017      15.23792176      17.28447265      32.06000001       0.00000000       0.00000000       0.00000000     2018        2        0        0        0
S       30.73980555      13.61459019      20.44111507      32.06000001       0.00000000       0.00000000       0.00000000     2019        2        0        0        0
S       30.73683413      13.60469441      17.28272913      32.06000001       0.00000000       0.00000000       0.00000000     2020        2        0        0        0
S       33.46859969      11.98835055      20.44382037      32.06000001       0.00000000       0.00000000       0.00000000     2021        2        0        0        0
S       33.46921575      11.97710089      17.28538363      32.06000001       0.00000000       0.00000000       0.00000000     2022        2        0        0        0
S       36.19655478      10.36521028      20.45030729      32.06000001       0.00000000       0.00000000       0.00000000     2023        2        0        0        0
S       36.20048136      10.35279291      17.29174495      32.06000001       0.00000000       0.00000000       0.00000000     2024        2        0        0        0
S       38.92198114       8.74265915      20.46064286      32.06000001       0.00000000       0.00000000       0.00000000     2025        2        0        0        0
S       38.92990290       8.72938666      17.30188901      32.06000001       0.00000000       0.00000000       0.00000000     2026        2        0        0        0
S       41.64344891       7.11795966      20.47554142      32.06000001       0.00000000       0.00000000       0.00000000     2027        2        0        0        0
S       41.65668236       7.10454581      17.31652852      32.06000001       0.00000000       0.00000000       0.00000000     2028        2        0        0        0
S       44.36007199       5.48817624      20.49575155      32.06000001       0.00000000       0.00000000       0.00000000     2029        2        0        0        0
S       44.37982278       5.47595445      17.33642591      32.06000001       0.00000000       0.00000000       0.00000000     2030        2        0        0        0
S       47.07170642       3.85048968      20.52129018      32.06000001       0.00000000       0.00000000       0.00000000     2031        2        0        0        0
S       47.09827003       3.84131576      17.36164379      32.06000001       0.00000000       0.00000000       0.00000000     2032        2        0        0        0
S       49.77892804       2.20275976      20.55096730      32.06000001       0.00000000       0.00000000       0.00000000     2033        2        0        0        0
S       49.81130701       2.19849053      17.39105291      32.06000001       0.00000000       0.00000000       0.00000000     2034        2        0        0        0
S       52.48277910       0.54403724      20.58257925      32.06000001       0.00000000       0.00000000       0.00000000     2035        2        0        0        0
S       52.51886298       0.54581674      17.42250065      32.06000001       0.00000000       0.00000000       0.00000000     2036        2        0        0        0
S       17.16919191      25.07393025      20.49034389      32.06000001       0.00000000       0.00000000       0.00000000     2037        2        0        0        0
S       17.15761059      25.06879917      17.33120822      32.06000001       0.00000000       0.00000000       0.00000000     2038        2        0        0        0
S       19.88864052      23.40150491      20.47782139      32.06000001       0.00000000       0.00000000       0.00000000     2039        2        0        0        0
S       19.87266849      23.39898570      17.31880026      32.06000001       0.00000000       0.00000000       0.00000000     2040        2        0        0        0
S       22.61006408      21.73798799      20.46234991      32.06000001       0.00000000       0.00000000       0.00000000     2041        2        0        0        0
S       22.59394218      21.73652471      17.30356253      32.06000001       0.00000000       0.00000000       0.00000000     2042        2        0        0        0
S       25.33440009      20.08474873      20.44845811      32.06000001       0.00000000       0.00000000       0.00000000     2043        2        0        0        0
S       25.32153184      20.08278170      17.28992346      32.06000001       0.00000000       0.00000000       0.00000000     2044        2        0        0        0
S       28.06216091      18.44141644      20.43901979      32.06000001       0.00000000       0.00000000       0.00000000     2045        2        0        0        0
S       28.05400169      18.43799295      17.28067891      32.06000001       0.00000000       0.00000000       0.00000000     2046        2        0        0        0
S       30.79307051      16.80640861      20.43474571      32.06000001       0.00000000       0.00000000       0.00000000     2047        2        0        0        0
S       30.78936337      16.80124241      17.27650067      32.06000001       0.00000000       0.00000000       0.00000000     2048        2        0        0        0
S       33.52602623      15.17757076      20.43499433      32.06000001       0.00000000       0.00000000       0.00000000     2049        2        0        0        0
S       33.52589278      15.17071125      17.27674551      32.06000001       0.00000000       0.00000000       0.00000000     2050        2        0        0        0
S       36.25935013      13.55259651      20.43903986      32.06000001       0.00000000       0.00000000       0.00000000     2051        2        0        0        0
S       36.26238083      13.54407622      17.28070384      32.06000001       0.00000000       0.00000000       0.00000000     2052        2        0        0        0
S       38.99113056      11.92911178      20.44696056      32.06000001       0.00000000       0.00000000       0.00000000     2053        2        0        0        0
S       38.99793532      11.91883743      17.28845859      32.06000001       0.00000000       0.00000000       0.00000000     2054        2        0        0        0
S       41.71954659      10.30454988      20.45980233      32.06000001       0.00000000       0.00000000       0.00000000     2055        2        0        0        0
S       41.73162800      10.29250374      17.30104401      32.06000001       0.00000000       0.00000000       0.00000000     2056        2        0        0        0
S       44.44320233       8.67604629      20.47904408      32.06000001       0.00000000       0.00000000       0.00000000     2057        2        0        0        0
S       44.46221967       8.66267598      17.31993311      32.06000001       0.00000000       0.00000000       0.00000000     2058        2        0        0        0
S       47.16144617       7.04059114      20.50557981      32.06000001       0.00000000       0.00000000       0.00000000     2059        2        0        0        0
S       47.18815905       7.02711479      17.34605039      32.06000001       0.00000000       0.00000000       0.00000000     2060        2        0        0        0
S       49.87450463       5.39553796      20.53871044      32.06000001       0.00000000       0.00000000       0.00000000     2061        2        0        0        0
S       49.90799921       5.38386438      17.37877639      32.06000001       0.00000000       0.00000000       0.00000000     2062        2        0        0        0
S       52.58329832       3.73928727      20.57585885      32.06000001       0.00000000       0.00000000       0.00000000     2063        2        0        0        0
S       52.62104745       3.73143232      17.41564370      32.06000001       0.00000000       0.00000000       0.00000000     2064        2        0        0        0
S       55.28908207       2.07174839      20.61331027      32.06000001       0.00000000       0.00000000       0.00000000     2065        2        0        0        0
S       55.32764095       2.06905873      17.45302218      32.06000001       0.00000000       0.00000000       0.00000000     2066        2        0        0        0
S       57.99312799       0.39434586      20.64728500      32.06000001       0.00000000       0.00000000       0.00000000     2067        2        0        0        0
S       58.02882452       0.39719591      17.48709185      32.06000001       0.00000000       0.00000000       0.00000000     2068        2        0        0        0
S       17.21439327      28.28703256      20.48828280      32.06000001       0.00000000       0.00000000       0.00000000     2069        2        0        0        0
S       17.20775862      28.28387925      17.32923337      32.06000001       0.00000000       0.00000000       0.00000000     2070        2        0        0        0
S       19.93308157      26.61216335      20.47934271      32.06000001       0.00000000       0.00000000       0.00000000     2071        2        0        0        0
S       19.92056303      26.61210350      17.32033021      32.06000001       0.00000000       0.00000000       0.00000000     2072        2        0        0        0
S       22.65402629      24.94465704      20.46539628      32.06000001       0.00000000       0.00000000       0.00000000     2073        2        0        0        0
S       22.63931909      24.94639909      17.30656945      32.06000001       0.00000000       0.00000000       0.00000000     2074        2        0        0        0
S       25.37827918      23.28676108      20.45092462      32.06000001       0.00000000       0.00000000       0.00000000     2075        2        0        0        0
S       25.36517017      23.28860791      17.29235033      32.06000001       0.00000000       0.00000000       0.00000000     2076        2        0        0        0
S       28.10660693      21.63881649      20.43955561      32.06000001       0.00000000       0.00000000       0.00000000     2077        2        0        0        0
S       28.09741393      21.63951139      17.28120843      32.06000001       0.00000000       0.00000000       0.00000000     2078        2        0        0        0
S       30.83907386      19.99965758      20.43287967      32.06000001       0.00000000       0.00000000       0.00000000     2079        2        0        0        0
S       30.83427760      19.99872042      17.27467935      32.06000001       0.00000000       0.00000000       0.00000000     2080        2        0        0        0
S       33.57487149      18.36728594      20.43073431      32.06000001       0.00000000       0.00000000       0.00000000     2081        2        0        0        0
S       33.57387259      18.36477656      17.27258360      32.06000001       0.00000000       0.00000000       0.00000000     2082        2        0        0        0
S       36.31247480      16.73944658      20.43237498      32.06000001       0.00000000       0.00000000       0.00000000     2083        2        0        0        0
S       36.31472180      16.73548735      17.27418638      32.06000001       0.00000000       0.00000000       0.00000000     2084        2        0        0        0
S       39.04995190      15.11386676      20.43762280      32.06000001       0.00000000       0.00000000       0.00000000     2085        2        0        0        0
S       39.05574644      15.10828832      17.27931421      32.06000001       0.00000000       0.00000000       0.00000000     2086        2        0        0        0
S       41.78527069      13.48819212      20.44741429      32.06000001       0.00000000       0.00000000       0.00000000     2087        2        0        0        0
S       41.79594425      13.48049871      17.28888940      32.06000001       0.00000000       0.00000000       0.00000000     2088        2        0        0        0
S       44.51661400      11.85981186      20.46358469      32.06000001       0.00000000       0.00000000       0.00000000     2089        2        0        0        0
S       44.53400662      11.84949493      17.30472869      32.06000001       0.00000000       0.00000000       0.00000000     2090        2        0        0        0
S       47.24274501      10.22582540      20.48792087      32.06000001       0.00000000       0.00000000       0.00000000     2091        2        0        0        0
S       47.26812037      10.21289302      17.32862556      32.06000001       0.00000000       0.00000000       0.00000000     2092        2        0        0        0
S       49.96329188       8.58335669      20.52081791      32.06000001       0.00000000       0.00000000       0.00000000     2093        2        0        0        0
S       49.99623110       8.56877618      17.36102531      32.06000001       0.00000000       0.00000000       0.00000000     2094        2        0        0        0
S       52.67874275       6.93019923      20.56032809      32.06000001       0.00000000       0.00000000       0.00000000     2095        2        0        0        0
S       52.71678843       6.91586074      17.40010653      32.06000001       0.00000000       0.00000000       0.00000000     2096        2        0        0        0
S       55.39015633       5.26548471      20.60240079      32.06000001       0.00000000       0.00000000       0.00000000     2097        2        0        0        0
S       55.42947542       5.25356463      17.44198502      32.06000001       0.00000000       0.00000000       0.00000000     2098        2        0        0        0
S       58.09874715       3.59002627      20.64220112      32.06000001       0.00000000       0.00000000       0.00000000     2099        2        0        0        0
S       58.13525315       3.58219553      17.48184172      32.06000001       0.00000000       0.00000000       0.00000000     2100        2        0        0        0
S       60.80556259       1.90610162      20.67552348      32.06000001       0.00000000       0.00000000       0.00000000     2101        2        0        0        0
S       60.83580695       1.90320745      17.51527903      32.06000001       0.00000000       0.00000000       0.00000000     2102        2        0        0        0
S       63.51151257       0.21670284      20.69946820      32.06000001       0.00000000       0.00000000       0.00000000     2103        2        0        0        0
S       63.53308021       0.21898336      17.53926333      32.06000001       0.00000000       0.00000000       0.00000000     2104        2        0        0        0
S       19.97718188      29.82509751      20.48215605      32.06000001       0.00000000       0.00000000       0.00000000     2105        2        0        0        0
S       19.96866410      29.82691837      17.32314233      32.06000001       0.00000000       0.00000000       0.00000000     2106        2        0        0        0
S       22.69689205      28.15389853      20.47067166      32.06000001       0.00000000       0.00000000       0.00000000     2107        2        0        0        0
S       22.68418877      28.15810376      17.31176999      32.06000001       0.00000000       0.00000000       0.00000000     2108        2        0        0        0
S       25.42013027      26.49118140      20.45643312      32.06000001       0.00000000       0.00000000       0.00000000     2109        2        0        0        0
S       25.40705752      26.49612123      17.29775798      32.06000001       0.00000000       0.00000000       0.00000000     2110        2        0        0        0
S       28.14786277      24.83813388      20.44359419      32.06000001       0.00000000       0.00000000       0.00000000     2111        2        0        0        0
S       28.13754886      24.84229042      17.28516308      32.06000001       0.00000000       0.00000000       0.00000000     2112        2        0        0        0
S       30.88051213      23.19416919      20.43473961      32.06000001       0.00000000       0.00000000       0.00000000     2113        2        0        0        0
S       30.87439343      23.19681373      17.27649724      32.06000001       0.00000000       0.00000000       0.00000000     2114        2        0        0        0
S       33.61766161      21.55754424      20.43045758      32.06000001       0.00000000       0.00000000       0.00000000     2115        2        0        0        0
S       33.61569398      21.55872950      17.27231362      32.06000001       0.00000000       0.00000000       0.00000000     2116        2        0        0        0
S       36.35808236      19.92605494      20.43015661      32.06000001       0.00000000       0.00000000       0.00000000     2117        2        0        0        0
S       36.35971205      19.92612492      17.27201969      32.06000001       0.00000000       0.00000000       0.00000000     2118        2        0        0        0
S       39.09999128      18.29746095      20.43330513      32.06000001       0.00000000       0.00000000       0.00000000     2119        2        0        0        0
S       39.10512246      18.29649695      17.27509370      32.06000001       0.00000000       0.00000000       0.00000000     2120        2        0        0        0
S       41.84134344      16.66956012      20.44033276      32.06000001       0.00000000       0.00000000       0.00000000     2121        2        0        0        0
S       41.85082152      16.66705988      17.28195877      32.06000001       0.00000000       0.00000000       0.00000000     2122        2        0        0        0
S       44.58010070      15.04004278      20.45283955      32.06000001       0.00000000       0.00000000       0.00000000     2123        2        0        0        0
S       44.59552728      15.03496956      17.29419129      32.06000001       0.00000000       0.00000000       0.00000000     2124        2        0        0        0
S       47.31454854      13.40633538      20.47300916      32.06000001       0.00000000       0.00000000       0.00000000     2125        2        0        0        0
S       47.33742455      13.39757234      17.31396367      32.06000001       0.00000000       0.00000000       0.00000000     2126        2        0        0        0
S       50.04363477      11.76568072      20.50232315      32.06000001       0.00000000       0.00000000       0.00000000     2127        2        0        0        0
S       50.07417095      11.75275378      17.34277774      32.06000001       0.00000000       0.00000000       0.00000000     2128        2        0        0        0
S       52.76715692      10.11557525      20.54015995      32.06000001       0.00000000       0.00000000       0.00000000     2129        2        0        0        0
S       52.80350268      10.09924729      17.38009271      32.06000001       0.00000000       0.00000000       0.00000000     2130        2        0        0        0
S       55.48565982       8.45442897      20.58325869      32.06000001       0.00000000       0.00000000       0.00000000     2131        2        0        0        0
S       55.52415571       8.43666770      17.42283850      32.06000001       0.00000000       0.00000000       0.00000000     2132        2        0        0        0
S       58.20012277       6.78213564      20.62656953      32.06000001       0.00000000       0.00000000       0.00000000     2133        2        0        0        0
S       58.23643190       6.76541643      17.46610402      32.06000001       0.00000000       0.00000000       0.00000000     2134        2        0        0        0
S       60.91156895       5.10025614      20.66494853      32.06000001       0.00000000       0.00000000       0.00000000     2135        2        0        0        0
S       60.94194666       5.08670671      17.50460144      32.06000001       0.00000000       0.00000000       0.00000000     2136        2        0        0        0
S       63.62090641       3.41154126      20.69459913      32.06000001       0.00000000       0.00000000       0.00000000     2137        2        0        0        0
S       63.64283913       3.40244162      17.53433280      32.06000001       0.00000000       0.00000000       0.00000000     2138        2        0        0        0
S       66.32909418       1.71906181      20.71341251      32.06000001       0.00000000       0.00000000       0.00000000     2139        2        0        0        0
S       66.34118398       1.71494870      17.55316424      32.06000001       0.00000000       0.00000000       0.00000000     2140        2        0        0        0
S       20.02321521      33.03878153      20.48620200      32.06000001       0.00000000       0.00000000       0.00000000     2141        2        0        0        0
S       20.01954429      33.04301528      17.32718363      32.06000001       0.00000000       0.00000000       0.00000000     2142        2        0        0        0
S       22.74103257      31.36447001      20.47792054      32.06000001       0.00000000       0.00000000       0.00000000     2143        2        0        0        0
S       22.73146243      31.37143533      17.31892680      32.06000001       0.00000000       0.00000000       0.00000000     2144        2        0        0        0
S       25.46246842      29.69704593      20.46473294      32.06000001       0.00000000       0.00000000       0.00000000     2145        2        0        0        0
S       25.45034250      29.70533082      17.30591232      32.06000001       0.00000000       0.00000000       0.00000000     2146        2        0        0        0
S       28.18860183      28.03862292      20.45090787      32.06000001       0.00000000       0.00000000       0.00000000     2147        2        0        0        0
S       28.17759673      28.04649860      17.29232891      32.06000001       0.00000000       0.00000000       0.00000000     2148        2        0        0        0
S       30.92017625      26.38936123      20.43999551      32.06000001       0.00000000       0.00000000       0.00000000     2149        2        0        0        0
S       30.91277370      26.39572710      17.28163549      32.06000001       0.00000000       0.00000000       0.00000000     2150        2        0        0        0
S       33.65721554      24.74792611      20.43361599      32.06000001       0.00000000       0.00000000       0.00000000     2151        2        0        0        0
S       33.65422194      24.75265193      17.27539757      32.06000001       0.00000000       0.00000000       0.00000000     2152        2        0        0        0
S       36.39889152      23.11221918      20.43165844      32.06000001       0.00000000       0.00000000       0.00000000     2153        2        0        0        0
S       36.40001215      23.11580174      17.27348644      32.06000001       0.00000000       0.00000000       0.00000000     2154        2        0        0        0
S       39.14369029      21.47998847      20.43337554      32.06000001       0.00000000       0.00000000       0.00000000     2155        2        0        0        0
S       39.14851164      21.48289096      17.27516371      32.06000001       0.00000000       0.00000000       0.00000000     2156        2        0        0        0
S       41.88969508      19.84908592      20.43852108      32.06000001       0.00000000       0.00000000       0.00000000     2157        2        0        0        0
S       41.89841882      19.85117187      17.28019178      32.06000001       0.00000000       0.00000000       0.00000000     2158        2        0        0        0
S       44.63483661      18.21742520      20.44796693      32.06000001       0.00000000       0.00000000       0.00000000     2159        2        0        0        0
S       44.64845117      18.21770636      17.28943023      32.06000001       0.00000000       0.00000000       0.00000000     2160        2        0        0        0
S       47.37713121      16.58281141      20.46359193      32.06000001       0.00000000       0.00000000       0.00000000     2161        2        0        0        0
S       47.39693943      16.57962699      17.30473551      32.06000001       0.00000000       0.00000000       0.00000000     2162        2        0        0        0
S       50.11496476      14.94284670      20.48739754      32.06000001       0.00000000       0.00000000       0.00000000     2163        2        0        0        0
S       50.14160130      14.93451556      17.32810679      32.06000001       0.00000000       0.00000000       0.00000000     2164        2        0        0        0
S       52.84736856      13.29510140      20.52010366      32.06000001       0.00000000       0.00000000       0.00000000     2165        2        0        0        0
S       52.87983842      13.28084853      17.36030324      32.06000001       0.00000000       0.00000000       0.00000000     2166        2        0        0        0
S       55.57412969      11.63758925      20.56001458      32.06000001       0.00000000       0.00000000       0.00000000     2167        2        0        0        0
S       55.60956758      11.61820515      17.39975940      32.06000001       0.00000000       0.00000000       0.00000000     2168        2        0        0        0
S       58.29567702       9.96935296      20.60304351      32.06000001       0.00000000       0.00000000       0.00000000     2169        2        0        0        0
S       58.33007244       9.94708520      17.44258291      32.06000001       0.00000000       0.00000000       0.00000000     2170        2        0        0        0
S       61.01282622       8.29090909      20.64396545      32.06000001       0.00000000       0.00000000       0.00000000     2171        2        0        0        0
S       61.04228389       8.26864807      17.48356710      32.06000001       0.00000000       0.00000000       0.00000000     2172        2        0        0        0
S       63.72654581       6.60426431      20.67811105      32.06000001       0.00000000       0.00000000       0.00000000     2173        2        0        0        0
S       63.74825406       6.58454221      17.51783093      32.06000001       0.00000000       0.00000000       0.00000000     2174        2        0        0        0
S       66.43789531       4.91234199      20.70242442      32.06000001       0.00000000       0.00000000       0.00000000     2175        2        0        0        0
S       66.45024917       4.89674586      17.54219184      32.06000001       0.00000000       0.00000000       0.00000000     2176        2        0        0        0
S       69.14803229       3.21820058      20.71538018      32.06000001       0.00000000       0.00000000       0.00000000     2177        2        0        0        0
S       69.15023785       3.20750901      17.55514252      32.06000001       0.00000000       0.00000000       0.00000000     2178        2        0        0        0
S       22.78877453      34.57503730      20.48791929      32.06000001       0.00000000       0.00000000       0.00000000     2179        2        0        0        0
S       22.78387628      34.58588449      17.32881144      32.06000001       0.00000000       0.00000000       0.00000000     2180        2        0        0        0
S       25.50775321      32.90326593      20.47660423      32.06000001       0.00000000       0.00000000       0.00000000     2181        2        0        0        0
S       25.49812827      32.91601742      17.31758951      32.06000001       0.00000000       0.00000000       0.00000000     2182        2        0        0        0
S       28.23145457      31.23939167      20.46234600      32.06000001       0.00000000       0.00000000       0.00000000     2183        2        0        0        0
S       28.22083620      31.25222107      17.30354598      32.06000001       0.00000000       0.00000000       0.00000000     2184        2        0        0        0
S       30.96085993      29.58446419      20.44940342      32.06000001       0.00000000       0.00000000       0.00000000     2185        2        0        0        0
S       30.95263532      29.59578471      17.29084099      32.06000001       0.00000000       0.00000000       0.00000000     2186        2        0        0        0
S       33.69643220      27.93774993      20.44060588      32.06000001       0.00000000       0.00000000       0.00000000     2187        2        0        0        0
S       33.69247255      27.94696151      17.28222642      32.06000001       0.00000000       0.00000000       0.00000000     2188        2        0        0        0
S       36.43782468      26.29738318      20.43673193      32.06000001       0.00000000       0.00000000       0.00000000     2189        2        0        0        0
S       36.43842970      26.30485954      17.27844244      32.06000001       0.00000000       0.00000000       0.00000000     2190        2        0        0        0
S       39.18389347      24.66111109      20.43716374      32.06000001       0.00000000       0.00000000       0.00000000     2191        2        0        0        0
S       39.18856223      24.66758718      17.27886823      32.06000001       0.00000000       0.00000000       0.00000000     2192        2        0        0        0
S       41.93293954      23.02676209      20.44107766      32.06000001       0.00000000       0.00000000       0.00000000     2193        2        0        0        0
S       41.94126131      23.03259607      17.28269797      32.06000001       0.00000000       0.00000000       0.00000000     2194        2        0        0        0
S       44.68297403      21.39235338      20.44840161      32.06000001       0.00000000       0.00000000       0.00000000     2195        2        0        0        0
S       44.69513029      21.39701363      17.28986922      32.06000001       0.00000000       0.00000000       0.00000000     2196        2        0        0        0
S       47.43192051      19.75598079      20.46016355      32.06000001       0.00000000       0.00000000       0.00000000     2197        2        0        0        0
S       47.44862799      19.75792268      17.30139691      32.06000001       0.00000000       0.00000000       0.00000000     2198        2        0        0        0
S       50.17781826      18.11565708      20.47812832      32.06000001       0.00000000       0.00000000       0.00000000     2199        2        0        0        0
S       50.19973700      18.11269647      17.31903044      32.06000001       0.00000000       0.00000000       0.00000000     2200        2        0        0        0
S       52.91906269      16.46927771      20.50377801      32.06000001       0.00000000       0.00000000       0.00000000     2201        2        0        0        0
S       52.94593737      16.45945362      17.34426275      32.06000001       0.00000000       0.00000000       0.00000000     2202        2        0        0        0
S       55.65463280      14.81483236      20.53704000      32.06000001       0.00000000       0.00000000       0.00000000     2203        2        0        0        0
S       55.68471982      14.79743393      17.37708810      32.06000001       0.00000000       0.00000000       0.00000000     2204        2        0        0        0
S       58.38418527      13.15084908      20.57558613      32.06000001       0.00000000       0.00000000       0.00000000     2205        2        0        0        0
S       58.41443554      13.12699069      17.41531332      32.06000001       0.00000000       0.00000000       0.00000000     2206        2        0        0        0
S       61.10801509      11.47687975      20.61526511      32.06000001       0.00000000       0.00000000       0.00000000     2207        2        0        0        0
S       61.13492581      11.44921786      17.45491056      32.06000001       0.00000000       0.00000000       0.00000000     2208        2        0        0        0
S       63.82695069       9.79383519      20.65136783      32.06000001       0.00000000       0.00000000       0.00000000     2209        2        0        0        0
S       63.84752054       9.76561194      17.49111563      32.06000001       0.00000000       0.00000000       0.00000000     2210        2        0        0        0
S       66.54219809       8.10395578      20.67992767      32.06000001       0.00000000       0.00000000       0.00000000     2211        2        0        0        0
S       66.55439782       8.07796000      17.51976657      32.06000001       0.00000000       0.00000000       0.00000000     2212        2        0        0        0
S       69.25510890       6.41028182      20.69835827      32.06000001       0.00000000       0.00000000       0.00000000     2213        2        0        0        0
S       69.25775927       6.38830867      17.53819496      32.06000001       0.00000000       0.00000000       0.00000000     2214        2        0        0        0
S       22.84243493      37.78438942      20.50198967      32.06000001       0.00000000       0.00000000       0.00000000     2215        2        0        0        0
S       22.84379752      37.80036182      17.34273024      32.06000001       0.00000000       0.00000000       0.00000000     2216        2        0        0        0
S       25.55843536      36.10884333      20.49342649      32.06000001       0.00000000       0.00000000       0.00000000     2217        2        0        0        0
S       25.55327190      36.12736055      17.33416346      32.06000001       0.00000000       0.00000000       0.00000000     2218        2        0        0        0
S       28.27905575      34.43964510      20.47953070      32.06000001       0.00000000       0.00000000       0.00000000     2219        2        0        0        0
S       28.27050495      34.45901123      17.32042224      32.06000001       0.00000000       0.00000000       0.00000000     2220        2        0        0        0
S       31.00539084      32.77879639      20.46473170      32.06000001       0.00000000       0.00000000       0.00000000     2221        2        0        0        0
S       30.99731319      32.79694880      17.30586031      32.06000001       0.00000000       0.00000000       0.00000000     2222        2        0        0        0
S       33.73828397      31.12636519      20.45299916      32.06000001       0.00000000       0.00000000       0.00000000     2223        2        0        0        0
S       33.73361177      31.14194987      17.29434881      32.06000001       0.00000000       0.00000000       0.00000000     2224        2        0        0        0
S       36.47791434      29.48092512      20.44636890      32.06000001       0.00000000       0.00000000       0.00000000     2225        2        0        0        0
S       36.47785824      29.49376102      17.28786338      32.06000001       0.00000000       0.00000000       0.00000000     2226        2        0        0        0
S       39.22361293      27.84030874      20.44485300      32.06000001       0.00000000       0.00000000       0.00000000     2227        2        0        0        0
S       39.22794149      27.85105805      17.28639189      32.06000001       0.00000000       0.00000000       0.00000000     2228        2        0        0        0
S       41.97398520      26.20228465      20.44739777      32.06000001       0.00000000       0.00000000       0.00000000     2229        2        0        0        0
S       41.98189183      26.21167637      17.28889159      32.06000001       0.00000000       0.00000000       0.00000000     2230        2        0        0        0
S       44.72718162      24.56486806      20.45306356      32.06000001       0.00000000       0.00000000       0.00000000     2231        2        0        0        0
S       44.73806138      24.57297220      17.29444896      32.06000001       0.00000000       0.00000000       0.00000000     2232        2        0        0        0
S       47.48112635      22.92630849      20.46179321      32.06000001       0.00000000       0.00000000       0.00000000     2233        2        0        0        0
S       47.49491476      22.93214577      17.30301832      32.06000001       0.00000000       0.00000000       0.00000000     2234        2        0        0        0
S       50.23368402      21.28493940      20.47454974      32.06000001       0.00000000       0.00000000       0.00000000     2235        2        0        0        0
S       50.25069753      21.28654451      17.31555440      32.06000001       0.00000000       0.00000000       0.00000000     2236        2        0        0        0
S       52.98283388      19.63903740      20.49281178      32.06000001       0.00000000       0.00000000       0.00000000     2237        2        0        0        0
S       53.00321654      19.63403853      17.33353100      32.06000001       0.00000000       0.00000000       0.00000000     2238        2        0        0        0
S       55.72688883      17.98682050      20.51757873      32.06000001       0.00000000       0.00000000       0.00000000     2239        2        0        0        0
S       55.74997995      17.97342302      17.35796784      32.06000001       0.00000000       0.00000000       0.00000000     2240        2        0        0        0
S       58.46471479      16.32666398      20.54836236      32.06000001       0.00000000       0.00000000       0.00000000     2241        2        0        0        0
S       58.48877711      16.30460199      17.38843791      32.06000001       0.00000000       0.00000000       0.00000000     2242        2        0        0        0
S       61.19589117      14.65749275      20.58283069      32.06000001       0.00000000       0.00000000       0.00000000     2243        2        0        0        0
S       61.21840444      14.62837889      17.42269985      32.06000001       0.00000000       0.00000000       0.00000000     2244        2        0        0        0
S       63.92079296      12.97920191      20.61730543      32.06000001       0.00000000       0.00000000       0.00000000     2245        2        0        0        0
S       63.93904629      12.94603778      17.45714976      32.06000001       0.00000000       0.00000000       0.00000000     2246        2        0        0        0
S       66.64055460      11.29297390      20.64769454      32.06000001       0.00000000       0.00000000       0.00000000     2247        2        0        0        0
S       66.65215207      11.25917679      17.48762335      32.06000001       0.00000000       0.00000000       0.00000000     2248        2        0        0        0
S       69.35675281       9.60127818      20.67039413      32.06000001       0.00000000       0.00000000       0.00000000     2249        2        0        0        0
S       69.35987704       9.56973456      17.51034837      32.06000001       0.00000000       0.00000000       0.00000000     2250        2        0        0        0
S       72.07091416       7.90734182      20.68288143      32.06000001       0.00000000       0.00000000       0.00000000     2251        2        0        0        0
S       72.06440374       7.87990640      17.52275534      32.06000001       0.00000000       0.00000000       0.00000000     2252        2        0        0        0
S       25.61687378      39.31306660      20.51626498      32.06000001       0.00000000       0.00000000       0.00000000     2253        2        0        0        0
S       25.61800763      39.33783870      17.35671230      32.06000001       0.00000000       0.00000000       0.00000000     2254        2        0        0        0
S       28.33397781      37.63890462      20.50391519      32.06000001       0.00000000       0.00000000       0.00000000     2255        2        0        0        0
S       28.32943439      37.66563239      17.34442038      32.06000001       0.00000000       0.00000000       0.00000000     2256        2        0        0        0
S       31.05658981      35.97204431      20.48793025      32.06000001       0.00000000       0.00000000       0.00000000     2257        2        0        0        0
S       31.05003469      35.99842717      17.32863940      32.06000001       0.00000000       0.00000000       0.00000000     2258        2        0        0        0
S       33.78580523      34.31349314      20.47298245      32.06000001       0.00000000       0.00000000       0.00000000     2259        2        0        0        0
S       33.78090016      34.33733468      17.31393868      32.06000001       0.00000000       0.00000000       0.00000000     2260        2        0        0        0
S       36.52230543      32.66251344      20.46249511      32.06000001       0.00000000       0.00000000       0.00000000     2261        2        0        0        0
S       36.52131041      32.68265315      17.30365522      32.06000001       0.00000000       0.00000000       0.00000000     2262        2        0        0        0
S       39.26598602      31.01722200      20.45764667      32.06000001       0.00000000       0.00000000       0.00000000     2263        2        0        0        0
S       39.26935048      31.03372079      17.29892306      32.06000001       0.00000000       0.00000000       0.00000000     2264        2        0        0        0
S       42.01587707      29.37536735      20.45772658      32.06000001       0.00000000       0.00000000       0.00000000     2265        2        0        0        0
S       42.02279119      29.38895144      17.29902198      32.06000001       0.00000000       0.00000000       0.00000000     2266        2        0        0        0
S       44.77034299      27.73488045      20.46128430      32.06000001       0.00000000       0.00000000       0.00000000     2267        2        0        0        0
S       44.77964778      27.74611368      17.30252542      32.06000001       0.00000000       0.00000000       0.00000000     2268        2        0        0        0
S       47.52735454      26.09403240      20.46724850      32.06000001       0.00000000       0.00000000       0.00000000     2269        2        0        0        0
S       47.53823373      26.10267958      17.30839533      32.06000001       0.00000000       0.00000000       0.00000000     2270        2        0        0        0
S       50.28469002      24.45133453      20.47553586      32.06000001       0.00000000       0.00000000       0.00000000     2271        2        0        0        0
S       50.29691982      24.45613373      17.31656284      32.06000001       0.00000000       0.00000000       0.00000000     2272        2        0        0        0
S       53.04008604      22.80536527      20.48704484      32.06000001       0.00000000       0.00000000       0.00000000     2273        2        0        0        0
S       53.05385537      22.80427879      17.32792149      32.06000001       0.00000000       0.00000000       0.00000000     2274        2        0        0        0
S       55.79140806      21.15464582      20.50309870      32.06000001       0.00000000       0.00000000       0.00000000     2275        2        0        0        0
S       55.80684534      21.14556960      17.34378489      32.06000001       0.00000000       0.00000000       0.00000000     2276        2        0        0        0
S       58.53688737      19.49764675      20.52454320      32.06000001       0.00000000       0.00000000       0.00000000     2277        2        0        0        0
S       58.55356451      19.47935884      17.36500713      32.06000001       0.00000000       0.00000000       0.00000000     2278        2        0        0        0
S       61.27538940      17.83300837      20.55093652      32.06000001       0.00000000       0.00000000       0.00000000     2279        2        0        0        0
S       61.29209408      17.80589430      17.39118084      32.06000001       0.00000000       0.00000000       0.00000000     2280        2        0        0        0
S       64.00666409      16.15992230      20.58027681      32.06000001       0.00000000       0.00000000       0.00000000     2281        2        0        0        0
S       64.02149090      16.12604621      17.42036339      32.06000001       0.00000000       0.00000000       0.00000000     2282        2        0        0        0
S       66.73146249      14.47856606      20.60929450      32.06000001       0.00000000       0.00000000       0.00000000     2283        2        0        0        0
S       66.74205456      14.44108363      17.44933832      32.06000001       0.00000000       0.00000000       0.00000000     2284        2        0        0        0
S       69.45136111      12.79044493      20.63408722      32.06000001       0.00000000       0.00000000       0.00000000     2285        2        0        0        0
S       69.45527016      12.75273613      17.47413582      32.06000001       0.00000000       0.00000000       0.00000000     2286        2        0        0        0
S       72.16818908      11.09835175      20.65098346      32.06000001       0.00000000       0.00000000       0.00000000     2287        2        0        0        0
S       72.16337160      11.06318072      17.49095595      32.06000001       0.00000000       0.00000000       0.00000000     2288        2        0        0        0
S       25.68506672      42.51562553      20.54489194      32.06000001       0.00000000       0.00000000       0.00000000     2289        2        0        0        0
S       25.69354086      42.54559232      17.38505518      32.06000001       0.00000000       0.00000000       0.00000000     2290        2        0        0        0
S       28.39846804      40.83712083      20.53557003      32.06000001       0.00000000       0.00000000       0.00000000     2291        2        0        0        0
S       28.39949795      40.87027957      17.37567029      32.06000001       0.00000000       0.00000000       0.00000000     2292        2        0        0        0
S       31.11701694      39.16442491      20.51977379      32.06000001       0.00000000       0.00000000       0.00000000     2293        2        0        0        0
S       31.11338413      39.19868594      17.35999080      32.06000001       0.00000000       0.00000000       0.00000000     2294        2        0        0        0
S       33.84187661      37.49947891      20.50208438      32.06000001       0.00000000       0.00000000       0.00000000     2295        2        0        0        0
S       33.83735892      37.53206847      17.34254267      32.06000001       0.00000000       0.00000000       0.00000000     2296        2        0        0        0
S       36.57411336      35.84244352      20.48700655      32.06000001       0.00000000       0.00000000       0.00000000     2297        2        0        0        0
S       36.57183067      35.87107410      17.32771965      32.06000001       0.00000000       0.00000000       0.00000000     2298        2        0        0        0
S       39.31420615      34.19200689      20.47720832      32.06000001       0.00000000       0.00000000       0.00000000     2299        2        0        0        0
S       39.31557485      34.21562960      17.31811792      32.06000001       0.00000000       0.00000000       0.00000000     2300        2        0        0        0
S       42.06174027      32.54607021      20.47300168      32.06000001       0.00000000       0.00000000       0.00000000     2301        2        0        0        0
S       42.06645017      32.56483897      17.31402083      32.06000001       0.00000000       0.00000000       0.00000000     2302        2        0        0        0
S       44.81542803      30.90247304      20.47305920      32.06000001       0.00000000       0.00000000       0.00000000     2303        2        0        0        0
S       44.82220328      30.91707529      17.31410698      32.06000001       0.00000000       0.00000000       0.00000000     2304        2        0        0        0
S       47.57336196      29.25939041      20.47566476      32.06000001       0.00000000       0.00000000       0.00000000     2305        2        0        0        0
S       47.58087851      29.27025117      17.31669513      32.06000001       0.00000000       0.00000000       0.00000000     2306        2        0        0        0
S       50.33328489      27.61536171      20.47974644      32.06000001       0.00000000       0.00000000       0.00000000     2307        2        0        0        0
S       50.34078885      27.62212808      17.32074703      32.06000001       0.00000000       0.00000000       0.00000000     2308        2        0        0        0
S       53.09278647      25.96913561      20.48534862      32.06000001       0.00000000       0.00000000       0.00000000     2309        2        0        0        0
S       53.10027643      25.97059609      17.32631373      32.06000001       0.00000000       0.00000000       0.00000000     2310        2        0        0        0
S       55.84946383      24.31948260      20.49351863      32.06000001       0.00000000       0.00000000       0.00000000     2311        2        0        0        0
S       55.85747822      24.31393697      17.33442414      32.06000001       0.00000000       0.00000000       0.00000000     2312        2        0        0        0
S       58.60112746      22.66507390      20.50571110      32.06000001       0.00000000       0.00000000       0.00000000     2313        2        0        0        0
S       58.61025887      22.65104513      17.34650976      32.06000001       0.00000000       0.00000000       0.00000000     2314        2        0        0        0
S       61.34608359      21.00451076      20.52291237      32.06000001       0.00000000       0.00000000       0.00000000     2315        2        0        0        0
S       61.35642239      20.98152569      17.36355541      32.06000001       0.00000000       0.00000000       0.00000000     2316        2        0        0        0
S       64.08346212      19.33657787      20.54484704      32.06000001       0.00000000       0.00000000       0.00000000     2317        2        0        0        0
S       64.09419231      19.30561948      17.38530275      32.06000001       0.00000000       0.00000000       0.00000000     2318        2        0        0        0
S       66.81346507      17.66069027      20.56960953      32.06000001       0.00000000       0.00000000       0.00000000     2319        2        0        0        0
S       66.82272316      17.62407074      17.40989202      32.06000001       0.00000000       0.00000000       0.00000000     2320        2        0        0        0
S       69.53736193      15.97738133      20.59381963      32.06000001       0.00000000       0.00000000       0.00000000     2321        2        0        0        0
S       69.54242708      15.93817800      17.43398604      32.06000001       0.00000000       0.00000000       0.00000000     2322        2        0        0        0
S       72.25707126      14.28860261      20.61329237      32.06000001       0.00000000       0.00000000       0.00000000     2323        2        0        0        0
S       72.25499689      14.24991588      17.45335315      32.06000001       0.00000000       0.00000000       0.00000000     2324        2        0        0        0
S       74.97440079      12.59753360      20.62419030      32.06000001       0.00000000       0.00000000       0.00000000     2325        2        0        0        0
S       74.96296638      12.56172272      17.46408304      32.06000001       0.00000000       0.00000000       0.00000000     2326        2        0        0        0
S       28.47403612      44.03458463      20.57245869      32.06000001       0.00000000       0.00000000       0.00000000     2327        2        0        0        0
S       28.48121153      44.07128316      17.41225141      32.06000001       0.00000000       0.00000000       0.00000000     2328        2        0        0        0
S       31.18853140      42.35658399      20.55872769      32.06000001       0.00000000       0.00000000       0.00000000     2329        2        0        0        0
S       31.18871283      42.39604153      17.39850300      32.06000001       0.00000000       0.00000000       0.00000000     2330        2        0        0        0
S       33.90877632      40.68526127      20.53975852      32.06000001       0.00000000       0.00000000       0.00000000     2331        2        0        0        0
S       33.90517531      40.72470026      17.37969370      32.06000001       0.00000000       0.00000000       0.00000000     2332        2        0        0        0
S       36.63602085      39.02174121      20.52037452      32.06000001       0.00000000       0.00000000       0.00000000     2333        2        0        0        0
S       36.63211954      39.05805559      17.36057537      32.06000001       0.00000000       0.00000000       0.00000000     2334        2        0        0        0
S       39.37123134      37.36555262      20.50457058      32.06000001       0.00000000       0.00000000       0.00000000     2335        2        0        0        0
S       39.36939044      37.39641752      17.34503800      32.06000001       0.00000000       0.00000000       0.00000000     2336        2        0        0        0
S       42.11461154      35.71505455      20.49417042      32.06000001       0.00000000       0.00000000       0.00000000     2337        2        0        0        0
S       42.11544146      35.73951486      17.33484757      32.06000001       0.00000000       0.00000000       0.00000000     2338        2        0        0        0
S       44.86538829      34.06813764      20.48875696      32.06000001       0.00000000       0.00000000       0.00000000     2339        2        0        0        0
S       44.86806298      34.08642910      17.32957128      32.06000001       0.00000000       0.00000000       0.00000000     2340        2        0        0        0
S       47.62192825      32.42283635      20.48663987      32.06000001       0.00000000       0.00000000       0.00000000     2341        2        0        0        0
S       47.62506125      32.43568441      17.32753557      32.06000001       0.00000000       0.00000000       0.00000000     2342        2        0        0        0
S       50.38203045      30.77758311      20.48611533      32.06000001       0.00000000       0.00000000       0.00000000     2343        2        0        0        0
S       50.38454080      30.78546967      17.32706982      32.06000001       0.00000000       0.00000000       0.00000000     2344        2        0        0        0
S       53.14320990      29.13114479      20.48638193      32.06000001       0.00000000       0.00000000       0.00000000     2345        2        0        0        0
S       53.14483035      29.13389034      17.32739118      32.06000001       0.00000000       0.00000000       0.00000000     2346        2        0        0        0
S       55.90291128      27.48243044      20.48786733      32.06000001       0.00000000       0.00000000       0.00000000     2347        2        0        0        0
S       55.90425863      27.47919713      17.32891855      32.06000001       0.00000000       0.00000000       0.00000000     2348        2        0        0        0
S       58.65870480      25.83029987      20.49199220      32.06000001       0.00000000       0.00000000       0.00000000     2349        2        0        0        0
S       58.66094503      25.81997511      17.33304387      32.06000001       0.00000000       0.00000000       0.00000000     2350        2        0        0        0
S       61.40853415      24.17344867      20.50047359      32.06000001       0.00000000       0.00000000       0.00000000     2351        2        0        0        0
S       61.41275259      24.15526525      17.34146100      32.06000001       0.00000000       0.00000000       0.00000000     2352        2        0        0        0
S       64.15102952      22.51048649      20.51436552      32.06000001       0.00000000       0.00000000       0.00000000     2353        2        0        0        0
S       64.15750278      22.48460588      17.35521780      32.06000001       0.00000000       0.00000000       0.00000000     2354        2        0        0        0
S       66.88582728      20.84028562      20.53319708      32.06000001       0.00000000       0.00000000       0.00000000     2355        2        0        0        0
S       66.89347132      20.80804891      17.37385512      32.06000001       0.00000000       0.00000000       0.00000000     2356        2        0        0        0
S       69.61370858      19.16254264      20.55459006      32.06000001       0.00000000       0.00000000       0.00000000     2357        2        0        0        0
S       69.61997836      19.12626849      17.39503377      32.06000001       0.00000000       0.00000000       0.00000000     2358        2        0        0        0
S       72.33638461      17.47827872      20.57456359      32.06000001       0.00000000       0.00000000       0.00000000     2359        2        0        0        0
S       72.33778520      17.44075570      17.41481628      32.06000001       0.00000000       0.00000000       0.00000000     2360        2        0        0        0
S       75.05585547      15.78999919      20.58854567      32.06000001       0.00000000       0.00000000       0.00000000     2361        2        0        0        0
S       75.04906607      15.75382879      17.42861081      32.06000001       0.00000000       0.00000000       0.00000000     2362        2        0        0        0
S       28.56104401      47.23170862      20.61075738      32.06000001       0.00000000       0.00000000       0.00000000     2363        2        0        0        0
S       28.57374940      47.26784201      17.45045524      32.06000001       0.00000000       0.00000000       0.00000000     2364        2        0        0        0
S       31.27184456      45.54925801      20.60091056      32.06000001       0.00000000       0.00000000       0.00000000     2365        2        0        0        0
S       31.27589043      45.58949419      17.44047674      32.06000001       0.00000000       0.00000000       0.00000000     2366        2        0        0        0
S       33.98766805      43.87199420      20.58280550      32.06000001       0.00000000       0.00000000       0.00000000     2367        2        0        0        0
S       33.98521798      43.91417220      17.42238373      32.06000001       0.00000000       0.00000000       0.00000000     2368        2        0        0        0
S       36.70972754      42.20185540      20.56063309      32.06000001       0.00000000       0.00000000       0.00000000     2369        2        0        0        0
S       36.70399300      42.24271251      17.40038707      32.06000001       0.00000000       0.00000000       0.00000000     2370        2        0        0        0
S       39.43927028      40.53935225      20.53902865      32.06000001       0.00000000       0.00000000       0.00000000     2371        2        0        0        0
S       39.43320480      40.57561384      17.37906098      32.06000001       0.00000000       0.00000000       0.00000000     2372        2        0        0        0
S       42.17705129      38.88361247      20.52131117      32.06000001       0.00000000       0.00000000       0.00000000     2373        2        0        0        0
S       42.17231935      38.91303827      17.36163108      32.06000001       0.00000000       0.00000000       0.00000000     2374        2        0        0        0
S       44.92291871      37.23287550      20.50858523      32.06000001       0.00000000       0.00000000       0.00000000     2375        2        0        0        0
S       44.91965108      37.25471230      17.34914969      32.06000001       0.00000000       0.00000000       0.00000000     2376        2        0        0        0
S       47.67571259      35.58515291      20.50002502      32.06000001       0.00000000       0.00000000       0.00000000     2377        2        0        0        0
S       47.67302847      35.59985881      17.34077851      32.06000001       0.00000000       0.00000000       0.00000000     2378        2        0        0        0
S       50.43346973      33.93870495      20.49394981      32.06000001       0.00000000       0.00000000       0.00000000     2379        2        0        0        0
S       50.43033903      33.94723761      17.33485149      32.06000001       0.00000000       0.00000000       0.00000000     2380        2        0        0        0
S       53.19375454      32.29217603      20.48900055      32.06000001       0.00000000       0.00000000       0.00000000     2381        2        0        0        0
S       53.18972916      32.29530156      17.33003167      32.06000001       0.00000000       0.00000000       0.00000000     2382        2        0        0        0
S       55.95396313      30.64447388      20.48489098      32.06000001       0.00000000       0.00000000       0.00000000     2383        2        0        0        0
S       55.94951445      30.64238672      17.32603923      32.06000001       0.00000000       0.00000000       0.00000000     2384        2        0        0        0
S       58.71155542      28.99455690      20.48256197      32.06000001       0.00000000       0.00000000       0.00000000     2385        2        0        0        0
S       58.70796947      28.98689554      17.32379886      32.06000001       0.00000000       0.00000000       0.00000000     2386        2        0        0        0
S       61.46427275      27.34123936      20.48378607      32.06000001       0.00000000       0.00000000       0.00000000     2387        2        0        0        0
S       61.46314111      27.32743095      17.32505162      32.06000001       0.00000000       0.00000000       0.00000000     2388        2        0        0        0
S       64.21039723      25.68310596      20.49032479      32.06000001       0.00000000       0.00000000       0.00000000     2389        2        0        0        0
S       64.21282065      25.66288891      17.33153529      32.06000001       0.00000000       0.00000000       0.00000000     2390        2        0        0        0
S       66.94906353      24.01869183      20.50287159      32.06000001       0.00000000       0.00000000       0.00000000     2391        2        0        0        0
S       66.95481892      23.99257970      17.34393663      32.06000001       0.00000000       0.00000000       0.00000000     2392        2        0        0        0
S       69.68050325      22.34699456      20.52020371      32.06000001       0.00000000       0.00000000       0.00000000     2393        2        0        0        0
S       69.68757422      22.31643520      17.36104792      32.06000001       0.00000000       0.00000000       0.00000000     2394        2        0        0        0
S       72.40600883      20.66812901      20.53901983      32.06000001       0.00000000       0.00000000       0.00000000     2395        2        0        0        0
S       72.41083828      20.63528049      17.37961278      32.06000001       0.00000000       0.00000000       0.00000000     2396        2        0        0        0
S       75.12750361      18.98374959      20.55464825      32.06000001       0.00000000       0.00000000       0.00000000     2397        2        0        0        0
S       75.12602288      18.95100211      17.39501015      32.06000001       0.00000000       0.00000000       0.00000000     2398        2        0        0        0
S       77.84676473      17.29697807      20.56253421      32.06000001       0.00000000       0.00000000       0.00000000     2399        2        0        0        0
S       77.83598042      17.26631708      17.40268905      32.06000001       0.00000000       0.00000000       0.00000000     2400        2        0        0        0
S       31.36623470      48.74287739      20.64125144      32.06000001       0.00000000       0.00000000       0.00000000     2401        2        0        0        0
S       31.37342942      48.77915634      17.48087174      32.06000001       0.00000000       0.00000000       0.00000000     2402        2        0        0        0
S       34.07824928      47.06052035      20.62617816      32.06000001       0.00000000       0.00000000       0.00000000     2403        2        0        0        0
S       34.07687595      47.10041406      17.46570855      32.06000001       0.00000000       0.00000000       0.00000000     2404        2        0        0        0
S       36.79550521      45.38408906      20.60358980      32.06000001       0.00000000       0.00000000       0.00000000     2405        2        0        0        0
S       36.78797889      45.42490501      17.44314535      32.06000001       0.00000000       0.00000000       0.00000000     2406        2        0        0        0
S       39.51926756      43.71499552      20.57780338      32.06000001       0.00000000       0.00000000       0.00000000     2407        2        0        0        0
S       39.50856283      43.75318751      17.41753587      32.06000001       0.00000000       0.00000000       0.00000000     2408        2        0        0        0
S       42.25064063      42.05335029      20.55306774      32.06000001       0.00000000       0.00000000       0.00000000     2409        2        0        0        0
S       42.23926733      42.08567775      17.39308936      32.06000001       0.00000000       0.00000000       0.00000000     2410        2        0        0        0
S       44.99006500      40.39807180      20.53213032      32.06000001       0.00000000       0.00000000       0.00000000     2411        2        0        0        0
S       44.97935575      40.42258434      17.37246340      32.06000001       0.00000000       0.00000000       0.00000000     2412        2        0        0        0
S       47.73700887      38.74742184      20.51570103      32.06000001       0.00000000       0.00000000       0.00000000     2413        2        0        0        0
S       47.72710178      38.76377522      17.35631250      32.06000001       0.00000000       0.00000000       0.00000000     2414        2        0        0        0
S       50.48998310      37.09958475      20.50293238      32.06000001       0.00000000       0.00000000       0.00000000     2415        2        0        0        0
S       50.48038105      37.10865357      17.34377615      32.06000001       0.00000000       0.00000000       0.00000000     2416        2        0        0        0
S       53.24681464      35.45300889      20.49247239      32.06000001       0.00000000       0.00000000       0.00000000     2417        2        0        0        0
S       53.23712421      35.45613231      17.33351424      32.06000001       0.00000000       0.00000000       0.00000000     2418        2        0        0        0
S       56.00500218      33.80645329      20.48348701      32.06000001       0.00000000       0.00000000       0.00000000     2419        2        0        0        0
S       55.99547670      33.80474365      17.32470804      32.06000001       0.00000000       0.00000000       0.00000000     2420        2        0        0        0
S       58.76201101      32.15884049      20.47622239      32.06000001       0.00000000       0.00000000       0.00000000     2421        2        0        0        0
S       58.75370984      32.15281407      17.31760108      32.06000001       0.00000000       0.00000000       0.00000000     2422        2        0        0        0
S       61.51549651      30.50903190      20.47199003      32.06000001       0.00000000       0.00000000       0.00000000     2423        2        0        0        0
S       61.51001900      30.49862424      17.31347675      32.06000001       0.00000000       0.00000000       0.00000000     2424        2        0        0        0
S       64.26351690      28.85563999      20.47261767      32.06000001       0.00000000       0.00000000       0.00000000     2425        2        0        0        0
S       64.26235248      28.84054384      17.31412603      32.06000001       0.00000000       0.00000000       0.00000000     2426        2        0        0        0
S       67.00480100      27.19703571      20.47948146      32.06000001       0.00000000       0.00000000       0.00000000     2427        2        0        0        0
S       67.00843722      27.17720136      17.32090533      32.06000001       0.00000000       0.00000000       0.00000000     2428        2        0        0        0
S       69.73903719      25.53170099      20.49241925      32.06000001       0.00000000       0.00000000       0.00000000     2429        2        0        0        0
S       69.74618849      25.50776613      17.33365805      32.06000001       0.00000000       0.00000000       0.00000000     2430        2        0        0        0
S       72.46698718      23.85891368      20.50907899      32.06000001       0.00000000       0.00000000       0.00000000     2431        2        0        0        0
S       72.47447273      23.83231552      17.35006060      32.06000001       0.00000000       0.00000000       0.00000000     2432        2        0        0        0
S       75.19026327      22.17940390      20.52519342      32.06000001       0.00000000       0.00000000       0.00000000     2433        2        0        0        0
S       75.19377645      22.15211314      17.36590668      32.06000001       0.00000000       0.00000000       0.00000000     2434        2        0        0        0
S       77.91072657      20.49558602      20.53580624      32.06000001       0.00000000       0.00000000       0.00000000     2435        2        0        0        0
S       77.90635385      20.46959802      17.37629154      32.06000001       0.00000000       0.00000000       0.00000000     2436        2        0        0        0
S       31.46958133      51.93735745      20.67511133      32.06000001       0.00000000       0.00000000       0.00000000     2437        2        0        0        0
S       31.47889230      51.96594695      17.51485179      32.06000001       0.00000000       0.00000000       0.00000000     2438        2        0        0        0
S       34.17874229      50.25095033      20.66467415      32.06000001       0.00000000       0.00000000       0.00000000     2439        2        0        0        0
S       34.17821255      50.28419149      17.50432351      32.06000001       0.00000000       0.00000000       0.00000000     2440        2        0        0        0
S       36.89207810      48.56905382      20.64418911      32.06000001       0.00000000       0.00000000       0.00000000     2441        2        0        0        0
S       36.88316731      48.60526049      17.48380558      32.06000001       0.00000000       0.00000000       0.00000000     2442        2        0        0        0
S       39.61065948      46.89359959      20.61683386      32.06000001       0.00000000       0.00000000       0.00000000     2443        2        0        0        0
S       39.59579159      46.92973187      17.45649847      32.06000001       0.00000000       0.00000000       0.00000000     2444        2        0        0        0
S       42.33563771      45.22567215      20.58686518      32.06000001       0.00000000       0.00000000       0.00000000     2445        2        0        0        0
S       42.31765224      45.25810542      17.42671476      32.06000001       0.00000000       0.00000000       0.00000000     2446        2        0        0        0
S       45.06786262      43.56514877      20.55825338      32.06000001       0.00000000       0.00000000       0.00000000     2447        2        0        0        0
S       45.04919713      43.59091748      17.39840345      32.06000001       0.00000000       0.00000000       0.00000000     2448        2        0        0        0
S       47.80745540      41.91086972      20.53347309      32.06000001       0.00000000       0.00000000       0.00000000     2449        2        0        0        0
S       47.78955015      41.92856346      17.37394917      32.06000001       0.00000000       0.00000000       0.00000000     2450        2        0        0        0
S       50.55360413      40.26117889      20.51316375      32.06000001       0.00000000       0.00000000       0.00000000     2451        2        0        0        0
S       50.53692720      40.27105231      17.35393926      32.06000001       0.00000000       0.00000000       0.00000000     2452        2        0        0        0
S       53.30466187      38.61439372      20.49668123      32.06000001       0.00000000       0.00000000       0.00000000     2453        2        0        0        0
S       53.28921079      38.61780571      17.33772197      32.06000001       0.00000000       0.00000000       0.00000000     2454        2        0        0        0
S       56.05844689      36.96904025      20.48307564      32.06000001       0.00000000       0.00000000       0.00000000     2455        2        0        0        0
S       56.04435685      36.96763947      17.32435551      32.06000001       0.00000000       0.00000000       0.00000000     2456        2        0        0        0
S       58.81257783      35.32384940      20.47195498      32.06000001       0.00000000       0.00000000       0.00000000     2457        2        0        0        0
S       58.80051524      35.31890421      17.31344787      32.06000001       0.00000000       0.00000000       0.00000000     2458        2        0        0        0
S       61.56473137      33.67759585      20.46388510      32.06000001       0.00000000       0.00000000       0.00000000     2459        2        0        0        0
S       61.55592765      33.66967234      17.30554427      32.06000001       0.00000000       0.00000000       0.00000000     2460        2        0        0        0
S       64.31284271      32.02888277      20.46023795      32.06000001       0.00000000       0.00000000       0.00000000     2461        2        0        0        0
S       64.30871951      32.01791443      17.30198088      32.06000001       0.00000000       0.00000000       0.00000000     2462        2        0        0        0
S       67.05533183      30.37601527      20.46251921      32.06000001       0.00000000       0.00000000       0.00000000     2463        2        0        0        0
S       67.05676097      30.36169738      17.30423473      32.06000001       0.00000000       0.00000000       0.00000000     2464        2        0        0        0
S       69.79138715      28.71716424      20.47131914      32.06000001       0.00000000       0.00000000       0.00000000     2465        2        0        0        0
S       69.79781273      28.69949392      17.31289293      32.06000001       0.00000000       0.00000000       0.00000000     2466        2        0        0        0
S       72.52119498      27.05092991      20.48532390      32.06000001       0.00000000       0.00000000       0.00000000     2467        2        0        0        0
S       72.53013100      27.03062116      17.32666204      32.06000001       0.00000000       0.00000000       0.00000000     2468        2        0        0        0
S       75.24590042      25.37712073      20.50105526      32.06000001       0.00000000       0.00000000       0.00000000     2469        2        0        0        0
S       75.25329736      25.35563732      17.34211039      32.06000001       0.00000000       0.00000000       0.00000000     2470        2        0        0        0
S       77.96721966      23.69728059      20.51367756      32.06000001       0.00000000       0.00000000       0.00000000     2471        2        0        0        0
S       77.96871628      23.67647552      17.35447509      32.06000001       0.00000000       0.00000000       0.00000000     2472        2        0        0        0
S       80.68676497      22.01465168      20.51868709      32.06000001       0.00000000       0.00000000       0.00000000     2473        2        0        0        0
S       80.67947205      21.99615206      17.35929649      32.06000001       0.00000000       0.00000000       0.00000000     2474        2        0        0        0
S      100.63254016      55.13224694      20.69935339      32.06000001       0.00000000       0.00000000       0.00000000     2475        2       -1        0        0
S      100.64315825      55.15087023      17.53914171      32.06000001       0.00000000       0.00000000       0.00000000     2476        2       -1        0        0
S       34.28634165      53.44273493      20.69443498      32.06000001       0.00000000       0.00000000       0.00000000     2477        2        0        0        0
S       34.28650642      53.46647311      17.53416669      32.06000001       0.00000000       0.00000000       0.00000000     2478        2        0        0        0
S       36.99695778      51.75647871      20.67805816      32.06000001       0.00000000       0.00000000       0.00000000     2479        2        0        0        0
S       36.98735850      51.78458427      17.51778899      32.06000001       0.00000000       0.00000000       0.00000000     2480        2        0        0        0
S       39.71152682      50.07548426      20.65201408      32.06000001       0.00000000       0.00000000       0.00000000     2481        2        0        0        0
S       39.69380443      50.10596593      17.49178160      32.06000001       0.00000000       0.00000000       0.00000000     2482        2        0        0        0
S       42.43096205      48.40144128      20.61966519      32.06000001       0.00000000       0.00000000       0.00000000     2483        2        0        0        0
S       42.40767300      48.43108692      17.45951341      32.06000001       0.00000000       0.00000000       0.00000000     2484        2        0        0        0
S       45.15618584      46.73525566      20.58534835      32.06000001       0.00000000       0.00000000       0.00000000     2485        2        0        0        0
S       45.13039633      46.76059282      17.42539018      32.06000001       0.00000000       0.00000000       0.00000000     2486        2        0        0        0
S       47.88782473      45.07667291      20.55302496      32.06000001       0.00000000       0.00000000       0.00000000     2487        2        0        0        0
S       47.86224366      45.09527503      17.39337356      32.06000001       0.00000000       0.00000000       0.00000000     2488        2        0        0        0
S       50.62583134      43.42449253      20.52510504      32.06000001       0.00000000       0.00000000       0.00000000     2489        2        0        0        0
S       50.60214609      43.43567271      17.36579620      32.06000001       0.00000000       0.00000000       0.00000000     2490        2        0        0        0
S       53.36931118      41.77708619      20.50222776      32.06000001       0.00000000       0.00000000       0.00000000     2491        2        0        0        0
S       53.34823349      41.78168713      17.34324585      32.06000001       0.00000000       0.00000000       0.00000000     2492        2        0        0        0
S       56.11664980      40.13277743      20.48389816      32.06000001       0.00000000       0.00000000       0.00000000     2493        2        0        0        0
S       56.09842480      40.13244663      17.32521277      32.06000001       0.00000000       0.00000000       0.00000000     2494        2        0        0        0
S       58.86581244      38.49000772      20.46941482      32.06000001       0.00000000       0.00000000       0.00000000     2495        2        0        0        0
S       58.85075195      38.48640881      17.31098932      32.06000001       0.00000000       0.00000000       0.00000000     2496        2        0        0        0
S       61.61463634      36.84731893      20.45859680      32.06000001       0.00000000       0.00000000       0.00000000     2497        2        0        0        0
S       61.60341889      36.84155524      17.30038013      32.06000001       0.00000000       0.00000000       0.00000000     2498        2        0        0        0
S       64.36104647      35.20319868      20.45205477      32.06000001       0.00000000       0.00000000       0.00000000     2499        2        0        0        0
S       64.35466979      35.19559363      17.29397018      32.06000001       0.00000000       0.00000000       0.00000000     2500        2        0        0        0
S       67.10325370      33.55590232      20.45093281      32.06000001       0.00000000       0.00000000       0.00000000     2501        2        0        0        0
S       67.10259210      33.54617470      17.29287342      32.06000001       0.00000000       0.00000000       0.00000000     2502        2        0        0        0
S       69.84001989      31.90344565      20.45613362      32.06000001       0.00000000       0.00000000       0.00000000     2503        2        0        0        0
S       69.84505524      31.89119943      17.29797892      32.06000001       0.00000000       0.00000000       0.00000000     2504        2        0        0        0
S       72.57095309      30.24397009      20.46725818      32.06000001       0.00000000       0.00000000       0.00000000     2505        2        0        0        0
S       72.58003749      30.22928279      17.30889953      32.06000001       0.00000000       0.00000000       0.00000000     2506        2        0        0        0
S       75.29664012      28.57647769      20.48186789      32.06000001       0.00000000       0.00000000       0.00000000     2507        2        0        0        0
S       75.30638672      28.56024790      17.32323141      32.06000001       0.00000000       0.00000000       0.00000000     2508        2        0        0        0
S       78.01846705      26.90157074      20.49571518      32.06000001       0.00000000       0.00000000       0.00000000     2509        2        0        0        0
S       78.02456966      26.88539476      17.33679424      32.06000001       0.00000000       0.00000000       0.00000000     2510        2        0        0        0
S       80.73810652      25.22173660      20.50403134      32.06000001       0.00000000       0.00000000       0.00000000     2511        2        0        0        0
S       80.73690063      25.20738821      17.34489087      32.06000001       0.00000000       0.00000000       0.00000000     2512        2        0        0        0
S       34.39788532      56.63520027      20.71333478      32.06000001       0.00000000       0.00000000       0.00000000     2513        2        0        0        0
S       34.39876500      56.64795647      17.55308594      32.06000001       0.00000000       0.00000000       0.00000000     2514        2        0        0        0
S       37.10709195      54.94562896      20.70228990      32.06000001       0.00000000       0.00000000       0.00000000     2515        2        0        0        0
S       37.09755296      54.96347662      17.54206286      32.06000001       0.00000000       0.00000000       0.00000000     2516        2        0        0        0
S       39.81906465      53.26026561      20.67996017      32.06000001       0.00000000       0.00000000       0.00000000     2517        2        0        0        0
S       39.80007538      53.28227887      17.51981203      32.06000001       0.00000000       0.00000000       0.00000000     2518        2        0        0        0
S       42.53440746      51.58093085      20.64844161      32.06000001       0.00000000       0.00000000       0.00000000     2519        2        0        0        0
S       42.50794109      51.60494528      17.48838117      32.06000001       0.00000000       0.00000000       0.00000000     2520        2        0        0        0
S       45.25376474      49.90920901      20.61147181      32.06000001       0.00000000       0.00000000       0.00000000     2521        2        0        0        0
S       45.22288125      49.93204597      17.45150576      32.06000001       0.00000000       0.00000000       0.00000000     2522        2        0        0        0
S       47.97790489      48.24588999      20.57372018      32.06000001       0.00000000       0.00000000       0.00000000     2523        2        0        0        0
S       47.94614370      48.26451356      17.41395944      32.06000001       0.00000000       0.00000000       0.00000000     2524        2        0        0        0
S       50.70743507      46.59057472      20.53920361      32.06000001       0.00000000       0.00000000       0.00000000     2525        2        0        0        0
S       50.67769493      46.60329864      17.37978080      32.06000001       0.00000000       0.00000000       0.00000000     2526        2        0        0        0
S       53.44233173      44.94193467      20.51013574      32.06000001       0.00000000       0.00000000       0.00000000     2527        2        0        0        0
S       53.41625366      44.94872877      17.35109040      32.06000001       0.00000000       0.00000000       0.00000000     2528        2        0        0        0
S       56.18175494      43.29822609      20.48696648      32.06000001       0.00000000       0.00000000       0.00000000     2529        2        0        0        0
S       56.15995058      43.30023007      17.32826967      32.06000001       0.00000000       0.00000000       0.00000000     2530        2        0        0        0
S       58.92422634      41.65761750      20.46915824      32.06000001       0.00000000       0.00000000       0.00000000     2531        2        0        0        0
S       58.90683118      41.65640333      17.31076129      32.06000001       0.00000000       0.00000000       0.00000000     2532        2        0        0        0
S       61.66792076      40.01832827      20.45604926      32.06000001       0.00000000       0.00000000       0.00000000     2533        2        0        0        0
S       61.65507121      40.01523103      17.29789589      32.06000001       0.00000000       0.00000000       0.00000000     2534        2        0        0        0
S       64.41089965      38.37861150      20.44745723      32.06000001       0.00000000       0.00000000       0.00000000     2535        2        0        0        0
S       64.40298372      38.37429493      17.28947594      32.06000001       0.00000000       0.00000000       0.00000000     2536        2        0        0        0
S       67.15129601      36.73661709      20.44385584      32.06000001       0.00000000       0.00000000       0.00000000     2537        2        0        0        0
S       67.14886859      36.73099110      17.28594915      32.06000001       0.00000000       0.00000000       0.00000000     2538        2        0        0        0
S       69.88755327      35.09028136      20.44602082      32.06000001       0.00000000       0.00000000       0.00000000     2539        2        0        0        0
S       69.89084279      35.08281393      17.28806906      32.06000001       0.00000000       0.00000000       0.00000000     2540        2        0        0        0
S       72.61874641      33.43748715      20.45416336      32.06000001       0.00000000       0.00000000       0.00000000     2541        2        0        0        0
S       72.62689475      33.42779548      17.29604866      32.06000001       0.00000000       0.00000000       0.00000000     2542        2        0        0        0
S       75.34486366      31.77662843      20.46693646      32.06000001       0.00000000       0.00000000       0.00000000     2543        2        0        0        0
S       75.35540454      31.76504741      17.30856635      32.06000001       0.00000000       0.00000000       0.00000000     2544        2        0        0        0
S       78.06682647      30.10740924      20.48105216      32.06000001       0.00000000       0.00000000       0.00000000     2545        2        0        0        0
S       78.07596217      30.09516408      17.32238560      32.06000001       0.00000000       0.00000000       0.00000000     2546        2        0        0        0
S       80.78617224      28.43140859      20.49198938      32.06000001       0.00000000       0.00000000       0.00000000     2547        2        0        0        0
S       80.78993041      28.42026649      17.33306518      32.06000001       0.00000000       0.00000000       0.00000000     2548        2        0        0        0
S       83.50447231      26.75205797      20.49565063      32.06000001       0.00000000       0.00000000       0.00000000     2549        2        0        0        0
S       83.50038102      26.74361424      17.33655936      32.06000001       0.00000000       0.00000000       0.00000000     2550        2        0        0        0
S       69.03721494       0.02562392      20.72042800      32.06000001       0.00000000       0.00000000       0.00000000     2551        2       -1        1        0
S       69.03882006       0.02673023      17.56017519      32.06000001       0.00000000       0.00000000       0.00000000     2552        2       -1        1        0
S       37.21942796      58.13587520      20.71530056      32.06000001       0.00000000       0.00000000       0.00000000     2553        2        0        0        0
S       37.21046744      58.14232870      17.55506368      32.06000001       0.00000000       0.00000000       0.00000000     2554        2        0        0        0
S       39.93018225      56.44728051      20.69821587      32.06000001       0.00000000       0.00000000       0.00000000     2555        2        0        0        0
S       39.91117507      56.45887641      17.53805492      32.06000001       0.00000000       0.00000000       0.00000000     2556        2        0        0        0
S       42.64304231      54.76387771      20.67025638      32.06000001       0.00000000       0.00000000       0.00000000     2557        2        0        0        0
S       42.61541727      54.77958291      17.51021364      32.06000001       0.00000000       0.00000000       0.00000000     2558        2        0        0        0
S       45.35826965      53.08743073      20.63407529      32.06000001       0.00000000       0.00000000       0.00000000     2559        2        0        0        0
S       45.32473459      53.10505950      17.47412500      32.06000001       0.00000000       0.00000000       0.00000000     2560        2        0        0        0
S       48.07636531      51.41945139      20.59406165      32.06000001       0.00000000       0.00000000       0.00000000     2561        2        0        0        0
S       48.04068532      51.43615098      17.43422564      32.06000001       0.00000000       0.00000000       0.00000000     2562        2        0        0        0
S       50.79820823      49.76052267      20.55515084      32.06000001       0.00000000       0.00000000       0.00000000     2563        2        0        0        0
S       50.76412624      49.77395733      17.39558762      32.06000001       0.00000000       0.00000000       0.00000000     2564        2        0        0        0
S       53.52454794      48.10995235      20.52104558      32.06000001       0.00000000       0.00000000       0.00000000     2565        2        0        0        0
S       53.49464780      48.11913121      17.36187757      32.06000001       0.00000000       0.00000000       0.00000000     2566        2        0        0        0
S       56.25542359      46.46614149      20.49341530      32.06000001       0.00000000       0.00000000       0.00000000     2567        2        0        0        0
S       56.23086985      46.47136912      17.33463853      32.06000001       0.00000000       0.00000000       0.00000000     2568        2        0        0        0
S       58.99008499      44.82709819      20.47230217      32.06000001       0.00000000       0.00000000       0.00000000     2569        2        0        0        0
S       58.97104761      44.82941857      17.31386006      32.06000001       0.00000000       0.00000000       0.00000000     2570        2        0        0        0
S       61.72722389      43.19073946      20.45696107      32.06000001       0.00000000       0.00000000       0.00000000     2571        2        0        0        0
S       61.71343965      43.19130679      17.29879219      32.06000001       0.00000000       0.00000000       0.00000000     2572        2        0        0        0
S       64.46520999      41.55501805      20.44663464      32.06000001       0.00000000       0.00000000       0.00000000     2573        2        0        0        0
S       64.45644992      41.55458675      17.28867116      32.06000001       0.00000000       0.00000000       0.00000000     2574        2        0        0        0
S       67.20226772      39.91789695      20.44107170      32.06000001       0.00000000       0.00000000       0.00000000     2575        2        0        0        0
S       67.19858212      39.91655295      17.28322792      32.06000001       0.00000000       0.00000000       0.00000000     2576        2        0        0        0
S       69.93667982      38.27723485      20.44061825      32.06000001       0.00000000       0.00000000       0.00000000     2577        2        0        0        0
S       69.93825633      38.27447730      17.28278438      32.06000001       0.00000000       0.00000000       0.00000000     2578        2        0        0        0
S       72.66710521      36.63078530      20.44572596      32.06000001       0.00000000       0.00000000       0.00000000     2579        2        0        0        0
S       72.67367778      36.62597491      17.28778206      32.06000001       0.00000000       0.00000000       0.00000000     2580        2        0        0        0
S       75.39295533      34.97654598      20.45598160      32.06000001       0.00000000       0.00000000       0.00000000     2581        2        0        0        0
S       75.40305495      34.96953122      17.29782233      32.06000001       0.00000000       0.00000000       0.00000000     2582        2        0        0        0
S       78.11460717      33.31346642      20.46925916      32.06000001       0.00000000       0.00000000       0.00000000     2583        2        0        0        0
S       78.12529023      33.30501092      17.31081602      32.06000001       0.00000000       0.00000000       0.00000000     2584        2        0        0        0
S       80.83329137      31.64217859      20.48174784      32.06000001       0.00000000       0.00000000       0.00000000     2585        2        0        0        0
S       80.84075450      31.63386966      17.32301980      32.06000001       0.00000000       0.00000000       0.00000000     2586        2        0        0        0
S       83.55063651      29.96529394      20.48909085      32.06000001       0.00000000       0.00000000       0.00000000     2587        2        0        0        0
S       83.55161362      29.95895890      17.33014936      32.06000001       0.00000000       0.00000000       0.00000000     2588        2        0        0        0
S       40.04194306      59.63594877      20.70523346      32.06000001       0.00000000       0.00000000       0.00000000     2589        2        0        0        0
S       40.02354978      59.63604363      17.54501221      32.06000001       0.00000000       0.00000000       0.00000000     2590        2        0        0        0
S       42.75375960      57.94967548      20.68254698      32.06000001       0.00000000       0.00000000       0.00000000     2591        2        0        0        0
S       42.72625120      57.95499794      17.52241252      32.06000001       0.00000000       0.00000000       0.00000000     2592        2        0        0        0
S       45.46666171      56.26973265      20.65002851      32.06000001       0.00000000       0.00000000       0.00000000     2593        2        0        0        0
S       45.43237777      56.27920836      17.48999431      32.06000001       0.00000000       0.00000000       0.00000000     2594        2        0        0        0
S       48.18073753      54.59785011      20.61123454      32.06000001       0.00000000       0.00000000       0.00000000     2595        2        0        0        0
S       48.14333490      54.60952389      17.45130431      32.06000001       0.00000000       0.00000000       0.00000000     2596        2        0        0        0
S       50.89668112      52.93530759      20.57108467      32.06000001       0.00000000       0.00000000       0.00000000     2597        2        0        0        0
S       50.86025253      52.94696967      17.41137234      32.06000001       0.00000000       0.00000000       0.00000000     2598        2        0        0        0
S       53.61562557      51.28224111      20.53418990      32.06000001       0.00000000       0.00000000       0.00000000     2599        2        0        0        0
S       53.58342810      51.29229820      17.37484688      32.06000001       0.00000000       0.00000000       0.00000000     2600        2        0        0        0
S       56.33838245      49.63751118      20.50338906      32.06000001       0.00000000       0.00000000       0.00000000     2601        2        0        0        0
S       56.31215651      49.64540355      17.34445666      32.06000001       0.00000000       0.00000000       0.00000000     2602        2        0        0        0
S       59.06499395      47.99916783      20.47953890      32.06000001       0.00000000       0.00000000       0.00000000     2603        2        0        0        0
S       59.04510073      48.00517670      17.32096957      32.06000001       0.00000000       0.00000000       0.00000000     2604        2        0        0        0
S       61.79479645      46.36493380      20.46215585      32.06000001       0.00000000       0.00000000       0.00000000     2605        2        0        0        0
S       61.78075224      46.36969981      17.30388278      32.06000001       0.00000000       0.00000000       0.00000000     2606        2        0        0        0
S       64.52662292      44.73248982      20.45023581      32.06000001       0.00000000       0.00000000       0.00000000     2607        2        0        0        0
S       64.51769728      44.73654168      17.29219268      32.06000001       0.00000000       0.00000000       0.00000000     2608        2        0        0        0
S       67.25896637      43.09957286      20.44297038      32.06000001       0.00000000       0.00000000       0.00000000     2609        2        0        0        0
S       67.25467027      43.10299515      17.28508315      32.06000001       0.00000000       0.00000000       0.00000000     2610        2        0        0        0
S       69.99015193      41.46392629      20.44018566      32.06000001       0.00000000       0.00000000       0.00000000     2611        2        0        0        0
S       69.99042432      41.46626381      17.28236154      32.06000001       0.00000000       0.00000000       0.00000000     2612        2        0        0        0
S       72.71861691      39.82323441      20.44227029      32.06000001       0.00000000       0.00000000       0.00000000     2613        2        0        0        0
S       72.72351715      39.82372728      17.28439906      32.06000001       0.00000000       0.00000000       0.00000000     2614        2        0        0        0
S       75.44331153      38.17527234      20.44945971      32.06000001       0.00000000       0.00000000       0.00000000     2615        2        0        0        0
S       75.45226639      38.17338692      17.29143174      32.06000001       0.00000000       0.00000000       0.00000000     2616        2        0        0        0
S       78.16406408      36.51842562      20.46078912      32.06000001       0.00000000       0.00000000       0.00000000     2617        2        0        0        0
S       78.17517312      36.51441462      17.30251717      32.06000001       0.00000000       0.00000000       0.00000000     2618        2        0        0        0
S       80.88167483      34.85244459      20.47349779      32.06000001       0.00000000       0.00000000       0.00000000     2619        2        0        0        0
S       80.89172503      34.84753693      17.31494157      32.06000001       0.00000000       0.00000000       0.00000000     2620        2        0        0        0
S       83.59764208      33.17899602      20.48350726      32.06000001       0.00000000       0.00000000       0.00000000     2621        2        0        0        0
S       83.60304615      33.17502871      17.32470148      32.06000001       0.00000000       0.00000000       0.00000000     2622        2        0        0        0
S       86.31360231      31.50164307      20.48695476      32.06000001       0.00000000       0.00000000       0.00000000     2623        2        0        0        0
S       86.31197037      31.50027272      17.32798499      32.06000001       0.00000000       0.00000000       0.00000000     2624        2        0        0        0
S       45.57575549      59.45539425      20.65645344      32.06000001       0.00000000       0.00000000       0.00000000     2625        2        0        0        0
S       45.54171006      59.45452488      17.49625044      32.06000001       0.00000000       0.00000000       0.00000000     2626        2        0        0        0
S       48.28779815      57.78076375      20.62161729      32.06000001       0.00000000       0.00000000       0.00000000     2627        2        0        0        0
S       48.25009482      57.78414777      17.46150864      32.06000001       0.00000000       0.00000000       0.00000000     2628        2        0        0        0
S       51.00010962      56.11526524      20.58350032      32.06000001       0.00000000       0.00000000       0.00000000     2629        2        0        0        0
S       50.96294229      56.12148897      17.42360856      32.06000001       0.00000000       0.00000000       0.00000000     2630        2        0        0        0
S       53.71374232      54.45962269      20.54682308      32.06000001       0.00000000       0.00000000       0.00000000     2631        2        0        0        0
S       53.68070623      54.46724042      17.38728415      32.06000001       0.00000000       0.00000000       0.00000000     2632        2        0        0        0
S       56.42990806      52.81333019      20.51511442      32.06000001       0.00000000       0.00000000       0.00000000     2633        2        0        0        0
S       56.40313330      52.82132962      17.35597614      32.06000001       0.00000000       0.00000000       0.00000000     2634        2        0        0        0
S       59.14930702      51.17476406      20.48998821      32.06000001       0.00000000       0.00000000       0.00000000     2635        2        0        0        0
S       59.12937067      51.18274094      17.33122019      32.06000001       0.00000000       0.00000000       0.00000000     2636        2        0        0        0
S       61.87192634      49.54164913      20.47140481      32.06000001       0.00000000       0.00000000       0.00000000     2637        2        0        0        0
S       61.85827109      49.54961821      17.31294554      32.06000001       0.00000000       0.00000000       0.00000000     2638        2        0        0        0
S       64.59714019      47.91149705      20.45839558      32.06000001       0.00000000       0.00000000       0.00000000     2639        2        0        0        0
S       64.58869788      47.91956297      17.30017962      32.06000001       0.00000000       0.00000000       0.00000000     2640        2        0        0        0
S       67.32384841      46.28184748      20.44984911      32.06000001       0.00000000       0.00000000       0.00000000     2641        2        0        0        0
S       67.31966563      46.28990703      17.29181152      32.06000001       0.00000000       0.00000000       0.00000000     2642        2        0        0        0
S       70.05061649      44.65031611      20.44515317      32.06000001       0.00000000       0.00000000       0.00000000     2643        2        0        0        0
S       70.05028300      44.65787559      17.28722058      32.06000001       0.00000000       0.00000000       0.00000000     2644        2        0        0        0
S       72.77589669      43.01453599      20.44446648      32.06000001       0.00000000       0.00000000       0.00000000     2645        2        0        0        0
S       72.77953852      43.02075338      17.28654841      32.06000001       0.00000000       0.00000000       0.00000000     2646        2        0        0        0
S       75.49838999      41.37217652      20.44836671      32.06000001       0.00000000       0.00000000       0.00000000     2647        2        0        0        0
S       75.50609176      41.37621429      17.29036164      32.06000001       0.00000000       0.00000000       0.00000000     2648        2        0        0        0
S       78.21747777      39.72125696      20.45688010      32.06000001       0.00000000       0.00000000       0.00000000     2649        2        0        0        0
S       78.22839164      39.72283743      17.29869310      32.06000001       0.00000000       0.00000000       0.00000000     2650        2        0        0        0
S       80.93349357      38.06079476      20.46846707      32.06000001       0.00000000       0.00000000       0.00000000     2651        2        0        0        0
S       80.94530633      38.06061292      17.31002917      32.06000001       0.00000000       0.00000000       0.00000000     2652        2        0        0        0
S       83.64765492      36.39149781      20.47980484      32.06000001       0.00000000       0.00000000       0.00000000     2653        2        0        0        0
S       83.65694777      36.39114006      17.32110574      32.06000001       0.00000000       0.00000000       0.00000000     2654        2        0        0        0
S       86.36162259      34.71605948      20.48674744      32.06000001       0.00000000       0.00000000       0.00000000     2655        2        0        0        0
S       86.36514589      34.71739107      17.32784286      32.06000001       0.00000000       0.00000000       0.00000000     2656        2        0        0        0
S       51.10495253      59.29974419      20.58847750      32.06000001       0.00000000       0.00000000       0.00000000     2657        2        0        0        0
S       51.06791529      59.29732023      17.42836641      32.06000001       0.00000000       0.00000000       0.00000000     2658        2        0        0        0
S       53.81569586      57.64206912      20.55482673      32.06000001       0.00000000       0.00000000       0.00000000     2659        2        0        0        0
S       53.78278854      57.64331852      17.39507674      32.06000001       0.00000000       0.00000000       0.00000000     2660        2        0        0        0
S       56.52758271      55.99410111      20.52492093      32.06000001       0.00000000       0.00000000       0.00000000     2661        2        0        0        0
S       56.50114305      55.99825276      17.36557120      32.06000001       0.00000000       0.00000000       0.00000000     2662        2        0        0        0
S       59.24162642      54.35466834      20.50073154      32.06000001       0.00000000       0.00000000       0.00000000     2663        2        0        0        0
S       59.22233815      54.36109697      17.34173942      32.06000001       0.00000000       0.00000000       0.00000000     2664        2        0        0        0
S       61.95828932      52.72173702      20.48258556      32.06000001       0.00000000       0.00000000       0.00000000     2665        2        0        0        0
S       61.94556592      52.73001970      17.32388954      32.06000001       0.00000000       0.00000000       0.00000000     2666        2        0        0        0
S       64.67743273      51.09282642      20.46968969      32.06000001       0.00000000       0.00000000       0.00000000     2667        2        0        0        0
S       64.67001913      51.10266138      17.31123133      32.06000001       0.00000000       0.00000000       0.00000000     2668        2        0        0        0
S       67.39840028      49.46536861      20.46084852      32.06000001       0.00000000       0.00000000       0.00000000     2669        2        0        0        0
S       67.39501958      49.47641007      17.30257399      32.06000001       0.00000000       0.00000000       0.00000000     2670        2        0        0        0
S       70.12012546      47.83687429      20.45515961      32.06000001       0.00000000       0.00000000       0.00000000     2671        2        0        0        0
S       70.12002205      47.84855030      17.29701434      32.06000001       0.00000000       0.00000000       0.00000000     2672        2        0        0        0
S       72.84128537      46.20493420      20.45249800      32.06000001       0.00000000       0.00000000       0.00000000     2673        2        0        0        0
S       72.84445536      46.21635511      17.29441543      32.06000001       0.00000000       0.00000000       0.00000000     2674        2        0        0        0
S       75.56058171      44.56719085      20.45351267      32.06000001       0.00000000       0.00000000       0.00000000     2675        2        0        0        0
S       75.56746346      44.57729875      17.29540936      32.06000001       0.00000000       0.00000000       0.00000000     2676        2        0        0        0
S       78.27715227      42.92147791      20.45893080      32.06000001       0.00000000       0.00000000       0.00000000     2677        2        0        0        0
S       78.28777678      42.92948682      17.30071527      32.06000001       0.00000000       0.00000000       0.00000000     2678        2        0        0        0
S       80.99094391      41.26628578      20.46841201      32.06000001       0.00000000       0.00000000       0.00000000     2679        2        0        0        0
S       81.00403740      41.27221471      17.31000157      32.06000001       0.00000000       0.00000000       0.00000000     2680        2        0        0        0
S       83.70282821      39.60145819      20.47974168      32.06000001       0.00000000       0.00000000       0.00000000     2681        2        0        0        0
S       83.71557478      39.60635862      17.32108754      32.06000001       0.00000000       0.00000000       0.00000000     2682        2        0        0        0
S       86.41434474      37.92872381      20.48909357      32.06000001       0.00000000       0.00000000       0.00000000     2683        2        0        0        0
S       86.42315956      37.93434731      17.33021206      32.06000001       0.00000000       0.00000000       0.00000000     2684        2        0        0        0
S       89.12713027      36.25168123      20.49249372      32.06000001       0.00000000       0.00000000       0.00000000     2685        2        0        0        0
S       89.12926621      36.25965551      17.33344703      32.06000001       0.00000000       0.00000000       0.00000000     2686        2        0        0        0
S       56.62762286      59.17933123      20.52861503      32.06000001       0.00000000       0.00000000       0.00000000     2687        2        0        0        0
S       56.60197099      59.17612199      17.36907123      32.06000001       0.00000000       0.00000000       0.00000000     2688        2        0        0        0
S       59.33878050      57.53895902      20.50758493      32.06000001       0.00000000       0.00000000       0.00000000     2689        2        0        0        0
S       59.32054263      57.53985225      17.34839215      32.06000001       0.00000000       0.00000000       0.00000000     2690        2        0        0        0
S       62.05161853      55.90567629      20.49190298      32.06000001       0.00000000       0.00000000       0.00000000     2691        2        0        0        0
S       62.04015796      55.91028881      17.33298270      32.06000001       0.00000000       0.00000000       0.00000000     2692        2        0        0        0
S       64.76627585      54.27718392      20.48087155      32.06000001       0.00000000       0.00000000       0.00000000     2693        2        0        0        0
S       64.76023499      54.28507771      17.32215765      32.06000001       0.00000000       0.00000000       0.00000000     2694        2        0        0        0
S       67.48244081      52.65094568      20.47331363      32.06000001       0.00000000       0.00000000       0.00000000     2695        2        0        0        0
S       67.48036797      52.66165851      17.31476044      32.06000001       0.00000000       0.00000000       0.00000000     2696        2        0        0        0
S       70.19941751      51.02442834      20.46817673      32.06000001       0.00000000       0.00000000       0.00000000     2697        2        0        0        0
S       70.20030468      51.03739329      17.30975046      32.06000001       0.00000000       0.00000000       0.00000000     2698        2        0        0        0
S       72.91621658      49.39519372      20.46506400      32.06000001       0.00000000       0.00000000       0.00000000     2699        2        0        0        0
S       72.91984600      49.40959653      17.30672518      32.06000001       0.00000000       0.00000000       0.00000000     2700        2        0        0        0
S       75.63174551      47.76089422      20.46447755      32.06000001       0.00000000       0.00000000       0.00000000     2701        2        0        0        0
S       75.63862353      47.77563611      17.30616724      32.06000001       0.00000000       0.00000000       0.00000000     2702        2        0        0        0
S       78.34513437      46.11931872      20.46747471      32.06000001       0.00000000       0.00000000       0.00000000     2703        2        0        0        0
S       78.35585389      46.13326083      17.30911478      32.06000001       0.00000000       0.00000000       0.00000000     2704        2        0        0        0
S       81.05611479      44.46866831      20.47467178      32.06000001       0.00000000       0.00000000       0.00000000     2705        2        0        0        0
S       81.07036283      44.48113892      17.31617847      32.06000001       0.00000000       0.00000000       0.00000000     2706        2        0        0        0
S       83.76526137      42.80812753      20.48510363      32.06000001       0.00000000       0.00000000       0.00000000     2707        2        0        0        0
S       83.78110639      42.81939829      17.32640569      32.06000001       0.00000000       0.00000000       0.00000000     2708        2        0        0        0
S       86.47391869      41.13850022      20.49579454      32.06000001       0.00000000       0.00000000       0.00000000     2709        2        0        0        0
S       86.48798182      41.14983178      17.33686833      32.06000001       0.00000000       0.00000000       0.00000000     2710        2        0        0        0
S       89.18374524      39.46250304      20.50256695      32.06000001       0.00000000       0.00000000       0.00000000     2711        2        0        0        0
S       89.19244044      39.47559502      17.34344146      32.06000001       0.00000000       0.00000000       0.00000000     2712        2        0        0        0
S       62.14799632      59.09308140      20.49533940      32.06000001       0.00000000       0.00000000       0.00000000     2713        2        0        0        0
S       62.13782277      59.09075909      17.33625206      32.06000001       0.00000000       0.00000000       0.00000000     2714        2        0        0        0
S       64.86051001      57.46466583      20.48780147      32.06000001       0.00000000       0.00000000       0.00000000     2715        2        0        0        0
S       64.85588187      57.46683719      17.32888371      32.06000001       0.00000000       0.00000000       0.00000000     2716        2        0        0        0
S       67.57377800      55.83904309      20.48322801      32.06000001       0.00000000       0.00000000       0.00000000     2717        2        0        0        0
S       67.57320110      55.84542411      17.32442786      32.06000001       0.00000000       0.00000000       0.00000000     2718        2        0        0        0
S       70.28733840      54.21371412      20.48048924      32.06000001       0.00000000       0.00000000       0.00000000     2719        2        0        0        0
S       70.28969540      54.22395239      17.32177984      32.06000001       0.00000000       0.00000000       0.00000000     2720        2        0        0        0
S       73.00051215      52.58623415      20.47896133      32.06000001       0.00000000       0.00000000       0.00000000     2721        2        0        0        0
S       73.00540047      52.59980635      17.32032582      32.06000001       0.00000000       0.00000000       0.00000000     2722        2        0        0        0
S       75.71250154      50.95427099      20.47885790      32.06000001       0.00000000       0.00000000       0.00000000     2723        2        0        0        0
S       75.72031301      50.97032956      17.32026715      32.06000001       0.00000000       0.00000000       0.00000000     2724        2        0        0        0
S       78.42260677      49.31564145      20.48118477      32.06000001       0.00000000       0.00000000       0.00000000     2725        2        0        0        0
S       78.43414473      49.33302875      17.32258599      32.06000001       0.00000000       0.00000000       0.00000000     2726        2        0        0        0
S       81.13053900      47.66845934      20.48707162      32.06000001       0.00000000       0.00000000       0.00000000     2727        2        0        0        0
S       81.14616155      47.68604334      17.32839209      32.06000001       0.00000000       0.00000000       0.00000000     2728        2        0        0        0
S       83.83670028      46.01152470      20.49663310      32.06000001       0.00000000       0.00000000       0.00000000     2729        2        0        0        0
S       83.85538870      46.02875726      17.33779507      32.06000001       0.00000000       0.00000000       0.00000000     2730        2        0        0        0
S       86.54225425      44.34491033      20.50804642      32.06000001       0.00000000       0.00000000       0.00000000     2731        2        0        0        0
S       86.56124700      44.36223505      17.34899814      32.06000001       0.00000000       0.00000000       0.00000000     2732        2        0        0        0
S       89.24882955      42.67043812      20.51761098      32.06000001       0.00000000       0.00000000       0.00000000     2733        2        0        0        0
S       89.26429823      42.68917668      17.35834980      32.06000001       0.00000000       0.00000000       0.00000000     2734        2        0        0        0
S       91.95792275      40.99165480      20.52114827      32.06000001       0.00000000       0.00000000       0.00000000     2735        2        0        0        0
S       91.96665908      41.01322629      17.36169919      32.06000001       0.00000000       0.00000000       0.00000000     2736        2        0        0        0
S       67.66850168      59.02930400      20.48672504      32.06000001       0.00000000       0.00000000       0.00000000     2737        2        0        0        0
S       67.66919630      59.02841081      17.32776014      32.06000001       0.00000000       0.00000000       0.00000000     2738        2        0        0        0
S       70.38080630      57.40483642      20.48779387      32.06000001       0.00000000       0.00000000       0.00000000     2739        2        0        0        0
S       70.38465771      57.40862142      17.32887130      32.06000001       0.00000000       0.00000000       0.00000000     2740        2        0        0        0
S       73.09204415      55.77858217      20.48974945      32.06000001       0.00000000       0.00000000       0.00000000     2741        2        0        0        0
S       73.09860167      55.78706211      17.33085630      32.06000001       0.00000000       0.00000000       0.00000000     2742        2        0        0        0
S       75.80166829      54.14819496      20.49246545      32.06000001       0.00000000       0.00000000       0.00000000     2743        2        0        0        0
S       75.81116888      54.16111240      17.33358899      32.06000001       0.00000000       0.00000000       0.00000000     2744        2        0        0        0
S       78.50922044      52.51151841      20.49659325      32.06000001       0.00000000       0.00000000       0.00000000     2745        2        0        0        0
S       78.52239758      52.52814934      17.33770845      32.06000001       0.00000000       0.00000000       0.00000000     2746        2        0        0        0
S       81.21453254      50.86669194      20.50324576      32.06000001       0.00000000       0.00000000       0.00000000     2747        2        0        0        0
S       81.23201617      50.88591646      17.34430606      32.06000001       0.00000000       0.00000000       0.00000000     2748        2        0        0        0
S       83.91796536      49.21238643      20.51313680      32.06000001       0.00000000       0.00000000       0.00000000     2749        2        0        0        0
S       83.93940941      49.23312062      17.35407673      32.06000001       0.00000000       0.00000000       0.00000000     2750        2        0        0        0
S       86.62056322      47.54823469      20.52551615      32.06000001       0.00000000       0.00000000       0.00000000     2751        2        0        0        0
S       86.64395774      47.57003189      17.36627612      32.06000001       0.00000000       0.00000000       0.00000000     2752        2        0        0        0
S       89.32391307      45.87533243      20.53761206      32.06000001       0.00000000       0.00000000       0.00000000     2753        2        0        0        0
S       89.34569097      45.89873370      17.37816908      32.06000001       0.00000000       0.00000000       0.00000000     2754        2        0        0        0
S       92.02961038      44.19645550      20.54527049      32.06000001       0.00000000       0.00000000       0.00000000     2755        2        0        0        0
S       92.04589961      44.22269564      17.38561747      32.06000001       0.00000000       0.00000000       0.00000000     2756        2        0        0        0
S       73.18703614      58.97188222      20.49338180      32.06000001       0.00000000       0.00000000       0.00000000     2757        2        0        0        0
S       73.19508921      58.97235123      17.33432229      32.06000001       0.00000000       0.00000000       0.00000000     2758        2        0        0        0
S       75.89625722      57.34285196      20.50059504      32.06000001       0.00000000       0.00000000       0.00000000     2759        2        0        0        0
S       75.90771057      57.34862404      17.34150006      32.06000001       0.00000000       0.00000000       0.00000000     2760        2        0        0        0
S       78.60281298      55.70763743      20.50889156      32.06000001       0.00000000       0.00000000       0.00000000     2761        2        0        0        0
S       78.61822448      55.71885484      17.34974841      32.06000001       0.00000000       0.00000000       0.00000000     2762        2        0        0        0
S       81.30671473      54.06438712      20.51890624      32.06000001       0.00000000       0.00000000       0.00000000     2763        2        0        0        0
S       81.32661875      54.08053889      17.35969377      32.06000001       0.00000000       0.00000000       0.00000000     2764        2        0        0        0
S       84.00838036      52.41179330      20.53129287      32.06000001       0.00000000       0.00000000       0.00000000     2765        2        0        0        0
S       84.03267519      52.43183974      17.37197304      32.06000001       0.00000000       0.00000000       0.00000000     2766        2        0        0        0
S       86.70878660      50.74933952      20.54588745      32.06000001       0.00000000       0.00000000       0.00000000     2767        2        0        0        0
S       86.73603235      50.77224808      17.38642031      32.06000001       0.00000000       0.00000000       0.00000000     2768        2        0        0        0
S       89.40946872      49.07768236      20.56087188      32.06000001       0.00000000       0.00000000       0.00000000     2769        2        0        0        0
S       89.43659029      49.10308912      17.40123885      32.06000001       0.00000000       0.00000000       0.00000000     2770        2        0        0        0
S       92.11210345      47.39896087      20.57269744      32.06000001       0.00000000       0.00000000       0.00000000     2771        2        0        0        0
S       92.13511276      47.42744465      17.41287457      32.06000001       0.00000000       0.00000000       0.00000000     2772        2        0        0        0
S       94.81794031      45.71660336      20.57735256      32.06000001       0.00000000       0.00000000       0.00000000     2773        2        0        0        0
S       94.83357352      45.74911636      17.41731110      32.06000001       0.00000000       0.00000000       0.00000000     2774        2        0        0        0
S       78.69975992      58.90374939      20.51362526      32.06000001       0.00000000       0.00000000       0.00000000     2775        2        0        0        0
S       78.71743101      58.90629321      17.35429850      32.06000001       0.00000000       0.00000000       0.00000000     2776        2        0        0        0
S       81.40408776      57.26192295      20.52909115      32.06000001       0.00000000       0.00000000       0.00000000     2777        2        0        0        0
S       81.42670430      57.27063830      17.36965008      32.06000001       0.00000000       0.00000000       0.00000000     2778        2        0        0        0
S       84.10559912      55.61058040      20.54637546      32.06000001       0.00000000       0.00000000       0.00000000     2779        2        0        0        0
S       84.13287132      55.62518078      17.38681544      32.06000001       0.00000000       0.00000000       0.00000000     2780        2        0        0        0
S       86.80524533      53.94922488      20.56514401      32.06000001       0.00000000       0.00000000       0.00000000     2781        2        0        0        0
S       86.83588966      53.96875065      17.40546382      32.06000001       0.00000000       0.00000000       0.00000000     2782        2        0        0        0
S       89.50447047      52.27836984      20.58407915      32.06000001       0.00000000       0.00000000       0.00000000     2783        2        0        0        0
S       89.53581162      52.30185626      17.42429563      32.06000001       0.00000000       0.00000000       0.00000000     2784        2        0        0        0
S       92.20496229      50.59977625      20.60038179      32.06000001       0.00000000       0.00000000       0.00000000     2785        2        0        0        0
S       92.23321659      50.62697160      17.44048016      32.06000001       0.00000000       0.00000000       0.00000000     2786        2        0        0        0
S       94.90810273      48.91637847      20.61030496      32.06000001       0.00000000       0.00000000       0.00000000     2787        2        0        0        0
S       94.92962549      48.94780391      17.45021382      32.06000001       0.00000000       0.00000000       0.00000000     2788        2        0        0        0
S       84.20604147      58.80870621      20.55378424      32.06000001       0.00000000       0.00000000       0.00000000     2789        2        0        0        0
S       84.23616110      58.81426962      17.39401731      32.06000001       0.00000000       0.00000000       0.00000000     2790        2        0        0        0
S       86.90680639      57.14838437      20.57861009      32.06000001       0.00000000       0.00000000       0.00000000     2791        2        0        0        0
S       86.94042896      57.16025305      17.41872949      32.06000001       0.00000000       0.00000000       0.00000000     2792        2        0        0        0
S       89.60632348      55.47813536      20.60296357      32.06000001       0.00000000       0.00000000       0.00000000     2793        2        0        0        0
S       89.64085174      55.49545276      17.44304678      32.06000001       0.00000000       0.00000000       0.00000000     2794        2        0        0        0
S       92.30617198      53.79959965      20.62443281      32.06000001       0.00000000       0.00000000       0.00000000     2795        2        0        0        0
S       92.33806938      53.82158402      17.46450406      32.06000001       0.00000000       0.00000000       0.00000000     2796        2        0        0        0
S       95.00777706      52.11543151      20.63979770      32.06000001       0.00000000       0.00000000       0.00000000     2797        2        0        0        0
S       95.03340812      52.14197552      17.47976830      32.06000001       0.00000000       0.00000000       0.00000000     2798        2        0        0        0
S       97.71213111      50.42880509      20.64596841      32.06000001       0.00000000       0.00000000       0.00000000     2799        2        0        0        0
S       97.72893422      50.46023789      17.48575564      32.06000001       0.00000000       0.00000000       0.00000000     2800        2        0        0        0
S       89.71138236      58.67698418      20.61350854      32.06000001       0.00000000       0.00000000       0.00000000     2801        2        0        0        0
S       89.74826761      58.68487479      17.45341253      32.06000001       0.00000000       0.00000000       0.00000000     2802        2        0        0        0
S       92.41242552      56.99869783      20.64099980      32.06000001       0.00000000       0.00000000       0.00000000     2803        2        0        0        0
S       92.44665123      57.01210183      17.48097757      32.06000001       0.00000000       0.00000000       0.00000000     2804        2        0        0        0
S       95.11408465      55.31401075      20.66212199      32.06000001       0.00000000       0.00000000       0.00000000     2805        2        0        0        0
S       95.14218797      55.33246527      17.50210620      32.06000001       0.00000000       0.00000000       0.00000000     2806        2        0        0        0
S       97.81742437      53.62592335      20.67411944      32.06000001       0.00000000       0.00000000       0.00000000     2807        2        0        0        0
S       97.83676480      53.64940059      17.51399609      32.06000001       0.00000000       0.00000000       0.00000000     2808        2        0        0        0
S       95.22343145      58.51187774      20.67452145      32.06000001       0.00000000       0.00000000       0.00000000     2809        2        0        0        0
S       95.25292104      58.52010157      17.51441068      32.06000001       0.00000000       0.00000000       0.00000000     2810        2        0        0        0
S       97.92730138      56.82280198      20.69245574      32.06000001       0.00000000       0.00000000       0.00000000     2811        2        0        0        0
S       97.94806384      56.83622723      17.53232222      32.06000001       0.00000000       0.00000000       0.00000000     2812        2        0        0        0
S      100.74441765      58.32704757      20.71234925      32.06000001       0.00000000       0.00000000       0.00000000     2813        2        0        0        0
S      100.75591179      58.33454273      17.55212462      32.06000001       0.00000000       0.00000000       0.00000000     2814        2        0        0        0
