1986
Lattice="58.01156218949098 0.0 0.0 29.005781094745466 50.239486569319986 0.0 0.0 0.0 30.0" Properties=species:S:1:pos:R:3:masses:R:1:momenta:R:3:id:I:1:type:I:1:travel:I:3 comment="LAMMPS data file via write_data, version 28 Mar 2023, timestep = 184, units = metal" pbc="T T T"
Mo      58.89640279       1.61950938      12.67836128      95.95000002       0.00000000       0.00000000       0.00000000        1        1       -1        0        0
Mo       3.68056331       0.07849686      12.67469864      95.95000002       0.00000000       0.00000000       0.00000000        2        1        0        0        0
Mo       3.61647278       3.26266487      12.67122763      95.95000002       0.00000000       0.00000000       0.00000000        3        1        0        0        0
Mo       6.41875076       1.72412495      12.66230158      95.95000002       0.00000000       0.00000000       0.00000000        4        1        0        0        0
Mo       9.22501953       0.19673556      12.64430921      95.95000002       0.00000000       0.00000000       0.00000000        5        1        0        0        0
Mo      61.55367072       6.44814700      12.65767704      95.95000002       0.00000000       0.00000000       0.00000000        6        1       -1        0        0
Mo       6.34785011       4.90427413      12.65341783      95.95000002       0.00000000       0.00000000       0.00000000        7        1        0        0        0
Mo       9.15596483       3.37087575      12.63916195      95.95000002       0.00000000       0.00000000       0.00000000        8        1        0        0        0
Mo      11.96726064       1.84977758      12.61780610      95.95000002       0.00000000       0.00000000       0.00000000        9        1        0        0        0
Mo      14.78165613       0.34020438      12.59536203      95.95000002       0.00000000       0.00000000       0.00000000       10        1        0        0        0
Mo       6.26543637       8.08677399      12.63558322      95.95000002       0.00000000       0.00000000       0.00000000       11        1        0        0        0
Mo       9.07645057       6.54858984      12.62448232      95.95000002       0.00000000       0.00000000       0.00000000       12        1        0        0        0
Mo      11.88938386       5.02248517      12.60489677      95.95000002       0.00000000       0.00000000       0.00000000       13        1        0        0        0
Mo      14.70462449       3.50872889      12.58136411      95.95000002       0.00000000       0.00000000       0.00000000       14        1        0        0        0
Mo      17.52171097       2.00508519      12.56067251      95.95000002       0.00000000       0.00000000       0.00000000       15        1        0        0        0
Mo      20.33910909       0.50740273      12.54917169      95.95000002       0.00000000       0.00000000       0.00000000       16        1        0        0        0
Mo      64.18250515      11.27109357      12.61341687      95.95000002       0.00000000       0.00000000       0.00000000       17        1       -1        0        0
Mo       8.98510234       9.72945912      12.60319223      95.95000002       0.00000000       0.00000000       0.00000000       18        1        0        0        0
Mo      11.80017854       8.19935049      12.58446855      95.95000002       0.00000000       0.00000000       0.00000000       19        1        0        0        0
Mo      14.61671354       6.68180344      12.56024920      95.95000002       0.00000000       0.00000000       0.00000000       20        1        0        0        0
Mo      17.43473223       5.17553333      12.53629452      95.95000002       0.00000000       0.00000000       0.00000000       21        1        0        0        0
Mo      20.25340946       3.67726256      12.51921744      95.95000002       0.00000000       0.00000000       0.00000000       22        1        0        0        0
Mo      23.07090314       2.18262096      12.51374498      95.95000002       0.00000000       0.00000000       0.00000000       23        1        0        0        0
Mo      25.88460432       0.68718367      12.52061162      95.95000002       0.00000000       0.00000000       0.00000000       24        1        0        0        0
Mo       8.88292419      12.91288591      12.58151094      95.95000002       0.00000000       0.00000000       0.00000000       25        1        0        0        0
Mo      11.69984402      11.37986714      12.56130991      95.95000002       0.00000000       0.00000000       0.00000000       26        1        0        0        0
Mo      14.51766211       9.85924903      12.53540727      95.95000002       0.00000000       0.00000000       0.00000000       27        1        0        0        0
Mo      17.33659893       8.35046852      12.50840645      95.95000002       0.00000000       0.00000000       0.00000000       28        1        0        0        0
Mo      20.15633057       6.85103664      12.48640288      95.95000002       0.00000000       0.00000000       0.00000000       29        1        0        0       -1
Mo      22.97566471       5.35722957      12.47481889      95.95000002       0.00000000       0.00000000       0.00000000       30        1        0        0       -1
Mo      25.79256641       3.86500126      12.47631948      95.95000002       0.00000000       0.00000000       0.00000000       31        1        0        0       -1
Mo      28.60449413       2.37067197      12.48992408      95.95000002       0.00000000       0.00000000       0.00000000       32        1        0        0       -1
Mo      31.40895825       0.87134563      12.51164586      95.95000002       0.00000000       0.00000000       0.00000000       33        1        0        0        0
Mo      66.78497364      16.09835035      12.56679455      95.95000002       0.00000000       0.00000000       0.00000000       34        1       -1        0        0
Mo      11.59085360      14.56335146      12.54249837      95.95000002       0.00000000       0.00000000       0.00000000       35        1        0        0        0
Mo      14.40921761      13.04045261      12.51295305      95.95000002       0.00000000       0.00000000       0.00000000       36        1        0        0        0
Mo      17.22863301      11.52955647      12.48206558      95.95000002       0.00000000       0.00000000       0.00000000       37        1        0        0       -1
Mo      20.04900293      10.02878220      12.45523903      95.95000002       0.00000000       0.00000000       0.00000000       38        1        0        0       -1
Mo      22.86960190       8.53500074      12.43778291      95.95000002       0.00000000       0.00000000       0.00000000       39        1        0        0       -1
Mo      25.68894324       7.04461079      12.43324209      95.95000002       0.00000000       0.00000000       0.00000000       40        1        0        0       -1
Mo      28.50495109       5.55413862      12.44249344      95.95000002       0.00000000       0.00000000       0.00000000       41        1        0        0       -1
Mo      31.31527400       4.06056635      12.46365654      95.95000002       0.00000000       0.00000000       0.00000000       42        1        0        0       -1
Mo      34.11777804       2.56152582      12.49270197      95.95000002       0.00000000       0.00000000       0.00000000       43        1        0        0       -1
Mo      36.91119562       1.05549199      12.52475933      95.95000002       0.00000000       0.00000000       0.00000000       44        1        0        0        0
Mo      11.47758836      17.74921481      12.53438996      95.95000002       0.00000000       0.00000000       0.00000000       45        1        0        0        0
Mo      14.29490800      16.22464222      12.49956073      95.95000002       0.00000000       0.00000000       0.00000000       46        1        0        0       -1
Mo      17.11375417      14.71205927      12.46346374      95.95000002       0.00000000       0.00000000       0.00000000       47        1        0        0       -1
Mo      19.93398629      13.20998542      12.43122842      95.95000002       0.00000000       0.00000000       0.00000000       48        1        0        0       -1
Mo      22.75509035      11.71575694      12.40785506      95.95000002       0.00000000       0.00000000       0.00000000       49        1        0        0       -1
Mo      25.57597113      10.22619942      12.39701098      95.95000002       0.00000000       0.00000000       0.00000000       50        1        0        0       -1
Mo      28.39499282       8.73811343      12.40049718      95.95000002       0.00000000       0.00000000       0.00000000       51        1        0        0       -1
Mo      31.21016783       7.24854058      12.41814869      95.95000002       0.00000000       0.00000000       0.00000000       52        1        0        0       -1
Mo      34.01942323       5.75492219      12.44778214      95.95000002       0.00000000       0.00000000       0.00000000       53        1        0        0       -1
Mo      36.82101257       4.25515853      12.48536768      95.95000002       0.00000000       0.00000000       0.00000000       54        1        0        0       -1
Mo      39.61407259       2.74771477      12.52584421      95.95000002       0.00000000       0.00000000       0.00000000       55        1        0        0        0
Mo      42.39893533       1.23188424      12.56433784      95.95000002       0.00000000       0.00000000       0.00000000       56        1        0        0        0
Mo      69.37697733      20.93732784      12.53943540      95.95000002       0.00000000       0.00000000       0.00000000       57        1       -1        0        0
Mo      14.17931740      19.41132294      12.49946648      95.95000002       0.00000000       0.00000000       0.00000000       58        1        0        0       -1
Mo      16.99582587      17.89726603      12.45755543      95.95000002       0.00000000       0.00000000       0.00000000       59        1        0        0       -1
Mo      19.81462867      16.39393386      12.41919850      95.95000002       0.00000000       0.00000000       0.00000000       60        1        0        0       -1
Mo      22.63516972      14.89896314      12.38948707      95.95000002       0.00000000       0.00000000       0.00000000       61        1        0        0       -1
Mo      25.45652506      13.40952407      12.37205604      95.95000002       0.00000000       0.00000000       0.00000000       62        1        0        0       -1
Mo      28.27736338      11.92270292      12.36898468      95.95000002       0.00000000       0.00000000       0.00000000       63        1        0        0       -1
Mo      31.09602117      10.43566402      12.38101598      95.95000002       0.00000000       0.00000000       0.00000000       64        1        0        0       -1
Mo      33.91069156       8.94580045      12.40750108      95.95000002       0.00000000       0.00000000       0.00000000       65        1        0        0       -1
Mo      36.71962902       7.45079244      12.44600898      95.95000002       0.00000000       0.00000000       0.00000000       66        1        0        0       -1
Mo      39.52146635       5.94855827      12.49204435      95.95000002       0.00000000       0.00000000       0.00000000       67        1        0        0       -1
Mo      42.31569253       4.43743928      12.53970799      95.95000002       0.00000000       0.00000000       0.00000000       68        1        0        0        0
Mo      45.10290913       2.91677337      12.58330896      95.95000002       0.00000000       0.00000000       0.00000000       69        1        0        0        0
Mo      47.88477800       1.38740236      12.61894123      95.95000002       0.00000000       0.00000000       0.00000000       70        1        0        0        0
Mo      14.06733812      22.60069861      12.51248227      95.95000002       0.00000000       0.00000000       0.00000000       71        1        0        0        0
Mo      16.87910938      21.08499097      12.46610671      95.95000002       0.00000000       0.00000000       0.00000000       72        1        0        0       -1
Mo      19.69459234      19.58020598      12.42188189      95.95000002       0.00000000       0.00000000       0.00000000       73        1        0        0       -1
Mo      22.51308985      18.08417415      12.38557069      95.95000002       0.00000000       0.00000000       0.00000000       74        1        0        0       -1
Mo      25.33361211      16.59428235      12.36119266      95.95000002       0.00000000       0.00000000       0.00000000       75        1        0        0       -1
Mo      28.15494661      15.10785455      12.35102221      95.95000002       0.00000000       0.00000000       0.00000000       76        1        0        0       -1
Mo      30.97563355      13.62220572      12.35619474      95.95000002       0.00000000       0.00000000       0.00000000       77        1        0        0       -1
Mo      33.79407267      12.13472875      12.37689841      95.95000002       0.00000000       0.00000000       0.00000000       78        1        0        0       -1
Mo      36.60870072      10.64299128      12.41204577      95.95000002       0.00000000       0.00000000       0.00000000       79        1        0        0       -1
Mo      39.41810968       9.14468042      12.45850807      95.95000002       0.00000000       0.00000000       0.00000000       80        1        0        0       -1
Mo      42.22130426       7.63760336      12.51069372      95.95000002       0.00000000       0.00000000       0.00000000       81        1        0        0        0
Mo      45.01811366       6.12021653      12.56175508      95.95000002       0.00000000       0.00000000       0.00000000       82        1        0        0        0
Mo      47.80928508       4.59246439      12.60588881      95.95000002       0.00000000       0.00000000       0.00000000       83        1        0        0        0
Mo      50.59634924       3.05606864      12.63981755      95.95000002       0.00000000       0.00000000       0.00000000       84        1        0        0        0
Mo      53.38147531       1.51413983      12.66270028      95.95000002       0.00000000       0.00000000       0.00000000       85        1        0        0        0
Mo      71.97491951      25.79367416      12.53414016      95.95000002       0.00000000       0.00000000       0.00000000       86        1       -1        0        0
Mo      16.76784728      24.27579012      12.48696792      95.95000002       0.00000000       0.00000000       0.00000000       87        1        0        0       -1
Mo      19.57765655      22.76895028      12.43916100      95.95000002       0.00000000       0.00000000       0.00000000       88        1        0        0       -1
Mo      22.39218894      21.27128647      12.39713613      95.95000002       0.00000000       0.00000000       0.00000000       89        1        0        0       -1
Mo      25.21029990      19.78031774      12.36586516      95.95000002       0.00000000       0.00000000       0.00000000       90        1        0        0       -1
Mo      28.03066982      18.29351441      12.34825448      95.95000002       0.00000000       0.00000000       0.00000000       91        1        0        0       -1
Mo      30.85188303      16.80832575      12.34582772      95.95000002       0.00000000       0.00000000       0.00000000       92        1        0        0       -1
Mo      33.67243170      15.32217369      12.35922901      95.95000002       0.00000000       0.00000000       0.00000000       93        1        0        0       -1
Mo      36.49085747      13.83253127      12.38811559      95.95000002       0.00000000       0.00000000       0.00000000       94        1        0        0       -1
Mo      39.30587387      12.33692687      12.43052814      95.95000002       0.00000000       0.00000000       0.00000000       95        1        0        0       -1
Mo      42.11643030      10.83290910      12.48199043      95.95000002       0.00000000       0.00000000       0.00000000       96        1        0        0       -1
Mo      44.92194394       9.31841304      12.53574430      95.95000002       0.00000000       0.00000000       0.00000000       97        1        0        0        0
Mo      47.72248113       7.79263866      12.58494475      95.95000002       0.00000000       0.00000000       0.00000000       98        1        0        0        0
Mo      50.51869232       6.25662929      12.62490674      95.95000002       0.00000000       0.00000000       0.00000000       99        1        0        0        0
Mo      53.31182045       4.71308887      12.65371322      95.95000002       0.00000000       0.00000000       0.00000000      100        1        0        0        0
Mo      56.10367574       3.16588523      12.67138126      95.95000002       0.00000000       0.00000000       0.00000000      101        1        0        0        0
Mo      16.66561676      27.47077044      12.51481920      95.95000002       0.00000000       0.00000000       0.00000000      102        1        0        0        0
Mo      19.46746699      25.96092391      12.46786496      95.95000002       0.00000000       0.00000000       0.00000000      103        1        0        0       -1
Mo      22.27582435      24.46063391      12.42304645      95.95000002       0.00000000       0.00000000       0.00000000      104        1        0        0       -1
Mo      25.08968133      22.96769097      12.38617386      95.95000002       0.00000000       0.00000000       0.00000000      105        1        0        0       -1
Mo      27.90751847      21.47965532      12.36136127      95.95000002       0.00000000       0.00000000       0.00000000      106        1        0        0       -1
Mo      30.72775012      19.99406227      12.35099317      95.95000002       0.00000000       0.00000000       0.00000000      107        1        0        0       -1
Mo      33.54881457      18.50836522      12.35627220      95.95000002       0.00000000       0.00000000       0.00000000      108        1        0        0       -1
Mo      36.36923871      17.01994998      12.37733736      95.95000002       0.00000000       0.00000000       0.00000000      109        1        0        0       -1
Mo      39.18776744      15.52616412      12.41287230      95.95000002       0.00000000       0.00000000       0.00000000      110        1        0        0       -1
Mo      42.00343767      14.02433822      12.45936700      95.95000002       0.00000000       0.00000000       0.00000000      111        1        0        0       -1
Mo      44.81563962      12.51210697      12.51088819      95.95000002       0.00000000       0.00000000       0.00000000      112        1        0        0        0
Mo      47.62413343      10.98820838      12.56058644      95.95000002       0.00000000       0.00000000       0.00000000      113        1        0        0        0
Mo      50.42898054       9.45313044      12.60308163      95.95000002       0.00000000       0.00000000       0.00000000      114        1        0        0        0
Mo      53.23060668       7.90909355      12.63564243      95.95000002       0.00000000       0.00000000       0.00000000      115        1        0        0        0
Mo      56.02995668       6.35967478      12.65773930      95.95000002       0.00000000       0.00000000       0.00000000      116        1        0        0        0
Mo      58.82850107       4.80929598      12.66963775      95.95000002       0.00000000       0.00000000       0.00000000      117        1        0        0        0
Mo      74.58604330      30.67099693      12.54331605      95.95000002       0.00000000       0.00000000       0.00000000      118        1       -1        0        0
Mo      19.36695546      29.15725529      12.50249412      95.95000002       0.00000000       0.00000000       0.00000000      119        1        0        0        0
Mo      22.16717412      27.65300320      12.45973413      95.95000002       0.00000000       0.00000000       0.00000000      120        1        0        0       -1
Mo      24.97479945      26.15676537      12.42048934      95.95000002       0.00000000       0.00000000       0.00000000      121        1        0        0       -1
Mo      27.78843145      24.66635505      12.38993039      95.95000002       0.00000000       0.00000000       0.00000000      122        1        0        0       -1
Mo      30.60622440      23.17937405      12.37190871      95.95000002       0.00000000       0.00000000       0.00000000      123        1        0        0       -1
Mo      33.42636130      21.69329087      12.36873693      95.95000002       0.00000000       0.00000000       0.00000000      124        1        0        0       -1
Mo      36.24720515      20.20540430      12.38125520      95.95000002       0.00000000       0.00000000       0.00000000      125        1        0        0       -1
Mo      39.06739530      18.71285380      12.40860155      95.95000002       0.00000000       0.00000000       0.00000000      126        1        0        0       -1
Mo      41.88595585      17.21269302      12.44775588      95.95000002       0.00000000       0.00000000       0.00000000      127        1        0        0       -1
Mo      44.70236087      15.70226457      12.49346572      95.95000002       0.00000000       0.00000000       0.00000000      128        1        0        0       -1
Mo      47.51641087      14.17999202      12.53941568      95.95000002       0.00000000       0.00000000       0.00000000      129        1        0        0        0
Mo      50.32798351      12.64600447      12.58026592      95.95000002       0.00000000       0.00000000       0.00000000      130        1        0        0        0
Mo      53.13703313      11.10214975      12.61301490      95.95000002       0.00000000       0.00000000       0.00000000      131        1        0        0        0
Mo      55.94379001       9.55168107      12.63685565      95.95000002       0.00000000       0.00000000       0.00000000      132        1        0        0        0
Mo      58.74894646       7.99879932      12.65186357      95.95000002       0.00000000       0.00000000       0.00000000      133        1        0        0        0
Mo      19.27759785      32.35882323      12.53706867      95.95000002       0.00000000       0.00000000       0.00000000      134        1        0        0        0
Mo      22.06871986      30.84939712      12.50164155      95.95000002       0.00000000       0.00000000       0.00000000      135        1        0        0        0
Mo      24.86850465      29.34822904      12.46491774      95.95000002       0.00000000       0.00000000       0.00000000      136        1        0        0       -1
Mo      27.67624030      27.85389389      12.43184405      95.95000002       0.00000000       0.00000000       0.00000000      137        1        0        0       -1
Mo      30.49015693      26.36424593      12.40758156      95.95000002       0.00000000       0.00000000       0.00000000      138        1        0        0       -1
Mo      33.30810974      24.87678267      12.39620258      95.95000002       0.00000000       0.00000000       0.00000000      139        1        0        0       -1
Mo      36.12810316      23.38871400      12.39990331      95.95000002       0.00000000       0.00000000       0.00000000      140        1        0        0       -1
Mo      38.94850545      21.89695396      12.41859813      95.95000002       0.00000000       0.00000000       0.00000000      141        1        0        0       -1
Mo      41.76816678      20.39822184      12.44962134      95.95000002       0.00000000       0.00000000       0.00000000      142        1        0        0       -1
Mo      44.58652079      18.88948080      12.48796488      95.95000002       0.00000000       0.00000000       0.00000000      143        1        0        0       -1
Mo      47.40347804      17.36879730      12.52761890      95.95000002       0.00000000       0.00000000       0.00000000      144        1        0        0        0
Mo      50.21905624      15.83600338      12.56350327      95.95000002       0.00000000       0.00000000       0.00000000      145        1        0        0        0
Mo      53.03317314      14.29270318      12.59276633      95.95000002       0.00000000       0.00000000       0.00000000      146        1        0        0        0
Mo      55.84573326      12.74193829      12.61472157      95.95000002       0.00000000       0.00000000       0.00000000      147        1        0        0        0
Mo      58.65683801      11.18770516      12.62956920      95.95000002       0.00000000       0.00000000       0.00000000      148        1        0        0        0
Mo      61.46696817       9.63447620      12.63694838      95.95000002       0.00000000       0.00000000       0.00000000      149        1        0        0        0
Mo      77.21071162      35.56565937      12.56712013      95.95000002       0.00000000       0.00000000       0.00000000      150        1       -1        0        0
Mo      21.98161161      34.05041013      12.54279079      95.95000002       0.00000000       0.00000000       0.00000000      151        1        0        0        0
Mo      24.77301041      32.54286220      12.51348544      95.95000002       0.00000000       0.00000000       0.00000000      152        1        0        0        0
Mo      27.57360227      31.04277496      12.48248699      95.95000002       0.00000000       0.00000000       0.00000000      153        1        0        0       -1
Mo      30.38226727      29.54878832      12.45496438      95.95000002       0.00000000       0.00000000       0.00000000      154        1        0        0       -1
Mo      33.19687859      28.05863739      12.43659401      95.95000002       0.00000000       0.00000000       0.00000000      155        1        0        0       -1
Mo      36.01503795      26.56948280      12.43162100      95.95000002       0.00000000       0.00000000       0.00000000      156        1        0        0       -1
Mo      38.83465217      25.07801688      12.44149781      95.95000002       0.00000000       0.00000000       0.00000000      157        1        0        0       -1
Mo      41.65420375      23.58059248      12.46433065      95.95000002       0.00000000       0.00000000       0.00000000      158        1        0        0       -1
Mo      44.47288698      22.07370400      12.49527469      95.95000002       0.00000000       0.00000000       0.00000000      159        1        0        0       -1
Mo      47.29055896      20.55491879      12.52818393      95.95000002       0.00000000       0.00000000       0.00000000      160        1        0        0        0
Mo      50.10741686      19.02366800      12.55783798      95.95000002       0.00000000       0.00000000       0.00000000      161        1        0        0        0
Mo      52.92364662      17.48131950      12.58142228      95.95000002       0.00000000       0.00000000       0.00000000      162        1        0        0        0
Mo      55.73927535      15.93079445      12.59851716      95.95000002       0.00000000       0.00000000       0.00000000      163        1        0        0        0
Mo      58.55423642      14.37600077      12.60973563      95.95000002       0.00000000       0.00000000       0.00000000      164        1        0        0        0
Mo      61.36855243      12.82129270      12.61509938      95.95000002       0.00000000       0.00000000       0.00000000      165        1        0        0        0
Mo      21.90544948      37.25572480      12.57864568      95.95000002       0.00000000       0.00000000       0.00000000      166        1        0        0        0
Mo      24.68925493      35.74099389      12.55979871      95.95000002       0.00000000       0.00000000       0.00000000      167        1        0        0        0
Mo      27.48250847      34.23358064      12.53512793      95.95000002       0.00000000       0.00000000       0.00000000      168        1        0        0        0
Mo      30.28502019      32.73335502      12.50837317      95.95000002       0.00000000       0.00000000       0.00000000      169        1        0        0        0
Mo      33.09524256      31.23882715      12.48553913      95.95000002       0.00000000       0.00000000       0.00000000      170        1        0        0       -1
Mo      35.91072689      29.74734493      12.47279165      95.95000002       0.00000000       0.00000000       0.00000000      171        1        0        0       -1
Mo      38.72889813      28.25544716      12.47387276      95.95000002       0.00000000       0.00000000       0.00000000      172        1        0        0       -1
Mo      41.54767822      26.75912640      12.48851905      95.95000002       0.00000000       0.00000000       0.00000000      173        1        0        0       -1
Mo      44.36579281      25.25435119      12.51253627      95.95000002       0.00000000       0.00000000       0.00000000      174        1        0        0        0
Mo      47.18280236      23.73803903      12.53958116      95.95000002       0.00000000       0.00000000       0.00000000      175        1        0        0        0
Mo      49.99888635      22.20901352      12.56381093      95.95000002       0.00000000       0.00000000       0.00000000      176        1        0        0        0
Mo      52.81451772      20.66826979      12.58187759      95.95000002       0.00000000       0.00000000       0.00000000      177        1        0        0        0
Mo      55.63012717      19.11859423      12.59325954      95.95000002       0.00000000       0.00000000       0.00000000      178        1        0        0        0
Mo      58.44592576      17.56388356      12.59890828      95.95000002       0.00000000       0.00000000       0.00000000      179        1        0        0        0
Mo      61.26192464      16.00849077      12.59940810      95.95000002       0.00000000       0.00000000       0.00000000      180        1        0        0        0
Mo      64.07808429      14.45680512      12.59406557      95.95000002       0.00000000       0.00000000       0.00000000      181        1        0        0        0
Mo      79.84997617      40.46416074      12.60703284      95.95000002       0.00000000       0.00000000       0.00000000      182        1       -1        0        0
Mo      24.61658210      38.94216793      12.59913425      95.95000002       0.00000000       0.00000000       0.00000000      183        1        0        0        0
Mo      27.40351040      37.42657149      12.58313417      95.95000002       0.00000000       0.00000000       0.00000000      184        1        0        0        0
Mo      30.19992876      35.91852554      12.56070025      95.95000002       0.00000000       0.00000000       0.00000000      185        1        0        0        0
Mo      33.00515233      34.41776809      12.53674423      95.95000002       0.00000000       0.00000000       0.00000000      186        1        0        0        0
Mo      35.81722438      32.92235987      12.51817333      95.95000002       0.00000000       0.00000000       0.00000000      187        1        0        0        0
Mo      38.63343980      31.42894453      12.51097975      95.95000002       0.00000000       0.00000000       0.00000000      188        1        0        0        0
Mo      41.45115038      29.93324675      12.51735609      95.95000002       0.00000000       0.00000000       0.00000000      189        1        0        0        0
Mo      44.26841160      28.43070902      12.53466912      95.95000002       0.00000000       0.00000000       0.00000000      190        1        0        0        0
Mo      47.08422967      26.91749980      12.55687747      95.95000002       0.00000000       0.00000000       0.00000000      191        1        0        0        0
Mo      49.89848244      25.39161868      12.57744116      95.95000002       0.00000000       0.00000000       0.00000000      192        1        0        0        0
Mo      52.71170485      23.85343587      12.59196081      95.95000002       0.00000000       0.00000000       0.00000000      193        1        0        0        0
Mo      55.52472928      22.30545294      12.59916277      95.95000002       0.00000000       0.00000000       0.00000000      194        1        0        0        0
Mo      58.33829185      20.75153987      12.59983936      95.95000002       0.00000000       0.00000000       0.00000000      195        1        0        0        0
Mo      61.15281974      19.19613088      12.59489670      95.95000002       0.00000000       0.00000000       0.00000000      196        1        0        0        0
Mo      63.96841128      17.64369321      12.58417789      95.95000002       0.00000000       0.00000000       0.00000000      197        1        0        0        0
Mo      24.55280060      42.14530557      12.62930534      95.95000002       0.00000000       0.00000000       0.00000000      198        1        0        0        0
Mo      27.33537116      40.62143739      12.62210049      95.95000002       0.00000000       0.00000000       0.00000000      199        1        0        0        0
Mo      30.12676098      39.10472297      12.60592530      95.95000002       0.00000000       0.00000000       0.00000000      200        1        0        0        0
Mo      32.92716754      37.59622440      12.58383916      95.95000002       0.00000000       0.00000000       0.00000000      201        1        0        0        0
Mo      35.73542480      36.09517269      12.56210801      95.95000002       0.00000000       0.00000000       0.00000000      202        1        0        0        0
Mo      38.54922044      34.59881394      12.54797571      95.95000002       0.00000000       0.00000000       0.00000000      203        1        0        0        0
Mo      41.36567171      33.10286560      12.54620858      95.95000002       0.00000000       0.00000000       0.00000000      204        1        0        0        0
Mo      44.18215946      31.60234718      12.55662232      95.95000002       0.00000000       0.00000000       0.00000000      205        1        0        0        0
Mo      46.99693513      30.09267432      12.57437784      95.95000002       0.00000000       0.00000000       0.00000000      206        1        0        0        0
Mo      49.80928808      28.57088019      12.59269136      95.95000002       0.00000000       0.00000000       0.00000000      207        1        0        0        0
Mo      52.61947951      27.03643742      12.60600690      95.95000002       0.00000000       0.00000000       0.00000000      208        1        0        0        0
Mo      55.42848993      25.49128234      12.61179484      95.95000002       0.00000000       0.00000000       0.00000000      209        1        0        0        0
Mo      58.23754979      23.93910275      12.61009652      95.95000002       0.00000000       0.00000000       0.00000000      210        1        0        0        0
Mo      61.04771277      22.38439731      12.60164585      95.95000002       0.00000000       0.00000000       0.00000000      211        1        0        0        0
Mo      63.85962154      20.83179407      12.58646856      95.95000002       0.00000000       0.00000000       0.00000000      212        1        0        0        0
Mo      66.67347034      19.28558864      12.56400969      95.95000002       0.00000000       0.00000000       0.00000000      213        1        0        0        0
Mo      82.50596914      45.34907155      12.64999637      95.95000002       0.00000000       0.00000000       0.00000000      214        1       -1        0        0
Mo      27.27520511      43.81749079      12.65031274      95.95000002       0.00000000       0.00000000       0.00000000      215        1        0        0        0
Mo      30.06337539      42.29201411      12.64066545      95.95000002       0.00000000       0.00000000       0.00000000      216        1        0        0        0
Mo      32.85993770      40.77493935      12.62233682      95.95000002       0.00000000       0.00000000       0.00000000      217        1        0        0        0
Mo      35.66457543      39.26682244      12.60004776      95.95000002       0.00000000       0.00000000       0.00000000      218        1        0        0        0
Mo      38.47569393      37.76596610      12.58100183      95.95000002       0.00000000       0.00000000       0.00000000      219        1        0        0        0
Mo      41.29067931      36.26853452      12.57179984      95.95000002       0.00000000       0.00000000       0.00000000      220        1        0        0        0
Mo      44.10654590      34.76938431      12.57503296      95.95000002       0.00000000       0.00000000       0.00000000      221        1        0        0        0
Mo      46.92078588      33.26329202      12.58798800      95.95000002       0.00000000       0.00000000       0.00000000      222        1        0        0        0
Mo      49.73189781      31.74629994      12.60445092      95.95000002       0.00000000       0.00000000       0.00000000      223        1        0        0        0
Mo      52.53954038      30.21679077      12.61805495      95.95000002       0.00000000       0.00000000       0.00000000      224        1        0        0        0
Mo      55.34445554      28.67582222      12.62487327      95.95000002       0.00000000       0.00000000       0.00000000      225        1        0        0        0
Mo      58.14808803      27.12661758      12.62380944      95.95000002       0.00000000       0.00000000       0.00000000      226        1        0        0        0
Mo      60.95205002      25.57358371      12.61502831      95.95000002       0.00000000       0.00000000       0.00000000      227        1        0        0        0
Mo      63.75769922      24.02147189      12.59834650      95.95000002       0.00000000       0.00000000       0.00000000      228        1        0        0        0
Mo      66.56589899      22.47480952      12.57311187      95.95000002       0.00000000       0.00000000       0.00000000      229        1        0        0        0
Mo      27.21884784      47.01395736      12.66780609      95.95000002       0.00000000       0.00000000       0.00000000      230        1        0        0        0
Mo      30.00607925      45.48028903      12.66406468      95.95000002       0.00000000       0.00000000       0.00000000      231        1        0        0        0
Mo      32.80035013      43.95451612      12.65032013      95.95000002       0.00000000       0.00000000       0.00000000      232        1        0        0        0
Mo      35.60217223      42.43848740      12.62951506      95.95000002       0.00000000       0.00000000       0.00000000      233        1        0        0        0
Mo      38.41076977      40.93178020      12.60780748      95.95000002       0.00000000       0.00000000       0.00000000      234        1        0        0        0
Mo      41.22416193      39.43145604      12.59252337      95.95000002       0.00000000       0.00000000       0.00000000      235        1        0        0        0
Mo      44.03947622      37.93262260      12.58863734      95.95000002       0.00000000       0.00000000       0.00000000      236        1        0        0        0
Mo      46.85370902      36.42967773      12.59611222      95.95000002       0.00000000       0.00000000       0.00000000      237        1        0        0        0
Mo      49.66455379      34.91778458      12.61019528      95.95000002       0.00000000       0.00000000       0.00000000      238        1        0        0        0
Mo      52.47085127      33.39416354      12.62434004      95.95000002       0.00000000       0.00000000       0.00000000      239        1        0        0        0
Mo      55.27273661      31.85874978      12.63339759      95.95000002       0.00000000       0.00000000       0.00000000      240        1        0        0        0
Mo      58.07145581      30.31397987      12.63500104      95.95000002       0.00000000       0.00000000       0.00000000      241        1        0        0        0
Mo      60.86887242      28.76390976      12.62860247      95.95000002       0.00000000       0.00000000       0.00000000      242        1        0        0        0
Mo      63.66694358      27.21325031      12.61370180      95.95000002       0.00000000       0.00000000       0.00000000      243        1        0        0        0
Mo      66.46732921      25.66667894      12.58929936      95.95000002       0.00000000       0.00000000       0.00000000      244        1        0        0        0
Mo      69.27114216      24.12824283      12.55499081      95.95000002       0.00000000       0.00000000       0.00000000      245        1        0        0        0
Mo      85.17296267      50.21012629      12.67487703      95.95000002       0.00000000       0.00000000       0.00000000      246        1       -1        0        0
Mo      29.95018090      48.66937098      12.67653303      95.95000002       0.00000000       0.00000000       0.00000000      247        1        0        0        0
Mo      32.74410636      47.13543660      12.66768487      95.95000002       0.00000000       0.00000000       0.00000000      248        1        0        0        0
Mo      35.54439243      45.61129345      12.64983964      95.95000002       0.00000000       0.00000000       0.00000000      249        1        0        0        0
Mo      38.35108834      44.09783201      12.62759348      95.95000002       0.00000000       0.00000000       0.00000000      250        1        0        0        0
Mo      41.16299976      42.59329312      12.60798811      95.95000002       0.00000000       0.00000000       0.00000000      251        1        0        0        0
Mo      43.97777956      41.09347919      12.59756366      95.95000002       0.00000000       0.00000000       0.00000000      252        1        0        0        0
Mo      46.79236457      39.59279632      12.59898093      95.95000002       0.00000000       0.00000000       0.00000000      253        1        0        0        0
Mo      49.60384818      38.08578339      12.60968040      95.95000002       0.00000000       0.00000000       0.00000000      254        1        0        0        0
Mo      52.41022810      36.56857587      12.62369870      95.95000002       0.00000000       0.00000000       0.00000000      255        1        0        0        0
Mo      55.21079531      35.03985902      12.63502563      95.95000002       0.00000000       0.00000000       0.00000000      256        1        0        0        0
Mo      58.00621045      33.50100199      12.63999332      95.95000002       0.00000000       0.00000000       0.00000000      257        1        0        0        0
Mo      60.79817960      31.95540360      12.63728758      95.95000002       0.00000000       0.00000000       0.00000000      258        1        0        0        0
Mo      63.58893006      30.40749567      12.62627499      95.95000002       0.00000000       0.00000000       0.00000000      259        1        0        0        0
Mo      66.38074964      28.86192151      12.60582538      95.95000002       0.00000000       0.00000000       0.00000000      260        1        0        0        0
Mo      69.17561627      27.32291538      12.57489449      95.95000002       0.00000000       0.00000000       0.00000000      261        1        0        0        0
Mo      35.48672906      48.78615167      12.66093564      95.95000002       0.00000000       0.00000000       0.00000000      262        1        0        0        0
Mo      38.29254810      47.26559600      12.64003760      95.95000002       0.00000000       0.00000000       0.00000000      263        1        0        0        0
Mo      41.10341927      45.75584770      12.61803724      95.95000002       0.00000000       0.00000000       0.00000000      264        1        0        0        0
Mo      43.91774530      44.25373407      12.60212187      95.95000002       0.00000000       0.00000000       0.00000000      265        1        0        0        0
Mo      46.73285215      42.75410771      12.59723282      95.95000002       0.00000000       0.00000000       0.00000000      266        1        0        0        0
Mo      49.54560518      41.25125501      12.60344263      95.95000002       0.00000000       0.00000000       0.00000000      267        1        0        0        0
Mo      52.35331620      39.74045387      12.61619759      95.95000002       0.00000000       0.00000000       0.00000000      268        1        0        0        0
Mo      55.15438574      38.21916278      12.62918439      95.95000002       0.00000000       0.00000000       0.00000000      269        1        0        0        0
Mo      57.94862851      36.68749974      12.63745436      95.95000002       0.00000000       0.00000000       0.00000000      270        1        0        0        0
Mo      60.73722171      35.14790719      12.63869254      95.95000002       0.00000000       0.00000000       0.00000000      271        1        0        0        0
Mo      63.52228370      33.60425898      12.63220016      95.95000002       0.00000000       0.00000000       0.00000000      272        1        0        0        0
Mo      66.30638470      32.06093261      12.61722543      95.95000002       0.00000000       0.00000000       0.00000000      273        1        0        0        0
Mo      69.09214505      30.52213754      12.59258841      95.95000002       0.00000000       0.00000000       0.00000000      274        1        0        0        0
Mo      71.88185560      28.99135030      12.55785992      95.95000002       0.00000000       0.00000000       0.00000000      275        1        0        0        0
Mo      41.04139522      48.92076090      12.62183265      95.95000002       0.00000000       0.00000000       0.00000000      276        1        0        0        0
Mo      43.85552415      47.41525088      12.60184379      95.95000002       0.00000000       0.00000000       0.00000000      277        1        0        0        0
Mo      46.67120816      45.91535713      12.59083980      95.95000002       0.00000000       0.00000000       0.00000000      278        1        0        0        0
Mo      49.48553765      44.41554829      12.59157563      95.95000002       0.00000000       0.00000000       0.00000000      279        1        0        0        0
Mo      52.29544992      42.91060118      12.60168943      95.95000002       0.00000000       0.00000000       0.00000000      280        1        0        0        0
Mo      55.09857988      41.39692756      12.61539639      95.95000002       0.00000000       0.00000000       0.00000000      281        1        0        0        0
Mo      57.89380952      39.87334839      12.62675620      95.95000002       0.00000000       0.00000000       0.00000000      282        1        0        0        0
Mo      60.68150923      38.34111190      12.63210469      95.95000002       0.00000000       0.00000000       0.00000000      283        1        0        0        0
Mo      63.46335221      36.80323979      12.63026160      95.95000002       0.00000000       0.00000000       0.00000000      284        1        0        0        0
Mo      66.24184972      35.26360123      12.62101720      95.95000002       0.00000000       0.00000000       0.00000000      285        1        0        0        0
Mo      69.01990704      33.72614894      12.60380858      95.95000002       0.00000000       0.00000000       0.00000000      286        1        0        0        0
Mo      71.80045222      32.19440375      12.57784337      95.95000002       0.00000000       0.00000000       0.00000000      287        1        0        0        0
Mo      46.60375585      49.07833668      12.57895412      95.95000002       0.00000000       0.00000000       0.00000000      288        1        0        0        0
Mo      49.41968972      47.58023921      12.57358627      95.95000002       0.00000000       0.00000000       0.00000000      289        1        0        0        0
Mo      52.23223367      46.08011144      12.57958948      95.95000002       0.00000000       0.00000000       0.00000000      290        1        0        0        0
Mo      55.03852585      44.57365169      12.59271652      95.95000002       0.00000000       0.00000000       0.00000000      291        1        0        0        0
Mo      57.83660803      43.05849988      12.60679034      95.95000002       0.00000000       0.00000000       0.00000000      292        1        0        0        0
Mo      60.62590254      41.53458778      12.61676542      95.95000002       0.00000000       0.00000000       0.00000000      293        1        0        0        0
Mo      63.40734205      40.00381355      12.62027529      95.95000002       0.00000000       0.00000000       0.00000000      294        1        0        0        0
Mo      66.18307300      38.46927924      12.61707250      95.95000002       0.00000000       0.00000000       0.00000000      295        1        0        0        0
Mo      68.95597594      36.93447731      12.60741676      95.95000002       0.00000000       0.00000000       0.00000000      296        1        0        0        0
Mo      71.72925673      35.40273853      12.59106439      95.95000002       0.00000000       0.00000000       0.00000000      297        1        0        0        0
Mo      74.50608523      33.87687298      12.56751914      95.95000002       0.00000000       0.00000000       0.00000000      298        1        0        0        0
Mo      52.16006918      49.25021838      12.54978887      95.95000002       0.00000000       0.00000000       0.00000000      299        1        0        0        0
Mo      54.97007515      47.74998785      12.56066558      95.95000002       0.00000000       0.00000000       0.00000000      300        1        0        0        0
Mo      57.77235100      46.24295517      12.57650196      95.95000002       0.00000000       0.00000000       0.00000000      301        1        0        0        0
Mo      60.56541949      44.72777863      12.59146823      95.95000002       0.00000000       0.00000000       0.00000000      302        1        0        0        0
Mo      63.34927274      43.20505475      12.60164384      95.95000002       0.00000000       0.00000000       0.00000000      303        1        0        0        0
Mo      66.12537523      41.67684694      12.60574087      95.95000002       0.00000000       0.00000000       0.00000000      304        1        0        0        0
Mo      68.89629664      40.14597305      12.60413628      95.95000002       0.00000000       0.00000000       0.00000000      305        1        0        0        0
Mo      71.66523326      38.61539436      12.59735796      95.95000002       0.00000000       0.00000000       0.00000000      306        1        0        0        0
Mo      74.43561295      37.08785787      12.58523784      95.95000002       0.00000000       0.00000000       0.00000000      307        1        0        0        0
Mo      57.69752040      49.42676480      12.53646270      95.95000002       0.00000000       0.00000000       0.00000000      308        1        0        0        0
Mo      60.49592206      47.92003788      12.55579578      95.95000002       0.00000000       0.00000000       0.00000000      309        1        0        0        0
Mo      63.28464173      46.40577486      12.57353443      95.95000002       0.00000000       0.00000000       0.00000000      310        1        0        0        0
Mo      66.06421427      44.88479198      12.58671167      95.95000002       0.00000000       0.00000000       0.00000000      311        1        0        0        0
Mo      68.83655947      43.35897016      12.59463138      95.95000002       0.00000000       0.00000000       0.00000000      312        1        0        0        0
Mo      71.60458618      41.83070658      12.59781341      95.95000002       0.00000000       0.00000000       0.00000000      313        1        0        0        0
Mo      74.37170965      40.30251440      12.59665477      95.95000002       0.00000000       0.00000000       0.00000000      314        1        0        0        0
Mo      77.14144751      38.77680093      12.59066180      95.95000002       0.00000000       0.00000000       0.00000000      315        1        0        0        0
Mo      63.21001998      49.60472729      12.53630404      95.95000002       0.00000000       0.00000000       0.00000000      316        1        0        0        0
Mo      65.99568256      48.09136930      12.55948515      95.95000002       0.00000000       0.00000000       0.00000000      317        1        0        0        0
Mo      68.77271591      46.57146730      12.57862477      95.95000002       0.00000000       0.00000000       0.00000000      318        1        0        0        0
Mo      71.54338430      45.04658616      12.59296254      95.95000002       0.00000000       0.00000000       0.00000000      319        1        0        0        0
Mo      74.31082005      43.51881662      12.60266173      95.95000002       0.00000000       0.00000000       0.00000000      320        1        0        0        0
Mo      77.07853073      41.99051698      12.60767447      95.95000002       0.00000000       0.00000000       0.00000000      321        1        0        0        0
Mo      68.70130599      49.78141989      12.55553270      95.95000002       0.00000000       0.00000000       0.00000000      322        1        0        0        0
Mo      71.47787065      48.26080831      12.58214381      95.95000002       0.00000000       0.00000000       0.00000000      323        1        0        0        0
Mo      74.24916199      46.73453433      12.60326905      95.95000002       0.00000000       0.00000000       0.00000000      324        1        0        0        0
Mo      77.01840859      45.20472991      12.61856492      95.95000002       0.00000000       0.00000000       0.00000000      325        1        0        0        0
Mo      79.78906077      43.67402208      12.62763255      95.95000002       0.00000000       0.00000000       0.00000000      326        1        0        0        0
Mo      74.18294224      49.94756808      12.59725952      95.95000002       0.00000000       0.00000000       0.00000000      327        1        0        0        0
Mo      76.95711502      48.41742047      12.62281665      95.95000002       0.00000000       0.00000000       0.00000000      328        1        0        0        0
Mo      79.73038355      46.88352610      12.64051662      95.95000002       0.00000000       0.00000000       0.00000000      329        1        0        0        0
Mo      79.66954875      50.09110735      12.64498740      95.95000002       0.00000000       0.00000000       0.00000000      330        1        0        0        0
Mo      82.44854055      48.55219517      12.66129118      95.95000002       0.00000000       0.00000000       0.00000000      331        1        0        0        0
W        2.76580406       1.58296237      18.86987809      32.06000001       0.00000000       0.00000000       0.00000000      332        3        0        0        0
W        2.83513751       4.77451004      18.87640407      32.06000001       0.00000000       0.00000000       0.00000000      333        3        0        0        0
W        5.55594018       3.12654632      18.87967379      32.06000001       0.00000000       0.00000000       0.00000000      334        3        0        0        0
W        8.27374676       1.46937125      18.88937205      32.06000001       0.00000000       0.00000000       0.00000000      335        3        0        0        0
W        5.63146155       6.32108285      18.89028723      32.06000001       0.00000000       0.00000000       0.00000000      336        3        0        0        0
W        8.34629655       4.66863681      18.89831398      32.06000001       0.00000000       0.00000000       0.00000000      337        3        0        0        0
W       11.05844763       3.00564425      18.91085011      32.06000001       0.00000000       0.00000000       0.00000000      338        3        0        0        0
W       13.76742438       1.33204793      18.92336790      32.06000001       0.00000000       0.00000000       0.00000000      339        3        0        0        0
W        5.71834011       9.51330097      18.90474158      32.06000001       0.00000000       0.00000000       0.00000000      340        3        0        0        0
W        8.42937760       7.86447604      18.91302368      32.06000001       0.00000000       0.00000000       0.00000000      341        3        0        0        0
W       11.13888539       6.20545164      18.92607381      32.06000001       0.00000000       0.00000000       0.00000000      342        3        0        0        0
W       13.84622689       4.53549845      18.94057691      32.06000001       0.00000000       0.00000000       0.00000000      343        3        0        0        0
W       16.55153725       2.85584100      18.95124533      32.06000001       0.00000000       0.00000000       0.00000000      344        3        0        0        0
W       19.25594783       1.16946062      18.95289218      32.06000001       0.00000000       0.00000000       0.00000000      345        3        0        0        0
W        8.52359941      11.05710496      18.92867287      32.06000001       0.00000000       0.00000000       0.00000000      346        3        0        0        0
W       11.23017555       9.40104488      18.94443468      32.06000001       0.00000000       0.00000000       0.00000000      347        3        0        0        0
W       13.93530504       7.73409595      18.96205414      32.06000001       0.00000000       0.00000000       0.00000000      348        3        0        0        0
W       16.63897149       6.05684215      18.97710992      32.06000001       0.00000000       0.00000000       0.00000000      349        3        0        0        0
W       19.34184223       4.37156267      18.98449182      32.06000001       0.00000000       0.00000000       0.00000000      350        3        0        0        0
W       22.04533912       2.68178116      18.98067439      32.06000001       0.00000000       0.00000000       0.00000000      351        3        0        0        0
W       24.75160302       0.99154141      18.96571224      32.06000001       0.00000000       0.00000000       0.00000000      352        3        0        0        0
W        8.62708600      14.24713456      18.93877151      32.06000001       0.00000000       0.00000000       0.00000000      353        3        0        0        0
W       11.33153443      12.59301399      18.95998983      32.06000001       0.00000000       0.00000000       0.00000000      354        3        0        0        0
W       14.03467205      10.92824568      18.98284082      32.06000001       0.00000000       0.00000000       0.00000000      355        3        0        0        0
W       16.73663391       9.25296913      19.00351900      32.06000001       0.00000000       0.00000000       0.00000000      356        3        0        0        0
W       19.43792860       7.56889027      19.01734007      32.06000001       0.00000000       0.00000000       0.00000000      357        3        0        0        0
W       22.13953573       5.87893566      19.02039992      32.06000001       0.00000000       0.00000000       0.00000000      358        3        0        0        0
W       24.84300714       4.18665942      19.01132348      32.06000001       0.00000000       0.00000000       0.00000000      359        3        0        0        0
W       27.55047317       2.49566097      18.99209636      32.06000001       0.00000000       0.00000000       0.00000000      360        3        0        0        0
W       30.26434394       0.80894991      18.96747586      32.06000001       0.00000000       0.00000000       0.00000000      361        3        0        0        0
W       11.44005007      15.78224751      18.96657136      32.06000001       0.00000000       0.00000000       0.00000000      362        3        0        0        0
W       14.14237300      14.11887584      18.99673784      32.06000001       0.00000000       0.00000000       0.00000000      363        3        0        0        0
W       16.84327422      12.44503487      19.02472027      32.06000001       0.00000000       0.00000000       0.00000000      364        3        0        0        0
W       19.54337476      10.76202157      19.04605629      32.06000001       0.00000000       0.00000000       0.00000000      365        3        0        0        0
W       22.24346804       9.07226026      19.05686674      32.06000001       0.00000000       0.00000000       0.00000000      366        3        0        0        0
W       24.94468261       7.37880532      19.05509894      32.06000001       0.00000000       0.00000000       0.00000000      367        3        0        0        0
W       27.64863604       5.68492229      19.04120662      32.06000001       0.00000000       0.00000000       0.00000000      368        3        0        0        0
W       30.35738013       3.99368749      19.01814986      32.06000001       0.00000000       0.00000000       0.00000000      369        3        0        0        0
W       33.07308007       2.30746725      18.99064875      32.06000001       0.00000000       0.00000000       0.00000000      370        3        0        0        0
W       35.79739069       0.62751288      18.96366621      32.06000001       0.00000000       0.00000000       0.00000000      371        3        0        0        0
W       11.55131611      18.96941877      18.96075155      32.06000001       0.00000000       0.00000000       0.00000000      372        3        0        0        0
W       14.25488497      17.30692843      18.99889665      32.06000001       0.00000000       0.00000000       0.00000000      373        3        0        0        0
W       16.95613397      15.63409319      19.03534067      32.06000001       0.00000000       0.00000000       0.00000000      374        3        0        0        0
W       19.65596896      13.95196663      19.06521858      32.06000001       0.00000000       0.00000000       0.00000000      375        3        0        0        0
W       22.35524470      12.26260218      19.08451819      32.06000001       0.00000000       0.00000000       0.00000000      376        3        0        0        0
W       25.05489453      10.56861661      19.09093300      32.06000001       0.00000000       0.00000000       0.00000000      377        3        0        0        0
W       27.75616847       8.87289025      19.08408818      32.06000001       0.00000000       0.00000000       0.00000000      378        3        0        0        0
W       30.46070178       7.17833917      19.06545282      32.06000001       0.00000000       0.00000000       0.00000000      379        3        0        0        0
W       33.17041042       5.48756512      19.03817988      32.06000001       0.00000000       0.00000000       0.00000000      380        3        0        0        0
W       35.88718647       3.80247582      19.00660534      32.06000001       0.00000000       0.00000000       0.00000000      381        3        0        0        0
W       38.61234989       2.12404209      18.97519403      32.06000001       0.00000000       0.00000000       0.00000000      382        3        0        0        0
W       41.34609138       0.45235292      18.94746038      32.06000001       0.00000000       0.00000000       0.00000000      383        3        0        0        0
W       14.36786903      20.49279864      18.98815313      32.06000001       0.00000000       0.00000000       0.00000000      384        3        0        0        0
W       17.07156627      18.82083427      19.03256252      32.06000001       0.00000000       0.00000000       0.00000000      385        3        0        0        0
W       19.77264177      17.13955166      19.07122627      32.06000001       0.00000000       0.00000000       0.00000000      386        3        0        0        0
W       22.47219981      15.45076891      19.09941192      32.06000001       0.00000000       0.00000000       0.00000000      387        3        0        0        0
W       25.17120930      13.75676917      19.11443008      32.06000001       0.00000000       0.00000000       0.00000000      388        3        0        0        0
W       27.87075303      12.06007677      19.11547998      32.06000001       0.00000000       0.00000000       0.00000000      389        3        0        0        0
W       30.57217612      10.36336833      19.10318213      32.06000001       0.00000000       0.00000000       0.00000000      390        3        0        0        0
W       33.27707151       8.66924443      19.07937255      32.06000001       0.00000000       0.00000000       0.00000000      391        3        0        0        0
W       35.98717108       6.97996523      19.04710856      32.06000001       0.00000000       0.00000000       0.00000000      392        3        0        0        0
W       38.70410127       5.29721619      19.01053593      32.06000001       0.00000000       0.00000000       0.00000000      393        3        0        0        0
W       41.42890859       3.62188975      18.97418299      32.06000001       0.00000000       0.00000000       0.00000000      394        3        0        0        0
W       44.16155201       1.95403034      18.94190867      32.06000001       0.00000000       0.00000000       0.00000000      395        3        0        0        0
W       46.90069489       0.29281684      18.91612525      32.06000001       0.00000000       0.00000000       0.00000000      396        3        0        0        0
W       14.47690338      23.67616390      18.96774718      32.06000001       0.00000000       0.00000000       0.00000000      397        3        0        0        0
W       17.18562765      22.00527609      19.01725225      32.06000001       0.00000000       0.00000000       0.00000000      398        3        0        0        0
W       19.88998601      20.32508568      19.06330669      32.06000001       0.00000000       0.00000000       0.00000000      399        3        0        0        0
W       22.59136317      18.63719910      19.09994350      32.06000001       0.00000000       0.00000000       0.00000000      400        3        0        0        0
W       25.29095910      16.94368483      19.12352778      32.06000001       0.00000000       0.00000000       0.00000000      401        3        0        0        0
W       27.98989131      15.24678514      19.13271447      32.06000001       0.00000000       0.00000000       0.00000000      402        3        0        0        0
W       30.68938229      13.54893109      19.12762184      32.06000001       0.00000000       0.00000000       0.00000000      403        3        0        0        0
W       33.39081372      11.85263767      19.10934668      32.06000001       0.00000000       0.00000000       0.00000000      404        3        0        0        0
W       36.09568091      10.16029273      19.07989368      32.06000001       0.00000000       0.00000000       0.00000000      405        3        0        0        0
W       38.80550884       8.47401291      19.04243459      32.06000001       0.00000000       0.00000000       0.00000000      406        3        0        0        0
W       41.52169302       6.79542549      19.00143070      32.06000001       0.00000000       0.00000000       0.00000000      407        3        0        0        0
W       44.24507105       5.12529382      18.96182412      32.06000001       0.00000000       0.00000000       0.00000000      408        3        0        0        0
W       46.97540124       3.46331961      18.92770847      32.06000001       0.00000000       0.00000000       0.00000000      409        3        0        0        0
W       49.71122206       1.80812362      18.90149405      32.06000001       0.00000000       0.00000000       0.00000000      410        3        0        0        0
W       52.45015558       0.15731167      18.88390572      32.06000001       0.00000000       0.00000000       0.00000000      411        3        0        0        0
W       17.29449625      25.18683085      18.99365937      32.06000001       0.00000000       0.00000000       0.00000000      412        3        0        0        0
W       20.00452650      23.50830932      19.04356102      32.06000001       0.00000000       0.00000000       0.00000000      413        3        0        0        0
W       22.70964800      21.82191164      19.08672612      32.06000001       0.00000000       0.00000000       0.00000000      414        3        0        0        0
W       25.41135447      20.12949460      19.11805874      32.06000001       0.00000000       0.00000000       0.00000000      415        3        0        0        0
W       28.11099156      18.43312043      19.13513206      32.06000001       0.00000000       0.00000000       0.00000000      416        3        0        0        0
W       30.80983613      16.73501166      19.13743747      32.06000001       0.00000000       0.00000000       0.00000000      417        3        0        0        0
W       33.50919785      15.03757165      19.12560388      32.06000001       0.00000000       0.00000000       0.00000000      418        3        0        0        0
W       36.21043142      13.34324514      19.10110291      32.06000001       0.00000000       0.00000000       0.00000000      419        3        0        0        0
W       38.91488211      11.65438095      19.06634971      32.06000001       0.00000000       0.00000000       0.00000000      420        3        0        0        0
W       41.62387515       9.97309670      19.02511936      32.06000001       0.00000000       0.00000000       0.00000000      421        3        0        0        0
W       44.33863014       8.30084849      18.98241041      32.06000001       0.00000000       0.00000000       0.00000000      422        3        0        0        0
W       47.05976338       6.63789325      18.94319540      32.06000001       0.00000000       0.00000000       0.00000000      423        3        0        0        0
W       49.78681284       4.98318977      18.91112241      32.06000001       0.00000000       0.00000000       0.00000000      424        3        0        0        0
W       52.51828601       3.33453464      18.88796542      32.06000001       0.00000000       0.00000000       0.00000000      425        3        0        0        0
W       55.25197584       1.68874430      18.87389508      32.06000001       0.00000000       0.00000000       0.00000000      426        3        0        0        0
W       17.39499521      28.36471264      18.96773616      32.06000001       0.00000000       0.00000000       0.00000000      427        3        0        0        0
W       20.11292788      26.68855676      19.01634494      32.06000001       0.00000000       0.00000000       0.00000000      428        3        0        0        0
W       22.82393210      25.00454753      19.06227236      32.06000001       0.00000000       0.00000000       0.00000000      429        3        0        0        0
W       25.52950730      23.31408674      19.09928738      32.06000001       0.00000000       0.00000000       0.00000000      430        3        0        0        0
W       28.23131496      21.61904868      19.12333412      32.06000001       0.00000000       0.00000000       0.00000000      431        3        0        0        0
W       30.93087693      19.92152526      19.13275020      32.06000001       0.00000000       0.00000000       0.00000000      432        3        0        0        0
W       33.62959331      18.22382262      19.12753450      32.06000001       0.00000000       0.00000000       0.00000000      433        3        0        0        0
W       36.32879440      16.52841812      19.10883634      32.06000001       0.00000000       0.00000000       0.00000000      434        3        0        0        0
W       39.02972726      14.83784276      19.07881222      32.06000001       0.00000000       0.00000000       0.00000000      435        3        0        0        0
W       41.73355484      13.15453655      19.04078642      32.06000001       0.00000000       0.00000000       0.00000000      436        3        0        0        0
W       44.44144977      11.48046057      18.99927864      32.06000001       0.00000000       0.00000000       0.00000000      437        3        0        0        0
W       47.15441328       9.81642639      18.95920680      32.06000001       0.00000000       0.00000000       0.00000000      438        3        0        0        0
W       49.87275664       8.16176138      18.92465959      32.06000001       0.00000000       0.00000000       0.00000000      439        3        0        0        0
W       52.59587182       6.51447082      18.89810927      32.06000001       0.00000000       0.00000000       0.00000000      440        3        0        0        0
W       55.32236803       4.87147935      18.88032072      32.06000001       0.00000000       0.00000000       0.00000000      441        3        0        0        0
W       58.05029064       3.22898358      18.87103719      32.06000001       0.00000000       0.00000000       0.00000000      442        3        0        0        0
W       20.21243900      29.86518379      18.98688742      32.06000001       0.00000000       0.00000000       0.00000000      443        3        0        0        0
W       22.93121859      28.18453757      19.03056960      32.06000001       0.00000000       0.00000000       0.00000000      444        3        0        0        0
W       25.64251902      26.49715685      19.06971463      32.06000001       0.00000000       0.00000000       0.00000000      445        3        0        0        0
W       28.34805673      24.80446518      19.09886619      32.06000001       0.00000000       0.00000000       0.00000000      446        3        0        0        0
W       31.04970166      23.10840762      19.11461007      32.06000001       0.00000000       0.00000000       0.00000000      447        3        0        0        0
W       33.74913804      21.41124926      19.11575920      32.06000001       0.00000000       0.00000000       0.00000000      448        3        0        0        0
W       36.44782793      19.71551115      19.10293031      32.06000001       0.00000000       0.00000000       0.00000000      449        3        0        0        0
W       39.14702566      18.02389758      19.07822017      32.06000001       0.00000000       0.00000000       0.00000000      450        3        0        0        0
W       41.84780111      16.33913841      19.04502495      32.06000001       0.00000000       0.00000000       0.00000000      451        3        0        0        0
W       44.55116083      14.66357165      19.00767841      32.06000001       0.00000000       0.00000000       0.00000000      452        3        0        0        0
W       47.25806491      12.99843965      18.97064379      32.06000001       0.00000000       0.00000000       0.00000000      453        3        0        0        0
W       49.96915685      11.34345113      18.93764968      32.06000001       0.00000000       0.00000000       0.00000000      454        3        0        0        0
W       52.68447704       9.69685149      18.91112378      32.06000001       0.00000000       0.00000000       0.00000000      455        3        0        0        0
W       55.40339289       8.05570291      18.89206399      32.06000001       0.00000000       0.00000000       0.00000000      456        3        0        0        0
W       58.12468967       6.41627390      18.88052270      32.06000001       0.00000000       0.00000000       0.00000000      457        3        0        0        0
W       20.30158567      33.03800235      18.95949947      32.06000001       0.00000000       0.00000000       0.00000000      458        3        0        0        0
W       23.02905166      31.36150384      18.99622203      32.06000001       0.00000000       0.00000000       0.00000000      459        3        0        0        0
W       25.74763727      29.67834808      19.03302056      32.06000001       0.00000000       0.00000000       0.00000000      460        3        0        0        0
W       28.45847255      27.98922581      19.06427120      32.06000001       0.00000000       0.00000000       0.00000000      461        3        0        0        0
W       31.16353865      26.29567506      19.08490121      32.06000001       0.00000000       0.00000000       0.00000000      462        3        0        0        0
W       33.86491301      24.59988538      19.09187667      32.06000001       0.00000000       0.00000000       0.00000000      463        3        0        0        0
W       36.56439078      22.90446571      19.08466971      32.06000001       0.00000000       0.00000000       0.00000000      464        3        0        0        0
W       39.26339957      21.21231686      19.06507207      32.06000001       0.00000000       0.00000000       0.00000000      465        3        0        0        0
W       41.96303191      19.52646556      19.03677184      32.06000001       0.00000000       0.00000000       0.00000000      466        3        0        0        0
W       44.66418374      17.84961360      19.00449242      32.06000001       0.00000000       0.00000000       0.00000000      467        3        0        0        0
W       47.36762343      16.18336762      18.97264826      32.06000001       0.00000000       0.00000000       0.00000000      468        3        0        0        0
W       50.07390993      14.52774418      18.94439462      32.06000001       0.00000000       0.00000000       0.00000000      469        3        0        0        0
W       52.78331600      12.88124300      18.92149820      32.06000001       0.00000000       0.00000000       0.00000000      470        3        0        0        0
W       55.49571404      11.24109782      18.90456892      32.06000001       0.00000000       0.00000000       0.00000000      471        3        0        0        0
W       58.21052490       9.60368111      18.89360819      32.06000001       0.00000000       0.00000000       0.00000000      472        3        0        0        0
W       60.92674566       7.96498764      18.88870787      32.06000001       0.00000000       0.00000000       0.00000000      473        3        0        0        0
W       23.11616098      34.53562129      18.96331883      32.06000001       0.00000000       0.00000000       0.00000000      474        3        0        0        0
W       25.84264468      32.85761123      18.99372514      32.06000001       0.00000000       0.00000000       0.00000000      475        3        0        0        0
W       28.56001992      31.17326627      19.02339772      32.06000001       0.00000000       0.00000000       0.00000000      476        3        0        0        0
W       31.26977470      29.48343150      19.04664734      32.06000001       0.00000000       0.00000000       0.00000000      477        3        0        0        0
W       33.97416429      27.78997675      19.05854877      32.06000001       0.00000000       0.00000000       0.00000000      478        3        0        0        0
W       36.67543308      26.09554755      19.05669463      32.06000001       0.00000000       0.00000000       0.00000000      479        3        0        0        0
W       39.37539943      24.40327539      19.04188648      32.06000001       0.00000000       0.00000000       0.00000000      480        3        0        0        0
W       42.07537178      22.71651938      19.01782368      32.06000001       0.00000000       0.00000000       0.00000000      481        3        0        0        0
W       44.77627066      21.03837498      18.98987556      32.06000001       0.00000000       0.00000000       0.00000000      482        3        0        0        0
W       47.47871113      19.37084537      18.96308553      32.06000001       0.00000000       0.00000000       0.00000000      483        3        0        0        0
W       50.18299352      17.71425252      18.94059904      32.06000001       0.00000000       0.00000000       0.00000000      484        3        0        0        0
W       52.88922315      16.06730666      18.92353436      32.06000001       0.00000000       0.00000000       0.00000000      485        3        0        0        0
W       55.59737746      14.42741156      18.91171690      32.06000001       0.00000000       0.00000000       0.00000000      486        3        0        0        0
W       58.30724229      12.79106606      18.90461319      32.06000001       0.00000000       0.00000000       0.00000000      487        3        0        0        0
W       61.01833902      11.15433906      18.90211012      32.06000001       0.00000000       0.00000000       0.00000000      488        3        0        0        0
W       23.19278070      37.70762743      18.93479172      32.06000001       0.00000000       0.00000000       0.00000000      489        3        0        0        0
W       25.92651983      36.03541984      18.95632212      32.06000001       0.00000000       0.00000000       0.00000000      490        3        0        0        0
W       28.65080272      34.35685830      18.98118341      32.06000001       0.00000000       0.00000000       0.00000000      491        3        0        0        0
W       31.36617401      32.67194033      19.00430033      32.06000001       0.00000000       0.00000000       0.00000000      492        3        0        0        0
W       34.07451877      30.98194044      19.01968871      32.06000001       0.00000000       0.00000000       0.00000000      493        3        0        0        0
W       36.77834567      29.28931659      19.02286147      32.06000001       0.00000000       0.00000000       0.00000000      494        3        0        0        0
W       39.47998872      27.59736926      19.01279104      32.06000001       0.00000000       0.00000000       0.00000000      495        3        0        0        0
W       42.18120654      25.90981561      18.99242095      32.06000001       0.00000000       0.00000000       0.00000000      496        3        0        0        0
W       44.88316407      24.23019493      18.96748012      32.06000001       0.00000000       0.00000000       0.00000000      497        3        0        0        0
W       47.58648425      22.56098412      18.94398843      32.06000001       0.00000000       0.00000000       0.00000000      498        3        0        0        0
W       50.29125160      20.90290937      18.92589277      32.06000001       0.00000000       0.00000000       0.00000000      499        3        0        0        0
W       52.99722243      19.25492897      18.91436168      32.06000001       0.00000000       0.00000000       0.00000000      500        3        0        0        0
W       55.70410201      17.61458765      18.90865091      32.06000001       0.00000000       0.00000000       0.00000000      501        3        0        0        0
W       58.41164042      15.97847797      18.90751206      32.06000001       0.00000000       0.00000000       0.00000000      502        3        0        0        0
W       61.11958503      14.34273646      18.91027720      32.06000001       0.00000000       0.00000000       0.00000000      503        3        0        0        0
W       63.82758787      12.70345717      18.91715786      32.06000001       0.00000000       0.00000000       0.00000000      504        3        0        0        0
W       25.99984323      39.21254323      18.92434799      32.06000001       0.00000000       0.00000000       0.00000000      505        3        0        0        0
W       28.73030836      37.54053003      18.94246883      32.06000001       0.00000000       0.00000000       0.00000000      506        3        0        0        0
W       31.45147578      35.86159387      18.96301046      32.06000001       0.00000000       0.00000000       0.00000000      507        3        0        0        0
W       34.16440671      34.17621111      18.98005510      32.06000001       0.00000000       0.00000000       0.00000000      508        3        0        0        0
W       36.87138672      32.48638190      18.98763225      32.06000001       0.00000000       0.00000000       0.00000000      509        3        0        0        0
W       39.57511401      30.79537011      18.98248600      32.06000001       0.00000000       0.00000000       0.00000000      510        3        0        0        0
W       42.27792776      29.10718984      18.96585015      32.06000001       0.00000000       0.00000000       0.00000000      511        3        0        0        0
W       44.98148675      27.42585540      18.94301440      32.06000001       0.00000000       0.00000000       0.00000000      512        3        0        0        0
W       47.68668494      25.75440423      18.92077057      32.06000001       0.00000000       0.00000000       0.00000000      513        3        0        0        0
W       50.39359564      24.09410270      18.90434811      32.06000001       0.00000000       0.00000000       0.00000000      514        3        0        0        0
W       53.10168012      22.44429853      18.89582689      32.06000001       0.00000000       0.00000000       0.00000000      515        3        0        0        0
W       55.81019980      20.80273889      18.89461562      32.06000001       0.00000000       0.00000000       0.00000000      516        3        0        0        0
W       58.51851797      19.16609246      18.89909856      32.06000001       0.00000000       0.00000000       0.00000000      517        3        0        0        0
W       61.22619642      17.53050405      18.90808770      32.06000001       0.00000000       0.00000000       0.00000000      518        3        0        0        0
W       63.93296721      15.89204679      18.92128482      32.06000001       0.00000000       0.00000000       0.00000000      519        3        0        0        0
W       26.06474013      42.38976672      18.89983587      32.06000001       0.00000000       0.00000000       0.00000000      520        3        0        0        0
W       28.79971057      40.72469456      18.91079695      32.06000001       0.00000000       0.00000000       0.00000000      521        3        0        0        0
W       31.52595667      39.05257241      18.92718730      32.06000001       0.00000000       0.00000000       0.00000000      522        3        0        0        0
W       34.24352682      37.37289527      18.94409988      32.06000001       0.00000000       0.00000000       0.00000000      523        3        0        0        0
W       36.95402129      35.68695859      18.95507212      32.06000001       0.00000000       0.00000000       0.00000000      524        3        0        0        0
W       39.66006959      33.99771323      18.95494114      32.06000001       0.00000000       0.00000000       0.00000000      525        3        0        0        0
W       42.36447275      32.30928171      18.94261676      32.06000001       0.00000000       0.00000000       0.00000000      526        3        0        0        0
W       45.06952706      30.62611623      18.92193420      32.06000001       0.00000000       0.00000000       0.00000000      527        3        0        0        0
W       47.77667628      28.95187884      18.89973234      32.06000001       0.00000000       0.00000000       0.00000000      528        3        0        0        0
W       50.48629927      27.28850447      18.88245955      32.06000001       0.00000000       0.00000000       0.00000000      529        3        0        0        0
W       53.19780407      25.63589955      18.87365442      32.06000001       0.00000000       0.00000000       0.00000000      530        3        0        0        0
W       55.91007158      23.99215928      18.87364028      32.06000001       0.00000000       0.00000000       0.00000000      531        3        0        0        0
W       58.62193666      22.35410442      18.88105292      32.06000001       0.00000000       0.00000000       0.00000000      532        3        0        0        0
W       61.33246316      20.71789255      18.89459368      32.06000001       0.00000000       0.00000000       0.00000000      533        3        0        0        0
W       64.04104124      19.07951672      18.91370613      32.06000001       0.00000000       0.00000000       0.00000000      534        3        0        0        0
W       66.74740796      17.43526426      18.93806165      32.06000001       0.00000000       0.00000000       0.00000000      535        3        0        0        0
W       28.86168987      43.90955034      18.88789494      32.06000001       0.00000000       0.00000000       0.00000000      536        3        0        0        0
W       31.59150279      42.24464401      18.89954546      32.06000001       0.00000000       0.00000000       0.00000000      537        3        0        0        0
W       34.31307166      40.57152145      18.91490202      32.06000001       0.00000000       0.00000000       0.00000000      538        3        0        0        0
W       37.02704978      38.89054524      18.92800444      32.06000001       0.00000000       0.00000000       0.00000000      539        3        0        0        0
W       39.73553435      37.20406961      18.93258656      32.06000001       0.00000000       0.00000000       0.00000000      540        3        0        0        0
W       42.44141016      35.51604144      18.92525520      32.06000001       0.00000000       0.00000000       0.00000000      541        3        0        0        0
W       45.14751806      33.83119107      18.90760599      32.06000001       0.00000000       0.00000000       0.00000000      542        3        0        0        0
W       47.85601222      32.15380834      18.88554031      32.06000001       0.00000000       0.00000000       0.00000000      543        3        0        0        0
W       50.56789867      30.48660110      18.86615656      32.06000001       0.00000000       0.00000000       0.00000000      544        3        0        0        0
W       53.28289480      28.83019224      18.85452661      32.06000001       0.00000000       0.00000000       0.00000000      545        3        0        0        0
W       55.99976337      27.18319900      18.85238590      32.06000001       0.00000000       0.00000000       0.00000000      546        3        0        0        0
W       58.71688701      25.54271873      18.85914536      32.06000001       0.00000000       0.00000000       0.00000000      547        3        0        0        0
W       61.43273749      23.90500025      18.87381583      32.06000001       0.00000000       0.00000000       0.00000000      548        3        0        0        0
W       64.14610394      22.26599800      18.89599992      32.06000001       0.00000000       0.00000000       0.00000000      549        3        0        0        0
W       66.85621956      20.62184292      18.92542130      32.06000001       0.00000000       0.00000000       0.00000000      550        3        0        0        0
W       28.92011022      47.09517289      18.87393048      32.06000001       0.00000000       0.00000000       0.00000000      551        3        0        0        0
W       31.65138779      45.43732666      18.88096722      32.06000001       0.00000000       0.00000000       0.00000000      552        3        0        0        0
W       34.37566435      43.77115817      18.89381626      32.06000001       0.00000000       0.00000000       0.00000000      553        3        0        0        0
W       37.09259615      42.09598134      18.90770626      32.06000001       0.00000000       0.00000000       0.00000000      554        3        0        0        0
W       39.80342662      40.41329959      18.91622211      32.06000001       0.00000000       0.00000000       0.00000000      555        3        0        0        0
W       42.51067234      38.72657103      18.91421632      32.06000001       0.00000000       0.00000000       0.00000000      556        3        0        0        0
W       45.21738560      37.04051815      18.90076499      32.06000001       0.00000000       0.00000000       0.00000000      557        3        0        0        0
W       47.92635344      35.35994048      18.87995486      32.06000001       0.00000000       0.00000000       0.00000000      558        3        0        0        0
W       50.63939358      33.68836379      18.85868976      32.06000001       0.00000000       0.00000000       0.00000000      559        3        0        0        0
W       53.35689798      32.02726379      18.84322897      32.06000001       0.00000000       0.00000000       0.00000000      560        3        0        0        0
W       56.07790423      30.37595922      18.83688803      32.06000001       0.00000000       0.00000000       0.00000000      561        3        0        0        0
W       58.80061694      28.73198447      18.84016599      32.06000001       0.00000000       0.00000000       0.00000000      562        3        0        0        0
W       61.52301459      27.09177894      18.85256908      32.06000001       0.00000000       0.00000000       0.00000000      563        3        0        0        0
W       64.24324533      25.45133815      18.87404038      32.06000001       0.00000000       0.00000000       0.00000000      564        3        0        0        0
W       66.95984217      23.80671672      18.90476017      32.06000001       0.00000000       0.00000000       0.00000000      565        3        0        0        0
W       69.67192508      22.15457620      18.94382923      32.06000001       0.00000000       0.00000000       0.00000000      566        3        0        0        0
W       57.98529930       0.04204345      18.86845718      32.06000001       0.00000000       0.00000000       0.00000000      567        3       -1        1        0
W       31.70986189      48.63009075      18.87120920      32.06000001       0.00000000       0.00000000       0.00000000      568        3        0        0        0
W       34.43503720      46.97073029      18.88097488      32.06000001       0.00000000       0.00000000       0.00000000      569        3        0        0        0
W       37.15386449      45.30177798      18.89437892      32.06000001       0.00000000       0.00000000       0.00000000      570        3        0        0        0
W       39.86662225      43.62373308      18.90565595      32.06000001       0.00000000       0.00000000       0.00000000      571        3        0        0        0
W       42.57509433      41.93929279      18.90872035      32.06000001       0.00000000       0.00000000       0.00000000      572        3        0        0        0
W       45.28211409      40.25283212      18.90035877      32.06000001       0.00000000       0.00000000       0.00000000      573        3        0        0        0
W       47.99079629      38.56938807      18.88230116      32.06000001       0.00000000       0.00000000       0.00000000      574        3        0        0        0
W       50.70371197      36.89322949      18.86039811      32.06000001       0.00000000       0.00000000       0.00000000      575        3        0        0        0
W       53.42214706      35.22676625      18.84149934      32.06000001       0.00000000       0.00000000       0.00000000      576        3        0        0        0
W       56.14580825      33.57018697      18.83041690      32.06000001       0.00000000       0.00000000       0.00000000      577        3        0        0        0
W       58.87312026      31.92165592      18.82892554      32.06000001       0.00000000       0.00000000       0.00000000      578        3        0        0        0
W       61.60184735      30.27794496      18.83704688      32.06000001       0.00000000       0.00000000       0.00000000      579        3        0        0        0
W       64.32963104      28.63517895      18.85487361      32.06000001       0.00000000       0.00000000       0.00000000      580        3        0        0        0
W       67.05432152      26.98942478      18.88300023      32.06000001       0.00000000       0.00000000       0.00000000      581        3        0        0        0
W       69.77423642      25.33722470      18.92136195      32.06000001       0.00000000       0.00000000       0.00000000      582        3        0        0        0
W       34.49556847      50.16926981      18.87626309      32.06000001       0.00000000       0.00000000       0.00000000      583        3        0        0        0
W       37.21476877      48.50647200      18.88810519      32.06000001       0.00000000       0.00000000       0.00000000      584        3        0        0        0
W       39.92861426      46.83355349      18.90077711      32.06000001       0.00000000       0.00000000       0.00000000      585        3        0        0        0
W       42.63798623      45.15228118      18.90808399      32.06000001       0.00000000       0.00000000       0.00000000      586        3        0        0        0
W       45.34511703      43.46638525      18.90511630      32.06000001       0.00000000       0.00000000       0.00000000      587        3        0        0        0
W       48.05303144      41.78077480      18.89112290      32.06000001       0.00000000       0.00000000       0.00000000      588        3        0        0        0
W       50.76476372      40.10022438      18.87018346      32.06000001       0.00000000       0.00000000       0.00000000      589        3        0        0        0
W       53.48248186      38.42804421      18.84900648      32.06000001       0.00000000       0.00000000       0.00000000      590        3        0        0        0
W       56.20682232      36.76540629      18.83361892      32.06000001       0.00000000       0.00000000       0.00000000      591        3        0        0        0
W       58.93682381      35.11130514      18.82724798      32.06000001       0.00000000       0.00000000       0.00000000      592        3        0        0        0
W       61.67040649      33.46304383      18.83057080      32.06000001       0.00000000       0.00000000       0.00000000      593        3        0        0        0
W       64.40498715      31.81701302      18.84352944      32.06000001       0.00000000       0.00000000       0.00000000      594        3        0        0        0
W       67.13791479      30.16938738      18.86660462      32.06000001       0.00000000       0.00000000       0.00000000      595        3        0        0        0
W       69.86678232      28.51668408      18.90035527      32.06000001       0.00000000       0.00000000       0.00000000      596        3        0        0        0
W       72.58977219      26.85628771      18.94388706      32.06000001       0.00000000       0.00000000       0.00000000      597        3        0        0        0
W       39.99322508      50.04110849      18.90222243      32.06000001       0.00000000       0.00000000       0.00000000      598        3        0        0        0
W       42.70286357      48.36359008      18.91262198      32.06000001       0.00000000       0.00000000       0.00000000      599        3        0        0        0
W       45.40986263      46.67920296      18.91475270      32.06000001       0.00000000       0.00000000       0.00000000      600        3        0        0        0
W       48.11676713      44.99238560      18.90566792      32.06000001       0.00000000       0.00000000       0.00000000      601        3        0        0        0
W       50.82664894      43.30805205      18.88722038      32.06000001       0.00000000       0.00000000       0.00000000      602        3        0        0        0
W       53.54229703      41.63022174      18.86518836      32.06000001       0.00000000       0.00000000       0.00000000      603        3        0        0        0
W       56.26533181      39.96105119      18.84627580      32.06000001       0.00000000       0.00000000       0.00000000      604        3        0        0        0
W       58.99570768      38.30052067      18.83522570      32.06000001       0.00000000       0.00000000       0.00000000      605        3        0        0        0
W       61.73186967      36.64669086      18.83377497      32.06000001       0.00000000       0.00000000       0.00000000      606        3        0        0        0
W       64.47133521      34.99641155      18.84178820      32.06000001       0.00000000       0.00000000       0.00000000      607        3        0        0        0
W       67.21123612      33.34610313      18.85907710      32.06000001       0.00000000       0.00000000       0.00000000      608        3        0        0        0
W       69.94867253      31.69236596      18.88606080      32.06000001       0.00000000       0.00000000       0.00000000      609        3        0        0        0
W       72.68105904      30.03246882      18.92284970      32.06000001       0.00000000       0.00000000       0.00000000      610        3        0        0        0
W       45.47965215      49.88935854      18.92997734      32.06000001       0.00000000       0.00000000       0.00000000      611        3        0        0        0
W       48.18539913      48.20234680      18.92618179      32.06000001       0.00000000       0.00000000       0.00000000      612        3        0        0        0
W       50.89314262      46.51516969      18.91153109      32.06000001       0.00000000       0.00000000       0.00000000      613        3        0        0        0
W       53.60585401      44.83222196      18.89016218      32.06000001       0.00000000       0.00000000       0.00000000      614        3        0        0        0
W       56.32593075      43.15649477      18.86867492      32.06000001       0.00000000       0.00000000       0.00000000      615        3        0        0        0
W       59.05437278      41.48899603      18.85303267      32.06000001       0.00000000       0.00000000       0.00000000      616        3        0        0        0
W       61.79048632      39.82874524      18.84644450      32.06000001       0.00000000       0.00000000       0.00000000      617        3        0        0        0
W       64.53222507      38.17327765      18.84929637      32.06000001       0.00000000       0.00000000       0.00000000      618        3        0        0        0
W       67.27678795      36.51943355      18.86076652      32.06000001       0.00000000       0.00000000       0.00000000      619        3        0        0        0
W       70.02107319      34.86403391      18.88042307      32.06000001       0.00000000       0.00000000       0.00000000      620        3        0        0        0
W       72.76199996      33.20434679      18.90847389      32.06000001       0.00000000       0.00000000       0.00000000      621        3        0        0        0
W       75.49690237      31.53840885      18.94467159      32.06000001       0.00000000       0.00000000       0.00000000      622        3        0        0        0
W       50.96730166      49.71999422      18.94315197      32.06000001       0.00000000       0.00000000       0.00000000      623        3        0        0        0
W       53.67673858      48.03284829      18.92408876      32.06000001       0.00000000       0.00000000       0.00000000      624        3        0        0        0
W       56.39278175      46.35105060      18.90132996      32.06000001       0.00000000       0.00000000       0.00000000      625        3        0        0        0
W       59.11733875      44.67652713      18.88135776      32.06000001       0.00000000       0.00000000       0.00000000      626        3        0        0        0
W       61.85078604      43.00934309      18.86885618      32.06000001       0.00000000       0.00000000       0.00000000      627        3        0        0        0
W       64.59187596      41.34793889      18.86547763      32.06000001       0.00000000       0.00000000       0.00000000      628        3        0        0        0
W       67.33818122      39.68977205      18.87052142      32.06000001       0.00000000       0.00000000       0.00000000      629        3        0        0        0
W       70.08665413      38.03203184      18.88271436      32.06000001       0.00000000       0.00000000       0.00000000      630        3        0        0        0
W       72.83401420      36.37212465      18.90154437      32.06000001       0.00000000       0.00000000       0.00000000      631        3        0        0        0
W       75.57706795      34.70794237      18.92722915      32.06000001       0.00000000       0.00000000       0.00000000      632        3        0        0        0
W       56.46901508      49.54406695      18.94353697      32.06000001       0.00000000       0.00000000       0.00000000      633        3        0        0        0
W       59.18842417      47.86299937      18.92022548      32.06000001       0.00000000       0.00000000       0.00000000      634        3        0        0        0
W       61.91699523      46.18885608      18.90140507      32.06000001       0.00000000       0.00000000       0.00000000      635        3        0        0        0
W       64.65455591      44.52109963      18.89031798      32.06000001       0.00000000       0.00000000       0.00000000      636        3        0        0        0
W       67.39942832      42.85801095      18.88738917      32.06000001       0.00000000       0.00000000       0.00000000      637        3        0        0        0
W       70.14890133      41.19731027      18.89133905      32.06000001       0.00000000       0.00000000       0.00000000      638        3        0        0        0
W       72.89973425      39.53667290      18.90088881      32.06000001       0.00000000       0.00000000       0.00000000      639        3        0        0        0
W       75.64852006      37.87398776      18.91581036      32.06000001       0.00000000       0.00000000       0.00000000      640        3        0        0        0
W       78.39203491      36.20744639      18.93664359      32.06000001       0.00000000       0.00000000       0.00000000      641        3        0        0        0
W       61.99243120      49.36782695      18.94314570      32.06000001       0.00000000       0.00000000       0.00000000      642        3        0        0        0
W       64.72407573      47.69374322      18.92361828      32.06000001       0.00000000       0.00000000       0.00000000      643        3        0        0        0
W       67.46444844      46.02541409      18.91102549      32.06000001       0.00000000       0.00000000       0.00000000      644        3        0        0        0
W       70.21155356      44.36127314      18.90522787      32.06000001       0.00000000       0.00000000       0.00000000      645        3        0        0        0
W       72.96246519      42.69940503      18.90500717      32.06000001       0.00000000       0.00000000       0.00000000      646        3        0        0        0
W       75.71381066      41.03781948      18.90954389      32.06000001       0.00000000       0.00000000       0.00000000      647        3        0        0        0
W       78.46214744      39.37453477      18.91916655      32.06000001       0.00000000       0.00000000       0.00000000      648        3        0        0        0
W       67.53659563      49.19344980      18.94089041      32.06000001       0.00000000       0.00000000       0.00000000      649        3        0        0        0
W       70.27819375      47.52557184      18.92404592      32.06000001       0.00000000       0.00000000       0.00000000      650        3        0        0        0
W       73.02574167      45.86202374      18.91314733      32.06000001       0.00000000       0.00000000       0.00000000      651        3        0        0        0
W       75.77618175      44.20106667      18.90751208      32.06000001       0.00000000       0.00000000       0.00000000      652        3        0        0        0
W       78.52611093      42.54067753      18.90695792      32.06000001       0.00000000       0.00000000       0.00000000      653        3        0        0        0
W       81.27216298      40.87860759      18.91226696      32.06000001       0.00000000       0.00000000       0.00000000      654        3        0        0        0
W       73.09301835      49.02624364      18.92539105      32.06000001       0.00000000       0.00000000       0.00000000      655        3        0        0        0
W       75.83920754      47.36540579      18.90952659      32.06000001       0.00000000       0.00000000       0.00000000      656        3        0        0        0
W       78.58735218      45.70738919      18.89974497      32.06000001       0.00000000       0.00000000       0.00000000      657        3        0        0        0
W       81.33411704      44.04976261      18.89625220      32.06000001       0.00000000       0.00000000       0.00000000      658        3        0        0        0
W       78.64970090      48.87602825      18.89771821      32.06000001       0.00000000       0.00000000       0.00000000      659        3        0        0        0
W       81.39398284      47.22220728      18.88674781      32.06000001       0.00000000       0.00000000       0.00000000      660        3        0        0        0
W       84.13614722      45.56779651      18.88336744      32.06000001       0.00000000       0.00000000       0.00000000      661        3        0        0        0
W       84.19513447      48.74718346      18.87477605      32.06000001       0.00000000       0.00000000       0.00000000      662        3        0        0        0
S        2.73039179       1.65378893      14.24492954     183.84000005       0.00000000       0.00000000       0.00000000      663        2        0        0        0
S        2.72364856       1.65111655      11.10583965     183.84000005       0.00000000       0.00000000       0.00000000      664        2        0        0       -1
S        5.53235565       0.11375751      14.23619293     183.84000005       0.00000000       0.00000000       0.00000000      665        2        0        0        0
S        5.51737681       0.11691925      11.09697099     183.84000005       0.00000000       0.00000000       0.00000000      666        2        0        0       -1
S        5.46893131       3.29786545      14.23265708     183.84000005       0.00000000       0.00000000       0.00000000      667        2        0        0        0
S        5.45226511       3.29099922      11.09334405     183.84000005       0.00000000       0.00000000       0.00000000      668        2        0        0       -1
S        8.27693409       1.76294968      14.21897295     183.84000005       0.00000000       0.00000000       0.00000000      669        2        0        0        0
S        8.25262447       1.76061693      11.07949756     183.84000005       0.00000000       0.00000000       0.00000000      670        2        0        0       -1
S       11.08713861       0.24179379      14.19825454     183.84000005       0.00000000       0.00000000       0.00000000      671        2        0        0        0
S       11.05883337       0.24098138      11.05862045     183.84000005       0.00000000       0.00000000       0.00000000      672        2        0        0       -1
S        5.39456075       6.48335132      14.21929980     183.84000005       0.00000000       0.00000000       0.00000000      673        2        0        0        0
S        5.37707800       6.46781427      11.07979141     183.84000005       0.00000000       0.00000000       0.00000000      674        2        0        0       -1
S        8.20633147       4.94326502      14.20959721     183.84000005       0.00000000       0.00000000       0.00000000      675        2        0        0        0
S        8.17976142       4.93179466      11.06993990     183.84000005       0.00000000       0.00000000       0.00000000      676        2        0        0       -1
S       11.01927047       3.41613133      14.19119059     183.84000005       0.00000000       0.00000000       0.00000000      677        2        0        0        0
S       10.98624100       3.40698122      11.05137692     183.84000005       0.00000000       0.00000000       0.00000000      678        2        0        0       -1
S       13.83285625       1.90302876      14.16859590     183.84000005       0.00000000       0.00000000       0.00000000      679        2        0        0        0
S       13.79833643       1.89294112      11.02865918     183.84000005       0.00000000       0.00000000       0.00000000      680        2        0        0       -1
S       16.64639841       0.40178526      14.14857106     183.84000005       0.00000000       0.00000000       0.00000000      681        2        0        0        0
S       16.61610408       0.38718283      11.00858993     183.84000005       0.00000000       0.00000000       0.00000000      682        2        0        0       -1
S        8.12330526       8.12529435      14.19169052     183.84000005       0.00000000       0.00000000       0.00000000      683        2        0        0        0
S        8.09586112       8.10748995      11.05180985     183.84000005       0.00000000       0.00000000       0.00000000      684        2        0        0       -1
S       10.93977558       6.59391551      14.17534348     183.84000005       0.00000000       0.00000000       0.00000000      685        2        0        0        0
S       10.90380900       6.57763936      11.03529033     183.84000005       0.00000000       0.00000000       0.00000000      686        2        0        0       -1
S       13.75608233       5.07620967      14.15283329     183.84000005       0.00000000       0.00000000       0.00000000      687        2        0        0        0
S       13.71584297       5.05952098      11.01263106     183.84000005       0.00000000       0.00000000       0.00000000      688        2        0        0       -1
S       16.57168455       3.57138155      14.12993731     183.84000005       0.00000000       0.00000000       0.00000000      689        2        0        0        0
S       16.53300236       3.55136013      10.98963836     183.84000005       0.00000000       0.00000000       0.00000000      690        2        0        0       -1
S       19.38611730       2.07581989      14.11337807     183.84000005       0.00000000       0.00000000       0.00000000      691        2        0        0        0
S       19.35426224       2.04987279      10.97305443     183.84000005       0.00000000       0.00000000       0.00000000      692        2        0        0       -1
S       22.19882949       0.58397261      14.10796099     183.84000005       0.00000000       0.00000000       0.00000000      693        2        0        0        0
S       22.17636720       0.55130872      10.96768804     183.84000005       0.00000000       0.00000000       0.00000000      694        2        0        0       -1
S        8.02733024      11.30715042      14.16983706     183.84000005       0.00000000       0.00000000       0.00000000      695        2        0        0        0
S        8.00049304      11.28892406      11.02976878     183.84000005       0.00000000       0.00000000       0.00000000      696        2        0        0       -1
S       10.84728023       9.77335856      14.15367881     183.84000005       0.00000000       0.00000000       0.00000000      697        2        0        0        0
S       10.81044920       9.75442779      11.01338765     183.84000005       0.00000000       0.00000000       0.00000000      698        2        0        0       -1
S       13.66647927       8.25244087      14.13076399     183.84000005       0.00000000       0.00000000       0.00000000      699        2        0        0        0
S       13.62314697       8.23219142      10.99028596     183.84000005       0.00000000       0.00000000       0.00000000      700        2        0        0       -1
S       16.48440248       6.74449222      14.10558023     183.84000005       0.00000000       0.00000000       0.00000000      701        2        0        0        0
S       16.44011251       6.72120998      10.96496928     183.84000005       0.00000000       0.00000000       0.00000000      702        2        0        0       -1
S       19.30071647       5.24714269      14.08439056     183.84000005       0.00000000       0.00000000       0.00000000      703        2        0        0        0
S       19.26136087       5.21870992      10.94370349     183.84000005       0.00000000       0.00000000       0.00000000      704        2        0        0       -1
S       22.11513821       3.75604039      14.07294720     183.84000005       0.00000000       0.00000000       0.00000000      705        2        0        0        0
S       22.08485129       3.72110969      10.93221638     183.84000005       0.00000000       0.00000000       0.00000000      706        2        0        0       -1
S       24.92708471       2.26593234      14.07402693     183.84000005       0.00000000       0.00000000       0.00000000      707        2        0        0        0
S       24.90687885       2.22501629      10.93331428     183.84000005       0.00000000       0.00000000       0.00000000      708        2        0        0       -1
S       27.73523020       0.77177541      14.08632731     183.84000005       0.00000000       0.00000000       0.00000000      709        2        0        0        0
S       27.72326159       0.72769278      10.94575101     183.84000005       0.00000000       0.00000000       0.00000000      710        2        0        0       -1
S       10.74305044      12.95293217      14.13228613     183.84000005       0.00000000       0.00000000       0.00000000      711        2        0        0        0
S       10.70721375      12.93800240      10.99183052     183.84000005       0.00000000       0.00000000       0.00000000      712        2        0        0       -1
S       13.56445772      11.43012685      14.10715606     183.84000005       0.00000000       0.00000000       0.00000000      713        2        0        0        0
S       13.52068767      11.41198792      10.96645450     183.84000005       0.00000000       0.00000000       0.00000000      714        2        0        0       -1
S       16.38434232       9.91998142      14.07913028     183.84000005       0.00000000       0.00000000       0.00000000      715        2        0        0        0
S       16.33771034       9.89801311      10.93827560     183.84000005       0.00000000       0.00000000       0.00000000      716        2        0        0       -1
S       19.20239144       8.42091312      14.05364913     183.84000005       0.00000000       0.00000000       0.00000000      717        2        0        0        0
S       19.15887140       8.39393486      10.91271336     183.84000005       0.00000000       0.00000000       0.00000000      718        2        0        0       -1
S       22.01848301       6.92959767      14.03648699     183.84000005       0.00000000       0.00000000       0.00000000      719        2        0        0        0
S       21.98309592       6.89646041      10.89547222     183.84000005       0.00000000       0.00000000       0.00000000      720        2        0        0       -1
S       24.83233178       5.44173665      14.03162449     183.84000005       0.00000000       0.00000000       0.00000000      721        2        0        0        0
S       24.80766284       5.40217499      10.89054069     183.84000005       0.00000000       0.00000000       0.00000000      722        2        0        0       -1
S       27.64309022       3.95280305      14.03991691     183.84000005       0.00000000       0.00000000       0.00000000      723        2        0        0        0
S       27.62895648       3.90826120      10.89882100     183.84000005       0.00000000       0.00000000       0.00000000      724        2        0        0       -1
S       30.44911950       2.45866746      14.05896865     183.84000005       0.00000000       0.00000000       0.00000000      725        2        0        0        0
S       30.44342876       2.41259274      10.91796146     183.84000005       0.00000000       0.00000000       0.00000000      726        2        0        0       -1
S       33.24829410       0.95633587      14.08418941     183.84000005       0.00000000       0.00000000       0.00000000      727        2        0        0        0
S       33.24845364       0.91346312      10.94342385     183.84000005       0.00000000       0.00000000       0.00000000      728        2        0        0       -1
S       10.63103262      16.13242567      14.11826875     183.84000005       0.00000000       0.00000000       0.00000000      729        2        0        0        0
S       10.59735144      16.12755110      10.97775973     183.84000005       0.00000000       0.00000000       0.00000000      730        2        0        0       -1
S       13.45303747      14.60833114      14.08877482     183.84000005       0.00000000       0.00000000       0.00000000      731        2        0        0        0
S       13.41074487      14.59861156      10.94792217     183.84000005       0.00000000       0.00000000       0.00000000      732        2        0        0       -1
S       16.27378813      13.09674241      14.05648322     183.84000005       0.00000000       0.00000000       0.00000000      733        2        0        0        0
S       16.22752494      13.08188455      10.91544272     183.84000005       0.00000000       0.00000000       0.00000000      734        2        0        0       -1
S       19.09285718      11.59635959      14.02625512     183.84000005       0.00000000       0.00000000       0.00000000      735        2        0        0        0
S       19.04838124      11.57590732      10.88515321     183.84000005       0.00000000       0.00000000       0.00000000      736        2        0        0       -1
S       21.91018577      10.10448484      14.00349320     183.84000005       0.00000000       0.00000000       0.00000000      737        2        0        0        0
S       21.87277837      10.07784463      10.86233095     183.84000005       0.00000000       0.00000000       0.00000000      738        2        0        0       -1
S       24.72566244       8.61763874      13.99246725     183.84000005       0.00000000       0.00000000       0.00000000      739        2        0        0        0
S       24.69880042       8.58439982      10.85121894     183.84000005       0.00000000       0.00000000       0.00000000      740        2        0        0       -1
S       27.53872115       7.13200607      13.99526319     183.84000005       0.00000000       0.00000000       0.00000000      741        2        0        0        0
S       27.52360579       7.09260749      10.85395909     183.84000005       0.00000000       0.00000000       0.00000000      742        2        0        0       -1
S       30.34817971       5.64374211      14.01149929     183.84000005       0.00000000       0.00000000       0.00000000      743        2        0        0        0
S       30.34403512       5.60018596      10.87018211     183.84000005       0.00000000       0.00000000       0.00000000      744        2        0        0       -1
S       33.15232061       4.14940246      14.03838087     183.84000005       0.00000000       0.00000000       0.00000000      745        2        0        0        0
S       33.15714943       4.10541872      10.89713234     183.84000005       0.00000000       0.00000000       0.00000000      746        2        0        0       -1
S       35.94934385       2.64651037      14.07140045     183.84000005       0.00000000       0.00000000       0.00000000      747        2        0        0        0
S       35.96079534       2.60676946      10.93039984     183.84000005       0.00000000       0.00000000       0.00000000      748        2        0        0       -1
S       38.73819166       1.13406975      14.10578140     183.84000005       0.00000000       0.00000000       0.00000000      749        2        0        0        0
S       38.75410734       1.10272952      10.96516425     183.84000005       0.00000000       0.00000000       0.00000000      750        2        0        0       -1
S       13.33711748      17.78749734      14.08155818     183.84000005       0.00000000       0.00000000       0.00000000      751        2        0        0        0
S       13.29720486      17.79036576      10.94065000     183.84000005       0.00000000       0.00000000       0.00000000      752        2        0        0       -1
S       16.15694768      16.27449800      14.04376812     183.84000005       0.00000000       0.00000000       0.00000000      753        2        0        0        0
S       16.11256111      16.27157285      10.90257625     183.84000005       0.00000000       0.00000000       0.00000000      754        2        0        0       -1
S       18.97574074      14.77298669      14.00789622     183.84000005       0.00000000       0.00000000       0.00000000      755        2        0        0        0
S       18.93240405      14.76374649      10.86662879     183.84000005       0.00000000       0.00000000       0.00000000      756        2        0        0       -1
S       21.79337646      13.28044289      13.97920097     183.84000005       0.00000000       0.00000000       0.00000000      757        2        0        0        0
S       21.75629427      13.26460472      10.83789069     183.84000005       0.00000000       0.00000000       0.00000000      758        2        0        0       -1
S       24.60982574      11.79387595      13.96186053     183.84000005       0.00000000       0.00000000       0.00000000      759        2        0        0        0
S       24.58275387      11.77117593      10.82047319     183.84000005       0.00000000       0.00000000       0.00000000      760        2        0        0       -1
S       27.42466511      10.31008925      13.95836001     183.84000005       0.00000000       0.00000000       0.00000000      761        2        0        0        0
S       27.40958761      10.28050252      10.81692058     183.84000005       0.00000000       0.00000000       0.00000000      762        2        0        0       -1
S       30.23694482       8.82569974      13.96950588     183.84000005       0.00000000       0.00000000       0.00000000      763        2        0        0        0
S       30.23423459       8.79006674      10.82806710     183.84000005       0.00000000       0.00000000       0.00000000      764        2        0        0       -1
S       33.04535589       7.33736657      13.99433800     183.84000005       0.00000000       0.00000000       0.00000000      765        2        0        0        0
S       33.05400751       7.29794580      10.85293392     183.84000005       0.00000000       0.00000000       0.00000000      766        2        0        0       -1
S       35.84845140       5.84211094      14.02989196     183.84000005       0.00000000       0.00000000       0.00000000      767        2        0        0        0
S       35.86635525       5.80260464      10.88860067     183.84000005       0.00000000       0.00000000       0.00000000      768        2        0        0       -1
S       38.64501681       4.33768596      14.07146156     183.84000005       0.00000000       0.00000000       0.00000000      769        2        0        0        0
S       38.66934254       4.30242397      10.93045627     183.84000005       0.00000000       0.00000000       0.00000000      770        2        0        0       -1
S       41.43463848       2.82302419      14.11374499     183.84000005       0.00000000       0.00000000       0.00000000      771        2        0        0        0
S       41.46224605       2.79562572      10.97313346     183.84000005       0.00000000       0.00000000       0.00000000      772        2        0        0       -1
S       44.21787576       1.29847196      14.15205855     183.84000005       0.00000000       0.00000000       0.00000000      773        2        0        0        0
S       44.24587674       1.28087587      11.01183424     183.84000005       0.00000000       0.00000000       0.00000000      774        2        0        0       -1
S       13.22220226      20.96952742      14.08768810     183.84000005       0.00000000       0.00000000       0.00000000      775        2        0        0        0
S       13.18501398      20.98506195      10.94691775     183.84000005       0.00000000       0.00000000       0.00000000      776        2        0        0       -1
S       16.03869863      19.45423594      14.04470674     183.84000005       0.00000000       0.00000000       0.00000000      777        2        0        0        0
S       15.99679065      19.46512787      10.90348179     183.84000005       0.00000000       0.00000000       0.00000000      778        2        0        0       -1
S       18.85538084      17.95111078      14.00280587     183.84000005       0.00000000       0.00000000       0.00000000      779        2        0        0        0
S       18.81411011      17.95587023      10.86143097     183.84000005       0.00000000       0.00000000       0.00000000      780        2        0        0       -1
S       21.67190406      16.45757391      13.96769255     183.84000005       0.00000000       0.00000000       0.00000000      781        2        0        0        0
S       21.63639016      16.45549034      10.82625930     183.84000005       0.00000000       0.00000000       0.00000000      782        2        0        0       -1
S       24.48820435      14.97073287      13.94370429     183.84000005       0.00000000       0.00000000       0.00000000      783        2        0        0        0
S       24.46219286      14.96146274      10.80219122     183.84000005       0.00000000       0.00000000       0.00000000      784        2        0        0       -1
S       27.30394127      13.48774799      13.93342653     183.84000005       0.00000000       0.00000000       0.00000000      785        2        0        0        0
S       27.28965874      13.47106154      10.79185795     183.84000005       0.00000000       0.00000000       0.00000000      786        2        0        0       -1
S       30.11826111      12.00563095      13.93815120     183.84000005       0.00000000       0.00000000       0.00000000      787        2        0        0        0
S       30.11671708      11.98169746      10.79658997     183.84000005       0.00000000       0.00000000       0.00000000      788        2        0        0       -1
S       32.93001429      10.52128808      13.95801000     183.84000005       0.00000000       0.00000000       0.00000000      789        2        0        0        0
S       32.94111318      10.49114964      10.81652289     183.84000005       0.00000000       0.00000000       0.00000000      790        2        0        0       -1
S       35.73809195       9.03174038      13.99165704     183.84000005       0.00000000       0.00000000       0.00000000      791        2        0        0        0
S       35.76044221       8.99765391      10.85029266     183.84000005       0.00000000       0.00000000       0.00000000      792        2        0        0       -1
S       38.54158890       7.53423779      14.03568935     183.84000005       0.00000000       0.00000000       0.00000000      793        2        0        0        0
S       38.57231858       7.49960734      10.89450935     183.84000005       0.00000000       0.00000000       0.00000000      794        2        0        0       -1
S       41.33991381       6.02651087      14.08462036     183.84000005       0.00000000       0.00000000       0.00000000      795        2        0        0        0
S       41.37496428       5.99514317      10.94374339     183.84000005       0.00000000       0.00000000       0.00000000      796        2        0        0       -1
S       44.13299712       4.50742014      14.13221510     183.84000005       0.00000000       0.00000000       0.00000000      797        2        0        0        0
S       44.16801098       4.48242593      10.99172803     183.84000005       0.00000000       0.00000000       0.00000000      798        2        0        0       -1
S       46.92129091       2.97758179      14.17332161     183.84000005       0.00000000       0.00000000       0.00000000      799        2        0        0        0
S       46.95278636       2.96062442      11.03324356     183.84000005       0.00000000       0.00000000       0.00000000      800        2        0        0       -1
S       49.70590814       1.43937922      14.20503713     183.84000005       0.00000000       0.00000000       0.00000000      801        2        0        0        0
S       49.73187918       1.43060350      11.06534545     183.84000005       0.00000000       0.00000000       0.00000000      802        2        0        0       -1
S       15.92375279      22.63802450      14.05905631     183.84000005       0.00000000       0.00000000       0.00000000      803        2        0        0        0
S       15.88483171      22.66087438      10.91799797     183.84000005       0.00000000       0.00000000       0.00000000      804        2        0        0       -1
S       18.73600933      21.13197034      14.01245471     183.84000005       0.00000000       0.00000000       0.00000000      805        2        0        0        0
S       18.69727630      21.15073248      10.87110428     183.84000005       0.00000000       0.00000000       0.00000000      806        2        0        0       -1
S       21.54961333      19.63651147      13.97116660     183.84000005       0.00000000       0.00000000       0.00000000      807        2        0        0        0
S       21.51615530      19.64925500      10.82971501     183.84000005       0.00000000       0.00000000       0.00000000      808        2        0        0       -1
S       24.36426960      18.14864483      13.94031079     183.84000005       0.00000000       0.00000000       0.00000000      809        2        0        0        0
S       24.33987968      18.15430394      10.79875557     183.84000005       0.00000000       0.00000000       0.00000000      810        2        0        0       -1
S       27.17961870      16.66556192      13.92285398     183.84000005       0.00000000       0.00000000       0.00000000      811        2        0        0        0
S       27.16656606      16.66351032      10.78122226     183.84000005       0.00000000       0.00000000       0.00000000      812        2        0        0       -1
S       29.99487158      15.18447451      13.92036741     183.84000005       0.00000000       0.00000000       0.00000000      813        2        0        0        0
S       29.99437020      15.17443977      10.77872287     183.84000005       0.00000000       0.00000000       0.00000000      814        2        0        0       -1
S       32.80891253      13.70247133      13.93351586     183.84000005       0.00000000       0.00000000       0.00000000      815        2        0        0        0
S       32.82136074      13.68474145      10.79193689     183.84000005       0.00000000       0.00000000       0.00000000      816        2        0        0       -1
S       35.62070714      12.21666683      13.96191698     183.84000005       0.00000000       0.00000000       0.00000000      817        2        0        0        0
S       35.64542126      12.19231811      10.82049452     183.84000005       0.00000000       0.00000000       0.00000000      818        2        0        0       -1
S       38.42962114      10.72426404      14.00357470     183.84000005       0.00000000       0.00000000       0.00000000      819        2        0        0        0
S       38.46423437      10.69533105      10.86235323     183.84000005       0.00000000       0.00000000       0.00000000      820        2        0        0       -1
S       41.23534383       9.22248832      14.05404775     183.84000005       0.00000000       0.00000000       0.00000000      821        2        0        0        0
S       41.27554785       9.19191452      10.91304125     183.84000005       0.00000000       0.00000000       0.00000000      822        2        0        0       -1
S       44.03763028       7.70904231      14.10670696     183.84000005       0.00000000       0.00000000       0.00000000      823        2        0        0        0
S       44.07803785       7.68013567      10.96601892     183.84000005       0.00000000       0.00000000       0.00000000      824        2        0        0       -1
S       46.83624288       6.18323398      14.15494007     183.84000005       0.00000000       0.00000000       0.00000000      825        2        0        0        0
S       46.87207143       6.15876931      11.01466881     183.84000005       0.00000000       0.00000000       0.00000000      826        2        0        0       -1
S       49.63113706       4.64653412      14.19420165     183.84000005       0.00000000       0.00000000       0.00000000      827        2        0        0        0
S       49.65949642       4.62814186      11.05434531     183.84000005       0.00000000       0.00000000       0.00000000      828        2        0        0       -1
S       52.42296264       3.10208425      14.22253137     183.84000005       0.00000000       0.00000000       0.00000000      829        2        0        0        0
S       52.44290921       3.09030768      11.08305318     183.84000005       0.00000000       0.00000000       0.00000000      830        2        0        0       -1
S       55.21343576       1.55392964      14.23988721     183.84000005       0.00000000       0.00000000       0.00000000      831        2        0        0        0
S       55.22501426       1.54878226      11.10070302     183.84000005       0.00000000       0.00000000       0.00000000      832        2        0        0       -1
S       15.81618985      25.82828749      14.08266897     183.84000005       0.00000000       0.00000000       0.00000000      833        2        0        0        0
S       15.78124090      25.85811129      10.94199692     183.84000005       0.00000000       0.00000000       0.00000000      834        2        0        0       -1
S       18.62145150      24.31752767      14.03499315     183.84000005       0.00000000       0.00000000       0.00000000      835        2        0        0        0
S       18.58615009      24.34732974      10.89381323     183.84000005       0.00000000       0.00000000       0.00000000      836        2        0        0       -1
S       21.43003690      22.81845728      13.98959097     183.84000005       0.00000000       0.00000000       0.00000000      837        2        0        0        0
S       21.39916005      22.84491258      10.84822849     183.84000005       0.00000000       0.00000000       0.00000000      838        2        0        0       -1
S       24.24137826      21.32827179      13.95255145     183.84000005       0.00000000       0.00000000       0.00000000      839        2        0        0        0
S       24.21884700      21.34891354      10.81106216     183.84000005       0.00000000       0.00000000       0.00000000      840        2        0        0       -1
S       27.05486088      19.84401378      13.92787298     183.84000005       0.00000000       0.00000000       0.00000000      841        2        0        0        0
S       27.04313510      19.85727255      10.78626687     183.84000005       0.00000000       0.00000000       0.00000000      842        2        0        0       -1
S       29.86966229      18.36284930      13.91770143     183.84000005       0.00000000       0.00000000       0.00000000      843        2        0        0        0
S       29.87008408      18.36784441      10.77604452     183.84000005       0.00000000       0.00000000       0.00000000      844        2        0        0       -1
S       32.68467986      16.88189439      13.92314045     183.84000005       0.00000000       0.00000000       0.00000000      845        2        0        0        0
S       32.69785967      16.87837577      10.78151217     183.84000005       0.00000000       0.00000000       0.00000000      846        2        0        0       -1
S       35.49884271      15.39826074      13.94435339     183.84000005       0.00000000       0.00000000       0.00000000      847        2        0        0        0
S       35.52450863      15.38658946      10.80285513     183.84000005       0.00000000       0.00000000       0.00000000      848        2        0        0       -1
S       38.31152909      13.90914336      13.98018492     183.84000005       0.00000000       0.00000000       0.00000000      849        2        0        0        0
S       38.34788401      13.89028282      10.83890390     183.84000005       0.00000000       0.00000000       0.00000000      850        2        0        0       -1
S       41.12266972      12.41168198      14.02737749     183.84000005       0.00000000       0.00000000       0.00000000      851        2        0        0        0
S       41.16573163      12.38732553      10.88631292     183.84000005       0.00000000       0.00000000       0.00000000      852        2        0        0       -1
S       43.93229222      10.90304532      14.08003848     183.84000005       0.00000000       0.00000000       0.00000000      853        2        0        0        0
S       43.97627810      10.87572571      10.93922807     183.84000005       0.00000000       0.00000000       0.00000000      854        2        0        0       -1
S       46.73997502       9.38152730      14.13111805     183.84000005       0.00000000       0.00000000       0.00000000      855        2        0        0        0
S       46.77913675       9.35415762      10.99068725     183.84000005       0.00000000       0.00000000       0.00000000      856        2        0        0       -1
S       49.54491845       7.84758891      14.17499149     183.84000005       0.00000000       0.00000000       0.00000000      857        2        0        0        0
S       49.57543203       7.82269288      11.03497663     183.84000005       0.00000000       0.00000000       0.00000000      858        2        0        0       -1
S       52.34658494       6.30368734      14.20861498     183.84000005       0.00000000       0.00000000       0.00000000      859        2        0        0        0
S       52.36711278       6.28304687      11.06897811     183.84000005       0.00000000       0.00000000       0.00000000      860        2        0        0       -1
S       55.14541490       4.75364224      14.23125663     183.84000005       0.00000000       0.00000000       0.00000000      861        2        0        0        0
S       55.15632337       4.73839051      11.09194117     183.84000005       0.00000000       0.00000000       0.00000000      862        2        0        0       -1
S       57.94308708       3.20203915      14.24329588     183.84000005       0.00000000       0.00000000       0.00000000      863        2        0        0        0
S       57.94505713       3.19290906      11.10418256     183.84000005       0.00000000       0.00000000       0.00000000      864        2        0        0       -1
S       18.51492132      27.50992903      14.06557286     183.84000005       0.00000000       0.00000000       0.00000000      865        2        0        0        0
S       18.48471823      27.54550894      10.92473635     183.84000005       0.00000000       0.00000000       0.00000000      866        2        0        0       -1
S       21.31629784      26.00517107      14.02032077     183.84000005       0.00000000       0.00000000       0.00000000      867        2        0        0        0
S       21.28930258      26.04189606      10.87913602     183.84000005       0.00000000       0.00000000       0.00000000      868        2        0        0       -1
S       24.12255355      24.51068797      13.97959270     183.84000005       0.00000000       0.00000000       0.00000000      869        2        0        0        0
S       24.10248196      24.54462753      10.83825690     183.84000005       0.00000000       0.00000000       0.00000000      870        2        0        0       -1
S       26.93272996      23.02370402      13.94863093     183.84000005       0.00000000       0.00000000       0.00000000      871        2        0        0        0
S       26.92237294      23.05177110      10.80715464     183.84000005       0.00000000       0.00000000       0.00000000      872        2        0        0       -1
S       29.74570434      21.54121543      13.93081921     183.84000005       0.00000000       0.00000000       0.00000000      873        2        0        0        0
S       29.74678992      21.56144176      10.78923420     183.84000005       0.00000000       0.00000000       0.00000000      874        2        0        0       -1
S       32.56028247      20.06018100      13.92804772     183.84000005       0.00000000       0.00000000       0.00000000      875        2        0        0        0
S       32.57371285      20.07162928      10.78643808     183.84000005       0.00000000       0.00000000       0.00000000      876        2        0        0       -1
S       35.37533854      18.57755093      13.94105530     183.84000005       0.00000000       0.00000000       0.00000000      877        2        0        0        0
S       35.40113502      18.58009671      10.79952205     183.84000005       0.00000000       0.00000000       0.00000000      878        2        0        0       -1
S       38.19016417      17.09035920      13.96920612     183.84000005       0.00000000       0.00000000       0.00000000      879        2        0        0        0
S       38.22692376      17.08439890      10.82784638     183.84000005       0.00000000       0.00000000       0.00000000      880        2        0        0       -1
S       41.00469377      15.59565140      14.00992855     183.84000005       0.00000000       0.00000000       0.00000000      881        2        0        0        0
S       41.04888816      15.58198625      10.86878447     183.84000005       0.00000000       0.00000000       0.00000000      882        2        0        0       -1
S       43.81921095      14.09044533      14.05821538     183.84000005       0.00000000       0.00000000       0.00000000      883        2        0        0        0
S       43.86519973      14.07053344      10.91732734     183.84000005       0.00000000       0.00000000       0.00000000      884        2        0        0       -1
S       46.63356716      12.57254182      14.10748958     183.84000005       0.00000000       0.00000000       0.00000000      885        2        0        0        0
S       46.67512856      12.54857961      10.96695589     183.84000005       0.00000000       0.00000000       0.00000000      886        2        0        0       -1
S       49.44676351      11.04166166      14.15185619     183.84000005       0.00000000       0.00000000       0.00000000      887        2        0        0        0
S       49.47929856      11.01610603      11.01171604     183.84000005       0.00000000       0.00000000       0.00000000      888        2        0        0       -1
S       52.25751236       9.49956506      14.18767709     183.84000005       0.00000000       0.00000000       0.00000000      889        2        0        0        0
S       52.27912481       9.47468823      11.04789227     183.84000005       0.00000000       0.00000000       0.00000000      890        2        0        0       -1
S       55.06516671       7.94956660      14.21368330     183.84000005       0.00000000       0.00000000       0.00000000      891        2        0        0        0
S       55.07614773       7.92731010      11.07419237     183.84000005       0.00000000       0.00000000       0.00000000      892        2        0        0       -1
S       57.87034997       6.39599845      14.22992560     183.84000005       0.00000000       0.00000000       0.00000000      893        2        0        0        0
S       57.87171243       6.37797054      11.09063539     183.84000005       0.00000000       0.00000000       0.00000000      894        2        0        0       -1
S       60.67480967       4.84374371      14.23640300     183.84000005       0.00000000       0.00000000       0.00000000      895        2        0        0        0
S       60.66707168       4.83112998      11.09717424     183.84000005       0.00000000       0.00000000       0.00000000      896        2        0        0       -1
S       18.41845947      30.71050385      14.09811655     183.84000005       0.00000000       0.00000000       0.00000000      897        2        0        0        0
S       18.39544035      30.74594223      10.95773210     183.84000005       0.00000000       0.00000000       0.00000000      898        2        0        0       -1
S       21.21104557      29.19857812      14.05829394     183.84000005       0.00000000       0.00000000       0.00000000      899        2        0        0        0
S       21.19001486      29.24021953      10.91742109     183.84000005       0.00000000       0.00000000       0.00000000      900        2        0        0       -1
S       24.01047505      27.69751726      14.01840032     183.84000005       0.00000000       0.00000000       0.00000000      901        2        0        0        0
S       23.99430709      27.74096296      10.87727154     183.84000005       0.00000000       0.00000000       0.00000000      902        2        0        0       -1
S       26.81595362      26.20565212      13.98379563     183.84000005       0.00000000       0.00000000       0.00000000      903        2        0        0        0
S       26.80744043      26.24633810      10.84253019     183.84000005       0.00000000       0.00000000       0.00000000      904        2        0        0       -1
S       29.62593512      24.72017272      13.95934991     183.84000005       0.00000000       0.00000000       0.00000000      905        2        0        0        0
S       29.62741243      24.75455285      10.81794043     183.84000005       0.00000000       0.00000000       0.00000000      906        2        0        0       -1
S       32.43885846      23.23782628      13.94843211     183.84000005       0.00000000       0.00000000       0.00000000      907        2        0        0        0
S       32.45189748      23.26382208      10.80692264     183.84000005       0.00000000       0.00000000       0.00000000      908        2        0        0       -1
S       35.25343076      21.75524189      13.95279694     183.84000005       0.00000000       0.00000000       0.00000000      909        2        0        0        0
S       35.27857608      21.77209653      10.81129212     183.84000005       0.00000000       0.00000000       0.00000000      910        2        0        0       -1
S       38.06883591      20.26908819      13.97245600     183.84000005       0.00000000       0.00000000       0.00000000      911        2        0        0        0
S       38.10509262      20.27689613      10.83105822     183.84000005       0.00000000       0.00000000       0.00000000      912        2        0        0       -1
S       40.88491401      18.77609850      14.00525245     183.84000005       0.00000000       0.00000000       0.00000000      913        2        0        0        0
S       40.92913012      18.77534850      10.86402937     183.84000005       0.00000000       0.00000000       0.00000000      914        2        0        0       -1
S       43.70198964      17.27310521      14.04663124     183.84000005       0.00000000       0.00000000       0.00000000      915        2        0        0        0
S       43.74882327      17.26462883      10.90567150     183.84000005       0.00000000       0.00000000       0.00000000      916        2        0        0       -1
S       46.52020580      15.75772630      14.09055274     183.84000005       0.00000000       0.00000000       0.00000000      917        2        0        0        0
S       46.56338150      15.74285009      10.94997050     183.84000005       0.00000000       0.00000000       0.00000000      918        2        0        0       -1
S       49.33884203      14.22935349      14.13143095     183.84000005       0.00000000       0.00000000       0.00000000      919        2        0        0        0
S       49.37326278      14.20977401      10.99123554     183.84000005       0.00000000       0.00000000       0.00000000      920        2        0        0       -1
S       52.15643742      12.68930589      14.16559642     183.84000005       0.00000000       0.00000000       0.00000000      921        2        0        0        0
S       52.17963245      12.66688884      11.02572066     183.84000005       0.00000000       0.00000000       0.00000000      922        2        0        0       -1
S       54.97169796      11.14046860      14.19163823     183.84000005       0.00000000       0.00000000       0.00000000      923        2        0        0        0
S       54.98364974      11.11712804      11.05200547     183.84000005       0.00000000       0.00000000       0.00000000      924        2        0        0       -1
S       57.78434834       9.58677651      14.20949422     183.84000005       0.00000000       0.00000000       0.00000000      925        2        0        0        0
S       57.78608037       9.56442575      11.07001693     183.84000005       0.00000000       0.00000000       0.00000000      926        2        0        0       -1
S       60.59531995       8.03277756      14.21901300     183.84000005       0.00000000       0.00000000       0.00000000      927        2        0        0        0
S       60.58745530       8.01320469      11.07957922     183.84000005       0.00000000       0.00000000       0.00000000      928        2        0        0       -1
S       21.11600403      32.39974821      14.09753972     183.84000005       0.00000000       0.00000000       0.00000000      929        2        0        0        0
S       21.10306742      32.44042744      10.95708333     183.84000005       0.00000000       0.00000000       0.00000000      930        2        0        0       -1
S       23.90754159      30.89053679      14.06366573     183.84000005       0.00000000       0.00000000       0.00000000      931        2        0        0        0
S       23.89723033      30.93778563      10.92283429     183.84000005       0.00000000       0.00000000       0.00000000      932        2        0        0       -1
S       26.70702681      29.39142053      14.02984823     183.84000005       0.00000000       0.00000000       0.00000000      933        2        0        0        0
S       26.70147382      29.44029141      10.88880515     183.84000005       0.00000000       0.00000000       0.00000000      934        2        0        0       -1
S       29.51298573      27.90074236      14.00131552     183.84000005       0.00000000       0.00000000       0.00000000      935        2        0        0        0
S       29.51484647      27.94624664      10.86012801     183.84000005       0.00000000       0.00000000       0.00000000      936        2        0        0       -1
S       32.32336791      26.41545148      13.98317962     183.84000005       0.00000000       0.00000000       0.00000000      937        2        0        0        0
S       32.33517774      26.45392827      10.84183822     183.84000005       0.00000000       0.00000000       0.00000000      938        2        0        0       -1
S       35.13645010      24.93185915      13.97894653     183.84000005       0.00000000       0.00000000       0.00000000      939        2        0        0        0
S       35.15975380      24.96145500      10.83751817     183.84000005       0.00000000       0.00000000       0.00000000      940        2        0        0       -1
S       37.95118830      23.44609964      13.98981905     183.84000005       0.00000000       0.00000000       0.00000000      941        2        0        0        0
S       37.98574064      23.46645793      10.84842307     183.84000005       0.00000000       0.00000000       0.00000000      942        2        0        0       -1
S       40.76728786      21.95433352      14.01426263     183.84000005       0.00000000       0.00000000       0.00000000      943        2        0        0        0
S       40.81042462      21.96594549      10.87300415     183.84000005       0.00000000       0.00000000       0.00000000      944        2        0        0       -1
S       43.58499910      20.45294649      14.04795928     183.84000005       0.00000000       0.00000000       0.00000000      945        2        0        0        0
S       43.63167496      20.45667554      10.90697039     183.84000005       0.00000000       0.00000000       0.00000000      946        2        0        0       -1
S       46.40456565      18.93928908      14.08500220     183.84000005       0.00000000       0.00000000       0.00000000      947        2        0        0        0
S       46.44857789      18.93615197      10.94442280     183.84000005       0.00000000       0.00000000       0.00000000      948        2        0        0       -1
S       49.22560760      17.41260559      14.11996193     183.84000005       0.00000000       0.00000000       0.00000000      949        2        0        0        0
S       49.26159724      17.40360702      10.97979297     183.84000005       0.00000000       0.00000000       0.00000000      950        2        0        0       -1
S       52.04695159      15.87409777      14.14934283     183.84000005       0.00000000       0.00000000       0.00000000      951        2        0        0        0
S       52.07196501      15.86024009      11.00947895     183.84000005       0.00000000       0.00000000       0.00000000      952        2        0        0       -1
S       54.86721381      14.32648758      14.17192890     183.84000005       0.00000000       0.00000000       0.00000000      953        2        0        0        0
S       54.88082261      14.30890686      11.03225473     183.84000005       0.00000000       0.00000000       0.00000000      954        2        0        0       -1
S       57.68564555      12.77347666      14.18788327     183.84000005       0.00000000       0.00000000       0.00000000      955        2        0        0        0
S       57.68868035      12.75355821      11.04829441     183.84000005       0.00000000       0.00000000       0.00000000      956        2        0        0       -1
S       60.50249146      11.21927047      14.19722567     183.84000005       0.00000000       0.00000000       0.00000000      957        2        0        0        0
S       60.49551597      11.19865411      11.05762228     183.84000005       0.00000000       0.00000000       0.00000000      958        2        0        0       -1
S       63.31863825       9.66836395      14.19896543     183.84000005       0.00000000       0.00000000       0.00000000      959        2        0        0        0
S       63.30144473       9.64866562      11.05925300     183.84000005       0.00000000       0.00000000       0.00000000      960        2        0        0       -1
S       21.03161986      35.60805259      14.13311477     183.84000005       0.00000000       0.00000000       0.00000000      961        2        0        0        0
S       21.02802993      35.64316488      10.99303438     183.84000005       0.00000000       0.00000000       0.00000000      962        2        0        0       -1
S       23.81544805      34.09051176      14.10912931     183.84000005       0.00000000       0.00000000       0.00000000      963        2        0        0        0
S       23.81252454      34.13540378      10.96868220     183.84000005       0.00000000       0.00000000       0.00000000      964        2        0        0       -1
S       26.60832226      32.58254665      14.08082814     183.84000005       0.00000000       0.00000000       0.00000000      965        2        0        0        0
S       26.60698289      32.63329447      10.94006587     183.84000005       0.00000000       0.00000000       0.00000000      966        2        0        0       -1
S       29.40936935      31.08431355      14.05224478     183.84000005       0.00000000       0.00000000       0.00000000      967        2        0        0        0
S       29.41193147      31.13562357      10.91127027     183.84000005       0.00000000       0.00000000       0.00000000      968        2        0        0       -1
S       32.21651354      29.59392993      14.02914143     183.84000005       0.00000000       0.00000000       0.00000000      969        2        0        0        0
S       32.22623427      29.64075136      10.88799491     183.84000005       0.00000000       0.00000000       0.00000000      970        2        0        0       -1
S       35.02750382      28.10785421      14.01703697     183.84000005       0.00000000       0.00000000       0.00000000      971        2        0        0        0
S       35.04727524      28.14681282      10.87573715     183.84000005       0.00000000       0.00000000       0.00000000      972        2        0        0       -1
S       37.84082658      26.62172904      14.01911311     183.84000005       0.00000000       0.00000000       0.00000000      973        2        0        0        0
S       37.87170389      26.65153301      10.87776845     183.84000005       0.00000000       0.00000000       0.00000000      974        2        0        0       -1
S       40.65591737      25.13096463      14.03511743     183.84000005       0.00000000       0.00000000       0.00000000      975        2        0        0        0
S       40.69614835      25.15194800      10.89388871     183.84000005       0.00000000       0.00000000       0.00000000      976        2        0        0       -1
S       43.47287654      23.63120159      14.06126499     183.84000005       0.00000000       0.00000000       0.00000000      977        2        0        0        0
S       43.51789706      23.64458881      10.92033757     183.84000005       0.00000000       0.00000000       0.00000000      978        2        0        0       -1
S       46.29191321      22.11919215      14.09159970     183.84000005       0.00000000       0.00000000       0.00000000      979        2        0        0        0
S       46.33561939      22.12639449      10.95112347     183.84000005       0.00000000       0.00000000       0.00000000      980        2        0        0       -1
S       49.11281943      20.59383013      14.12037326     183.84000005       0.00000000       0.00000000       0.00000000      981        2        0        0        0
S       49.14963380      20.59586831      10.98033409     183.84000005       0.00000000       0.00000000       0.00000000      982        2        0        0       -1
S       51.93478956      19.05627706      14.14386406     183.84000005       0.00000000       0.00000000       0.00000000      983        2        0        0        0
S       51.96134465      19.05362635      11.00413011     183.84000005       0.00000000       0.00000000       0.00000000      984        2        0        0       -1
S       54.75675073      17.50935903      14.16093613     183.84000005       0.00000000       0.00000000       0.00000000      985        2        0        0        0
S       54.77220569      17.50222238      11.02135853     183.84000005       0.00000000       0.00000000       0.00000000      986        2        0        0       -1
S       57.57800227      15.95683574      14.17211908     183.84000005       0.00000000       0.00000000       0.00000000      987        2        0        0        0
S       57.58290404      15.94554345      11.03256177     183.84000005       0.00000000       0.00000000       0.00000000      988        2        0        0       -1
S       60.39852577      14.40281903      14.17790751     183.84000005       0.00000000       0.00000000       0.00000000      989        2        0        0        0
S       60.39326842      14.38810354      11.03825470     183.84000005       0.00000000       0.00000000       0.00000000      990        2        0        0       -1
S       63.21872640      12.85152764      14.17764686     183.84000005       0.00000000       0.00000000       0.00000000      991        2        0        0        0
S       63.20290413      12.83450220      11.03780910     183.84000005       0.00000000       0.00000000       0.00000000      992        2        0        0       -1
S       23.73466612      37.29642145      14.14959177     183.84000005       0.00000000       0.00000000       0.00000000      993        2        0        0        0
S       23.73944906      37.33430022      11.00951653     183.84000005       0.00000000       0.00000000       0.00000000      994        2        0        0       -1
S       26.52142737      35.77934952      14.12996596     183.84000005       0.00000000       0.00000000       0.00000000      995        2        0        0        0
S       26.52493162      35.82568171      10.98958650     183.84000005       0.00000000       0.00000000       0.00000000      996        2        0        0       -1
S       29.31730535      34.27196386      14.10537359     183.84000005       0.00000000       0.00000000       0.00000000      997        2        0        0        0
S       29.32090109      34.32249496      10.96470977     183.84000005       0.00000000       0.00000000       0.00000000      998        2        0        0       -1
S       32.12069126      32.77421301      14.08071281     183.84000005       0.00000000       0.00000000       0.00000000      999        2        0        0        0
S       32.12768741      32.82359020      10.93983299     183.84000005       0.00000000       0.00000000       0.00000000     1000        2        0        0       -1
S       34.92921226      31.28365383      14.06251164     183.84000005       0.00000000       0.00000000       0.00000000     1001        2        0        0        0
S       34.94364970      31.32716132      10.92146344     183.84000005       0.00000000       0.00000000       0.00000000     1002        2        0        0       -1
S       37.74080824      29.79594489      14.05622753     183.84000005       0.00000000       0.00000000       0.00000000     1003        2        0        0        0
S       37.76544312      29.83090371      10.91508792     183.84000005       0.00000000       0.00000000       0.00000000     1004        2        0        0       -1
S       40.55442725      28.30582147      14.06375538     183.84000005       0.00000000       0.00000000       0.00000000     1005        2        0        0        0
S       40.58902825      28.33187685      10.92270336     183.84000005       0.00000000       0.00000000       0.00000000     1006        2        0        0       -1
S       43.36987485      26.80799260      14.08259740     183.84000005       0.00000000       0.00000000       0.00000000     1007        2        0        0        0
S       43.41082874      26.82652303      10.94187018     183.84000005       0.00000000       0.00000000       0.00000000     1008        2        0        0       -1
S       46.18721964      25.29825315      14.10706369     183.84000005       0.00000000       0.00000000       0.00000000     1009        2        0        0        0
S       46.22872618      25.31136376      10.96683188     183.84000005       0.00000000       0.00000000       0.00000000     1010        2        0        0       -1
S       49.00626752      23.77471245      14.13087789     183.84000005       0.00000000       0.00000000       0.00000000     1011        2        0        0        0
S       49.04253199      23.78415980      10.99111200     183.84000005       0.00000000       0.00000000       0.00000000     1012        2        0        0       -1
S       51.82642188      22.23818968      14.14953702     183.84000005       0.00000000       0.00000000       0.00000000     1013        2        0        0        0
S       51.85361043      22.24475016      11.01007897     183.84000005       0.00000000       0.00000000       0.00000000     1014        2        0        0       -1
S       54.64698290      20.69161839      14.16142018     183.84000005       0.00000000       0.00000000       0.00000000     1015        2        0        0        0
S       54.66381257      20.69514579      11.02209175     183.84000005       0.00000000       0.00000000       0.00000000     1016        2        0        0       -1
S       57.46762783      19.13903164      14.16709218     183.84000005       0.00000000       0.00000000       0.00000000     1017        2        0        0        0
S       57.47434665      19.13897747      11.02772869     183.84000005       0.00000000       0.00000000       0.00000000     1018        2        0        0       -1
S       60.28856318      17.58475866      14.16748335     183.84000005       0.00000000       0.00000000       0.00000000     1019        2        0        0        0
S       60.28536515      17.58071171      11.02794603     183.84000005       0.00000000       0.00000000       0.00000000     1020        2        0        0       -1
S       63.11014730      16.03305986      14.16250577     183.84000005       0.00000000       0.00000000       0.00000000     1021        2        0        0        0
S       63.09641768      16.02501995      11.02268991     183.84000005       0.00000000       0.00000000       0.00000000     1022        2        0        0       -1
S       65.93236283      14.48797372      14.15105559     183.84000005       0.00000000       0.00000000       0.00000000     1023        2        0        0        0
S       65.90732318      14.47629127      11.01091096     183.84000005       0.00000000       0.00000000       0.00000000     1024        2        0        0       -1
S       23.66421866      40.50600258      14.18209082     183.84000005       0.00000000       0.00000000       0.00000000     1025        2        0        0        0
S       23.67562178      40.53458960      11.04232624     183.84000005       0.00000000       0.00000000       0.00000000     1026        2        0        0       -1
S       26.44637147      38.98055158      14.17203201     183.84000005       0.00000000       0.00000000       0.00000000     1027        2        0        0        0
S       26.45432975      39.01814915      11.03204844     183.84000005       0.00000000       0.00000000       0.00000000     1028        2        0        0       -1
S       29.23771220      37.46362266      14.15398928     183.84000005       0.00000000       0.00000000       0.00000000     1029        2        0        0        0
S       29.24237608      37.50763646      11.01374177     183.84000005       0.00000000       0.00000000       0.00000000     1030        2        0        0       -1
S       32.03731858      35.95690248      14.13112617     183.84000005       0.00000000       0.00000000       0.00000000     1031        2        0        0        0
S       32.04135506      36.00288742      10.99062693     183.84000005       0.00000000       0.00000000       0.00000000     1032        2        0        0       -1
S       34.84314109      34.45971909      14.10953683     183.84000005       0.00000000       0.00000000       0.00000000     1033        2        0        0        0
S       34.85106021      34.50254311      10.96885853     183.84000005       0.00000000       0.00000000       0.00000000     1034        2        0        0       -1
S       37.65290966      32.96866206      14.09612291     183.84000005       0.00000000       0.00000000       0.00000000     1035        2        0        0        0
S       37.66902446      33.00432850      10.95535433     183.84000005       0.00000000       0.00000000       0.00000000     1036        2        0        0       -1
S       40.46501908      31.47830922      14.09532386     183.84000005       0.00000000       0.00000000       0.00000000     1037        2        0        0        0
S       40.49107111      31.50524044      10.95461327     183.84000005       0.00000000       0.00000000       0.00000000     1038        2        0        0       -1
S       43.27879846      29.98252182      14.10684803     183.84000005       0.00000000       0.00000000       0.00000000     1039        2        0        0        0
S       43.31274800      30.00164916      10.96643624     183.84000005       0.00000000       0.00000000       0.00000000     1040        2        0        0       -1
S       46.09403793      28.47592720      14.12602571     183.84000005       0.00000000       0.00000000       0.00000000     1041        2        0        0        0
S       46.13083407      28.48978011      10.98611727     183.84000005       0.00000000       0.00000000       0.00000000     1042        2        0        0       -1
S       48.91042694      26.95542699      14.14633631     183.84000005       0.00000000       0.00000000       0.00000000     1043        2        0        0        0
S       48.94421110      26.96673635      11.00692737     183.84000005       0.00000000       0.00000000       0.00000000     1044        2        0        0       -1
S       51.72738449      25.42098821      14.16226550     183.84000005       0.00000000       0.00000000       0.00000000     1045        2        0        0        0
S       51.75378863      25.43150897      11.02319462     183.84000005       0.00000000       0.00000000       0.00000000     1046        2        0        0       -1
S       54.54439925      23.87529494      14.17113142     183.84000005       0.00000000       0.00000000       0.00000000     1047        2        0        0        0
S       54.56158226      23.88538689      11.03219873     183.84000005       0.00000000       0.00000000       0.00000000     1048        2        0        0       -1
S       57.36153259      22.32258994      14.17293918     183.84000005       0.00000000       0.00000000       0.00000000     1049        2        0        0        0
S       57.36940363      22.33157834      11.03394155     183.84000005       0.00000000       0.00000000       0.00000000     1050        2        0        0       -1
S       60.17948295      20.76756939      14.16862629     183.84000005       0.00000000       0.00000000       0.00000000     1051        2        0        0        0
S       60.17806202      20.77438369      11.02938505     183.84000005       0.00000000       0.00000000       0.00000000     1052        2        0        0       -1
S       62.99903469      19.21483336      14.15846878     183.84000005       0.00000000       0.00000000       0.00000000     1053        2        0        0        0
S       62.98752912      19.21845638      11.01884901     183.84000005       0.00000000       0.00000000       0.00000000     1054        2        0        0       -1
S       65.82032728      17.66862724      14.14184165     183.84000005       0.00000000       0.00000000       0.00000000     1055        2        0        0        0
S       65.79767305      17.66826996      11.00177067     183.84000005       0.00000000       0.00000000       0.00000000     1056        2        0        0       -1
S       26.38144348      42.18408660      14.20433155     183.84000005       0.00000000       0.00000000       0.00000000     1057        2        0        0        0
S       26.39253561      42.21111034      11.06469687     183.84000005       0.00000000       0.00000000       0.00000000     1058        2        0        0       -1
S       29.16959284      40.65809365      14.19355232     183.84000005       0.00000000       0.00000000       0.00000000     1059        2        0        0        0
S       29.17494088      40.69218624      11.05371292     183.84000005       0.00000000       0.00000000       0.00000000     1060        2        0        0       -1
S       31.96602756      39.14182245      14.17473681     183.84000005       0.00000000       0.00000000       0.00000000     1061        2        0        0        0
S       31.96722879      39.18002586      11.03465955     183.84000005       0.00000000       0.00000000       0.00000000     1062        2        0        0       -1
S       34.76924929      37.63639537      14.15257121     183.84000005       0.00000000       0.00000000       0.00000000     1063        2        0        0        0
S       34.77050279      37.67417688      11.01229401     183.84000005       0.00000000       0.00000000       0.00000000     1064        2        0        0       -1
S       37.57716426      36.14002145      14.13407925     183.84000005       0.00000000       0.00000000       0.00000000     1065        2        0        0        0
S       37.58369295      36.17273737      10.99370583     183.84000005       0.00000000       0.00000000       0.00000000     1066        2        0        0       -1
S       40.38788516      34.64796387      14.12564620     183.84000005       0.00000000       0.00000000       0.00000000     1067        2        0        0        0
S       40.40334323      34.67270716      10.98531396     183.84000005       0.00000000       0.00000000       0.00000000     1068        2        0        0       -1
S       43.20022921      33.15371525      14.12970288     183.84000005       0.00000000       0.00000000       0.00000000     1069        2        0        0        0
S       43.22462952      33.17035133      10.98961444     183.84000005       0.00000000       0.00000000       0.00000000     1070        2        0        0       -1
S       46.01357122      31.65081897      14.14353336     183.84000005       0.00000000       0.00000000       0.00000000     1071        2        0        0        0
S       46.04319409      31.66165073      11.00390801     183.84000005       0.00000000       0.00000000       0.00000000     1072        2        0        0       -1
S       48.82735721      30.13474558      14.16108572     183.84000005       0.00000000       0.00000000       0.00000000     1073        2        0        0        0
S       48.85663766      30.14314365      11.02197905     183.84000005       0.00000000       0.00000000       0.00000000     1074        2        0        0       -1
S       51.64086305      28.60414100      14.17607447     183.84000005       0.00000000       0.00000000       0.00000000     1075        2        0        0        0
S       51.66494046      28.61297627      11.03735943     183.84000005       0.00000000       0.00000000       0.00000000     1076        2        0        0       -1
S       54.45350960      27.06089137      14.18449793     183.84000005       0.00000000       0.00000000       0.00000000     1077        2        0        0        0
S       54.46983638      27.07157982      11.04598154     183.84000005       0.00000000       0.00000000       0.00000000     1078        2        0        0       -1
S       57.26549046      25.50907326      14.18528965     183.84000005       0.00000000       0.00000000       0.00000000     1079        2        0        0        0
S       57.27352441      25.52158140      11.04675053     183.84000005       0.00000000       0.00000000       0.00000000     1080        2        0        0       -1
S       60.07793110      23.95361004      14.17890274     183.84000005       0.00000000       0.00000000       0.00000000     1081        2        0        0        0
S       60.07754407      23.96703095      11.04011677     183.84000005       0.00000000       0.00000000       0.00000000     1082        2        0        0       -1
S       62.89226352      22.39949466      14.16556244     183.84000005       0.00000000       0.00000000       0.00000000     1083        2        0        0        0
S       62.88257997      22.41252875      11.02633548     183.84000005       0.00000000       0.00000000       0.00000000     1084        2        0        0       -1
S       65.70926149      20.85142372      14.14479213     183.84000005       0.00000000       0.00000000       0.00000000     1085        2        0        0        0
S       65.68899243      20.86257416      11.00499242     183.84000005       0.00000000       0.00000000       0.00000000     1086        2        0        0       -1
S       68.52849759      19.31329485      14.11635375     183.84000005       0.00000000       0.00000000       0.00000000     1087        2        0        0        0
S       68.49739234      19.32099575      10.97595082     183.84000005       0.00000000       0.00000000       0.00000000     1088        2        0        0       -1
S       26.32327212      45.38808664      14.22629308     183.84000005       0.00000000       0.00000000       0.00000000     1089        2        0        0        0
S       26.33575234      45.40433950      11.08694028     183.84000005       0.00000000       0.00000000       0.00000000     1090        2        0        0       -1
S       29.11014876      43.85388150      14.22213120     183.84000005       0.00000000       0.00000000       0.00000000     1091        2        0        0        0
S       29.11546101      43.87697263      11.08265946     183.84000005       0.00000000       0.00000000       0.00000000     1092        2        0        0       -1
S       31.90450606      42.32823578      14.20832440     183.84000005       0.00000000       0.00000000       0.00000000     1093        2        0        0        0
S       31.90320853      42.35657324      11.06864677     183.84000005       0.00000000       0.00000000       0.00000000     1094        2        0        0       -1
S       34.70565829      40.81375308      14.18777332     183.84000005       0.00000000       0.00000000       0.00000000     1095        2        0        0        0
S       34.70102195      40.84392356      11.04788593     183.84000005       0.00000000       0.00000000       0.00000000     1096        2        0        0       -1
S       37.51190269      39.31041628      14.16656532     183.84000005       0.00000000       0.00000000       0.00000000     1097        2        0        0        0
S       37.50923072      39.33790897      11.02654670     183.84000005       0.00000000       0.00000000       0.00000000     1098        2        0        0       -1
S       40.32139608      37.81486461      14.15189251     183.84000005       0.00000000       0.00000000       0.00000000     1099        2        0        0        0
S       40.32570505      37.83582723      11.01188306     183.84000005       0.00000000       0.00000000       0.00000000     1100        2        0        0       -1
S       43.13264578      36.32096833      14.14861192     183.84000005       0.00000000       0.00000000       0.00000000     1101        2        0        0        0
S       43.14607905      36.33392101      11.00878436     183.84000005       0.00000000       0.00000000       0.00000000     1102        2        0        0       -1
S       45.94461840      34.82160984      14.15661911     183.84000005       0.00000000       0.00000000       0.00000000     1103        2        0        0        0
S       45.96529456      34.82796725      11.01718250     183.84000005       0.00000000       0.00000000       0.00000000     1104        2        0        0       -1
S       48.75644009      33.31089882      14.17122594     183.84000005       0.00000000       0.00000000       0.00000000     1105        2        0        0        0
S       48.77958726      33.31402395      11.03230097     183.84000005       0.00000000       0.00000000       0.00000000     1106        2        0        0       -1
S       51.56713539      31.78591097      14.18598601     183.84000005       0.00000000       0.00000000       0.00000000     1107        2        0        0        0
S       51.58760923      31.78942453      11.04750353     183.84000005       0.00000000       0.00000000       0.00000000     1108        2        0        0       -1
S       54.37585120      30.24725229      14.19571373     183.84000005       0.00000000       0.00000000       0.00000000     1109        2        0        0        0
S       54.39029776      30.25363863      11.05750567     183.84000005       0.00000000       0.00000000       0.00000000     1110        2        0        0       -1
S       57.18255725      28.69831993      14.19802678     183.84000005       0.00000000       0.00000000       0.00000000     1111        2        0        0        0
S       57.18980870      28.70851620      11.05988092     183.84000005       0.00000000       0.00000000       0.00000000     1112        2        0        0       -1
S       59.98846622      27.14388710      14.19257024     183.84000005       0.00000000       0.00000000       0.00000000     1113        2        0        0        0
S       59.98822635      27.15772969      11.05424943     183.84000005       0.00000000       0.00000000       0.00000000     1114        2        0        0       -1
S       62.79553569      25.58909389      14.17922088     183.84000005       0.00000000       0.00000000       0.00000000     1115        2        0        0        0
S       62.78698548      25.60581257      11.04049558     183.84000005       0.00000000       0.00000000       0.00000000     1116        2        0        0       -1
S       65.60537689      24.03900949      14.15730432     183.84000005       0.00000000       0.00000000       0.00000000     1117        2        0        0        0
S       65.58715299      24.05732028      11.01797550     183.84000005       0.00000000       0.00000000       0.00000000     1118        2        0        0       -1
S       68.41838772      22.49812452      14.12639114     183.84000005       0.00000000       0.00000000       0.00000000     1119        2        0        0        0
S       68.38989842      22.51616816      10.98632892     183.84000005       0.00000000       0.00000000       0.00000000     1120        2        0        0       -1
S       29.05511102      47.04997646      14.23970202     183.84000005       0.00000000       0.00000000       0.00000000     1121        2        0        0        0
S       29.05961448      47.06218556      11.10051803     183.84000005       0.00000000       0.00000000       0.00000000     1122        2        0        0       -1
S       31.84892159      45.51559445      14.23101510     183.84000005       0.00000000       0.00000000       0.00000000     1123        2        0        0        0
S       31.84550547      45.53365672      11.09168099     183.84000005       0.00000000       0.00000000       0.00000000     1124        2        0        0       -1
S       34.64890633      43.99193169      14.21352558     183.84000005       0.00000000       0.00000000       0.00000000     1125        2        0        0        0
S       34.63966896      44.01355299      11.07398258     183.84000005       0.00000000       0.00000000       0.00000000     1126        2        0        0       -1
S       37.45398615      42.48059196      14.19177799     183.84000005       0.00000000       0.00000000       0.00000000     1127        2        0        0        0
S       37.44355598      42.50186139      11.05206297     183.84000005       0.00000000       0.00000000       0.00000000     1128        2        0        0       -1
S       40.26254933      40.97987939      14.17271389     183.84000005       0.00000000       0.00000000       0.00000000     1129        2        0        0        0
S       40.25652473      40.99654408      11.03294790     183.84000005       0.00000000       0.00000000       0.00000000     1130        2        0        0       -1
S       43.07306770      39.48472571      14.16276352     183.84000005       0.00000000       0.00000000       0.00000000     1131        2        0        0        0
S       43.07536313      39.49407509      11.02311129     183.84000005       0.00000000       0.00000000       0.00000000     1132        2        0        0       -1
S       45.88425446      37.98799753      14.16451287     183.84000005       0.00000000       0.00000000       0.00000000     1133        2        0        0        0
S       45.89508092      37.99015790      11.02516093     183.84000005       0.00000000       0.00000000       0.00000000     1134        2        0        0       -1
S       48.69495837      36.48278841      14.17540167     183.84000005       0.00000000       0.00000000       0.00000000     1135        2        0        0        0
S       48.71087053      36.48049634      11.03651688     183.84000005       0.00000000       0.00000000       0.00000000     1136        2        0        0       -1
S       51.50394646      34.96461030      14.18958127     183.84000005       0.00000000       0.00000000       0.00000000     1137        2        0        0        0
S       51.51989824      34.96170286      11.05117362     183.84000005       0.00000000       0.00000000       0.00000000     1138        2        0        0       -1
S       54.31000246      33.43251187      14.20109455     183.84000005       0.00000000       0.00000000       0.00000000     1139        2        0        0        0
S       54.32186344      33.43222975      11.06303431     183.84000005       0.00000000       0.00000000       0.00000000     1140        2        0        0       -1
S       57.11258975      31.88878997      14.20624244     183.84000005       0.00000000       0.00000000       0.00000000     1141        2        0        0        0
S       57.11836818      31.89292279      11.06833822     183.84000005       0.00000000       0.00000000       0.00000000     1142        2        0        0       -1
S       59.91254542      30.33766921      14.20374223     183.84000005       0.00000000       0.00000000       0.00000000     1143        2        0        0        0
S       59.91167147      30.34682699      11.06576164     183.84000005       0.00000000       0.00000000       0.00000000     1144        2        0        0       -1
S       62.71193677      28.78405466      14.19310246     183.84000005       0.00000000       0.00000000       0.00000000     1145        2        0        0        0
S       62.70378391      28.79830635      11.05480836     183.84000005       0.00000000       0.00000000       0.00000000     1146        2        0        0       -1
S       65.51306125      27.23300342      14.17339114     183.84000005       0.00000000       0.00000000       0.00000000     1147        2        0        0        0
S       65.49644260      27.25200835      11.03456783     183.84000005       0.00000000       0.00000000       0.00000000     1148        2        0        0       -1
S       68.31735390      25.68937154      14.14369315     183.84000005       0.00000000       0.00000000       0.00000000     1149        2        0        0        0
S       68.29148329      25.71201424      11.00414787     183.84000005       0.00000000       0.00000000       0.00000000     1150        2        0        0       -1
S       71.12498275      24.15704046      14.10458109     183.84000005       0.00000000       0.00000000       0.00000000     1151        2        0        0        0
S       71.09089138      24.18120175      10.96419987     183.84000005       0.00000000       0.00000000       0.00000000     1152        2        0        0       -1
S       58.00507131       0.00650136      14.24673034     183.84000005       0.00000000       0.00000000       0.00000000     1153        2       -1        1        0
S       58.00828245       0.00795871      11.10767564     183.84000005       0.00000000       0.00000000       0.00000000     1154        2       -1        1       -1
S       31.79451797      48.70389326      14.24314415     183.84000005       0.00000000       0.00000000       0.00000000     1155        2        0        0        0
S       31.78929018      48.71168521      11.10402638     183.84000005       0.00000000       0.00000000       0.00000000     1156        2        0        0       -1
S       34.59463451      47.17150641      14.22967183     183.84000005       0.00000000       0.00000000       0.00000000     1157        2        0        0        0
S       34.58206358      47.18421512      11.09036971     183.84000005       0.00000000       0.00000000       0.00000000     1158        2        0        0       -1
S       37.39938995      45.65176125      14.20922941     183.84000005       0.00000000       0.00000000       0.00000000     1159        2        0        0        0
S       37.38296836      45.66623883      11.06973235     183.84000005       0.00000000       0.00000000       0.00000000     1160        2        0        0       -1
S       40.20757083      44.14464390      14.18775211     183.84000005       0.00000000       0.00000000       0.00000000     1161        2        0        0        0
S       40.19270950      44.15667298      11.04813988     183.84000005       0.00000000       0.00000000       0.00000000     1162        2        0        0       -1
S       43.01778829      42.64655981      14.17228894     183.84000005       0.00000000       0.00000000       0.00000000     1163        2        0        0        0
S       43.00956141      42.65253005      11.03271113     183.84000005       0.00000000       0.00000000       0.00000000     1164        2        0        0       -1
S       45.82873683      41.15103542      14.16767366     183.84000005       0.00000000       0.00000000       0.00000000     1165        2        0        0        0
S       45.82936631      41.14967648      11.02830038     183.84000005       0.00000000       0.00000000       0.00000000     1166        2        0        0       -1
S       48.63912367      39.65069329      14.17392216     183.84000005       0.00000000       0.00000000       0.00000000     1167        2        0        0        0
S       48.64692698      39.64366713      11.03493242     183.84000005       0.00000000       0.00000000       0.00000000     1168        2        0        0       -1
S       51.44753575      38.13969749      14.18655463     183.84000005       0.00000000       0.00000000       0.00000000     1169        2        0        0        0
S       51.45810161      38.13059258      11.04804020     183.84000005       0.00000000       0.00000000       0.00000000     1170        2        0        0       -1
S       54.25244997      36.61544514      14.19940482     183.84000005       0.00000000       0.00000000       0.00000000     1171        2        0        0        0
S       54.26111551      36.60796924      11.06129505     183.84000005       0.00000000       0.00000000       0.00000000     1172        2        0        0       -1
S       57.05273162      35.07884552      14.20757729     183.84000005       0.00000000       0.00000000       0.00000000     1173        2        0        0        0
S       57.05655330      35.07547639      11.06971362     183.84000005       0.00000000       0.00000000       0.00000000     1174        2        0        0       -1
S       59.84848167      33.53329388      14.20873540     183.84000005       0.00000000       0.00000000       0.00000000     1175        2        0        0        0
S       59.84640367      33.53517492      11.07090729     183.84000005       0.00000000       0.00000000       0.00000000     1176        2        0        0       -1
S       62.64134795      31.98321480      14.20210617     183.84000005       0.00000000       0.00000000       0.00000000     1177        2        0        0        0
S       62.63296467      31.99094738      11.06407783     183.84000005       0.00000000       0.00000000       0.00000000     1178        2        0        0       -1
S       65.43386152      30.43326544      14.18683666     183.84000005       0.00000000       0.00000000       0.00000000     1179        2        0        0        0
S       65.41844650      30.44742636      11.04838895     183.84000005       0.00000000       0.00000000       0.00000000     1180        2        0        0       -1
S       68.22834571      28.88813731      14.16170519     183.84000005       0.00000000       0.00000000       0.00000000     1181        2        0        0        0
S       68.20520561      28.90892429      11.02264237     183.84000005       0.00000000       0.00000000       0.00000000     1182        2        0        0       -1
S       71.02617083      27.35213445      14.12636427     183.84000005       0.00000000       0.00000000       0.00000000     1183        2        0        0        0
S       70.99584409      27.37862135      10.98650834     183.84000005       0.00000000       0.00000000       0.00000000     1184        2        0        0       -1
S       37.34377024      48.82537236      14.21859112     183.84000005       0.00000000       0.00000000       0.00000000     1185        2        0        0        0
S       37.32284341      48.83207658      11.07918079     183.84000005       0.00000000       0.00000000       0.00000000     1186        2        0        0       -1
S       40.15241014      47.31118961      14.19663334     183.84000005       0.00000000       0.00000000       0.00000000     1187        2        0        0        0
S       40.13019336      47.31760957      11.05707027     183.84000005       0.00000000       0.00000000       0.00000000     1188        2        0        0       -1
S       42.96292141      45.80874797      14.17714977     183.84000005       0.00000000       0.00000000       0.00000000     1189        2        0        0        0
S       42.94497609      45.81079616      11.03754505     183.84000005       0.00000000       0.00000000       0.00000000     1190        2        0        0       -1
S       45.77414786      44.31276401      14.16648707     183.84000005       0.00000000       0.00000000       0.00000000     1191        2        0        0        0
S       45.76437213      44.30790905      11.02699228     183.84000005       0.00000000       0.00000000       0.00000000     1192        2        0        0       -1
S       48.58486873      42.81605653      14.16728325     183.84000005       0.00000000       0.00000000       0.00000000     1193        2        0        0        0
S       48.58357340      42.80460240      11.02806284     183.84000005       0.00000000       0.00000000       0.00000000     1194        2        0        0       -1
S       51.39362951      41.31186975      14.17714252     183.84000005       0.00000000       0.00000000       0.00000000     1195        2        0        0        0
S       51.39762805      41.29672733      11.03834425     183.84000005       0.00000000       0.00000000       0.00000000     1196        2        0        0       -1
S       54.19872655      39.79600882      14.19041117     183.84000005       0.00000000       0.00000000       0.00000000     1197        2        0        0        0
S       54.20332254      39.78111693      11.05204560     183.84000005       0.00000000       0.00000000       0.00000000     1198        2        0        0       -1
S       56.99852904      38.26777446      14.20130036     183.84000005       0.00000000       0.00000000       0.00000000     1199        2        0        0        0
S       56.99990616      38.25633877      11.06325070     183.84000005       0.00000000       0.00000000       0.00000000     1200        2        0        0       -1
S       59.79227592      36.72946030      14.20619677     183.84000005       0.00000000       0.00000000       0.00000000     1201        2        0        0        0
S       59.78864635      36.72318959      11.06829024     183.84000005       0.00000000       0.00000000       0.00000000     1202        2        0        0       -1
S       62.58078532      35.18490891      14.20382758     183.84000005       0.00000000       0.00000000       0.00000000     1203        2        0        0        0
S       62.57179315      35.18459159      11.06585135     183.84000005       0.00000000       0.00000000       0.00000000     1204        2        0        0       -1
S       65.36628972      33.63829080      14.19371019     183.84000005       0.00000000       0.00000000       0.00000000     1205        2        0        0        0
S       65.35181659      33.64477892      11.05544669     183.84000005       0.00000000       0.00000000       0.00000000     1206        2        0        0       -1
S       68.15155424      32.09374809      14.17496613     183.84000005       0.00000000       0.00000000       0.00000000     1207        2        0        0        0
S       68.13134866      32.10815913      11.03621703     183.84000005       0.00000000       0.00000000       0.00000000     1208        2        0        0       -1
S       70.93901061      30.55536447      14.14669859     183.84000005       0.00000000       0.00000000       0.00000000     1209        2        0        0        0
S       70.91334565      30.57830391      11.00728793     183.84000005       0.00000000       0.00000000       0.00000000     1210        2        0        0       -1
S       73.73033227      29.02670433      14.10933320     183.84000005       0.00000000       0.00000000       0.00000000     1211        2        0        0        0
S       73.70083724      29.05729243      10.96915612     183.84000005       0.00000000       0.00000000       0.00000000     1212        2        0        0       -1
S       42.90451847      48.97356891      14.17643057     183.84000005       0.00000000       0.00000000       0.00000000     1213        2        0        0        0
S       42.87768414      48.97026145      11.03670209     183.84000005       0.00000000       0.00000000       0.00000000     1214        2        0        0       -1
S       45.71658570      47.47553358      14.16049710     183.84000005       0.00000000       0.00000000       0.00000000     1215        2        0        0        0
S       45.69630531      47.46633134      11.02079309     183.84000005       0.00000000       0.00000000       0.00000000     1216        2        0        0       -1
S       48.52813623      45.98082689      14.15532626     183.84000005       0.00000000       0.00000000       0.00000000     1217        2        0        0        0
S       48.51671094      45.96461669      11.01578261     183.84000005       0.00000000       0.00000000       0.00000000     1218        2        0        0       -1
S       51.33789299      44.48242422      14.16111098     183.84000005       0.00000000       0.00000000       0.00000000     1219        2        0        0        0
S       51.33386402      44.46100782      11.02188338     183.84000005       0.00000000       0.00000000       0.00000000     1220        2        0        0       -1
S       54.14413603      42.97483885      14.17357594     183.84000005       0.00000000       0.00000000       0.00000000     1221        2        0        0        0
S       54.14344861      42.95200142      11.03476320     183.84000005       0.00000000       0.00000000       0.00000000     1222        2        0        0       -1
S       56.94492983      41.45565081      14.18667253     183.84000005       0.00000000       0.00000000       0.00000000     1223        2        0        0        0
S       56.94327990      41.43533780      11.04822390     183.84000005       0.00000000       0.00000000       0.00000000     1224        2        0        0       -1
S       59.73876414      39.92569725      14.19548504     183.84000005       0.00000000       0.00000000       0.00000000     1225        2        0        0        0
S       59.73350761      39.91055447      11.05726573     183.84000005       0.00000000       0.00000000       0.00000000     1226        2        0        0       -1
S       62.52544693      38.38801647      14.19768701     183.84000005       0.00000000       0.00000000       0.00000000     1227        2        0        0        0
S       62.51592418      38.37922713      11.05952378     183.84000005       0.00000000       0.00000000       0.00000000     1228        2        0        0       -1
S       65.30648264      36.84636914      14.19286660     183.84000005       0.00000000       0.00000000       0.00000000     1229        2        0        0        0
S       65.29303659      36.84462762      11.05456103     183.84000005       0.00000000       0.00000000       0.00000000     1230        2        0        0       -1
S       68.08457156      35.30439935      14.18090817     183.84000005       0.00000000       0.00000000       0.00000000     1231        2        0        0        0
S       68.06759741      35.31081339      11.04226621     183.84000005       0.00000000       0.00000000       0.00000000     1232        2        0        0       -1
S       70.86277188      33.76559994      14.16123091     183.84000005       0.00000000       0.00000000       0.00000000     1233        2        0        0        0
S       70.84263231      33.78157421      11.02208384     183.84000005       0.00000000       0.00000000       0.00000000     1234        2        0        0       -1
S       73.64386896      32.23335974      14.13336172     183.84000005       0.00000000       0.00000000       0.00000000     1235        2        0        0        0
S       73.62141231      32.25958444      10.99359943     183.84000005       0.00000000       0.00000000       0.00000000     1236        2        0        0       -1
S       48.46497810      49.14683255      14.13742438     183.84000005       0.00000000       0.00000000       0.00000000     1237        2        0        0        0
S       48.44294227      49.12549788      10.99750064     183.84000005       0.00000000       0.00000000       0.00000000     1238        2        0        0       -1
S       51.27611002      47.65263272      14.13796632     183.84000005       0.00000000       0.00000000       0.00000000     1239        2        0        0        0
S       51.26290148      47.62498733      10.99822268     183.84000005       0.00000000       0.00000000       0.00000000     1240        2        0        0       -1
S       54.08408955      46.15252063      14.14813942     183.84000005       0.00000000       0.00000000       0.00000000     1241        2        0        0        0
S       54.07696807      46.12161323      11.00872109     183.84000005       0.00000000       0.00000000       0.00000000     1242        2        0        0       -1
S       56.88689072      44.64252428      14.16256461     183.84000005       0.00000000       0.00000000       0.00000000     1243        2        0        0        0
S       56.88171279      44.61267944      11.02352575     183.84000005       0.00000000       0.00000000       0.00000000     1244        2        0        0       -1
S       59.68250829      43.12173076      14.17550518     183.84000005       0.00000000       0.00000000       0.00000000     1245        2        0        0        0
S       59.67594020      43.09675595      11.03676372     183.84000005       0.00000000       0.00000000       0.00000000     1246        2        0        0       -1
S       62.46981708      41.59192030      14.18319152     183.84000005       0.00000000       0.00000000       0.00000000     1247        2        0        0        0
S       62.46052805      41.57403002      11.04461125     183.84000005       0.00000000       0.00000000       0.00000000     1248        2        0        0       -1
S       65.24933675      40.05630029      14.18443814     183.84000005       0.00000000       0.00000000       0.00000000     1249        2        0        0        0
S       65.23766231      40.04636827      11.04585607     183.84000005       0.00000000       0.00000000       0.00000000     1250        2        0        0       -1
S       68.02324821      38.51823588      14.17950623     183.84000005       0.00000000       0.00000000       0.00000000     1251        2        0        0        0
S       68.01008780      38.51687609      11.04075072     183.84000005       0.00000000       0.00000000       0.00000000     1252        2        0        0       -1
S       70.79473821      36.98077036      14.16862103     183.84000005       0.00000000       0.00000000       0.00000000     1253        2        0        0        0
S       70.78079647      36.98906965      11.02954131     183.84000005       0.00000000       0.00000000       0.00000000     1254        2        0        0       -1
S       73.56727645      35.44676219      14.15142660     183.84000005       0.00000000       0.00000000       0.00000000     1255        2        0        0        0
S       73.55300445      35.46600628      11.01191664     183.84000005       0.00000000       0.00000000       0.00000000     1256        2        0        0       -1
S       76.34406534      33.91897252      14.12753498     183.84000005       0.00000000       0.00000000       0.00000000     1257        2        0        0        0
S       76.32999497      33.94961518      10.98754682     183.84000005       0.00000000       0.00000000       0.00000000     1258        2        0        0       -1
S       54.01456959      49.32931623      14.11425289     183.84000005       0.00000000       0.00000000       0.00000000     1259        2        0        0        0
S       54.00057027      49.29173654      10.97415035     183.84000005       0.00000000       0.00000000       0.00000000     1260        2        0        0       -1
S       56.81995796      47.82794547      14.12857044     183.84000005       0.00000000       0.00000000       0.00000000     1261        2        0        0        0
S       56.81114627      47.78939998      10.98877541     183.84000005       0.00000000       0.00000000       0.00000000     1262        2        0        0       -1
S       59.61855177      46.31671346      14.14526388     183.84000005       0.00000000       0.00000000       0.00000000     1263        2        0        0        0
S       59.61139547      46.28180811      11.00580716     183.84000005       0.00000000       0.00000000       0.00000000     1264        2        0        0       -1
S       62.40856908      44.79570019      14.15938076     183.84000005       0.00000000       0.00000000       0.00000000     1265        2        0        0        0
S       62.40094773      44.76806071      11.02017762     183.84000005       0.00000000       0.00000000       0.00000000     1266        2        0        0       -1
S       65.18953069      43.26706126      14.16824555     183.84000005       0.00000000       0.00000000       0.00000000     1267        2        0        0        0
S       65.18118502      43.24856376      11.02917400     183.84000005       0.00000000       0.00000000       0.00000000     1268        2        0        0       -1
S       67.96274067      41.73380089      14.17144634     183.84000005       0.00000000       0.00000000       0.00000000     1269        2        0        0        0
S       67.95454088      41.72501615      11.03237493     183.84000005       0.00000000       0.00000000       0.00000000     1270        2        0        0       -1
S       70.73102750      40.19880396      14.16957586     183.84000005       0.00000000       0.00000000       0.00000000     1271        2        0        0        0
S       70.72391723      40.20003915      11.03038037     183.84000005       0.00000000       0.00000000       0.00000000     1272        2        0        0       -1
S       73.49804985      38.66458752      14.16293177     183.84000005       0.00000000       0.00000000       0.00000000     1273        2        0        0        0
S       73.49241804      38.67654359      11.02350916     183.84000005       0.00000000       0.00000000       0.00000000     1274        2        0        0       -1
S       76.26763573      37.13352361      14.15103776     183.84000005       0.00000000       0.00000000       0.00000000     1275        2        0        0        0
S       76.26326188      37.15704832      11.01131075     183.84000005       0.00000000       0.00000000       0.00000000     1276        2        0        0       -1
S       59.54325373      49.50924377      14.10538097     183.84000005       0.00000000       0.00000000       0.00000000     1277        2        0        0        0
S       59.53642682      49.46649637      10.96507597     183.84000005       0.00000000       0.00000000       0.00000000     1278        2        0        0       -1
S       62.33745929      47.99766141      14.12586040     183.84000005       0.00000000       0.00000000       0.00000000     1279        2        0        0        0
S       62.33314815      47.96092351      10.98587391     183.84000005       0.00000000       0.00000000       0.00000000     1280        2        0        0       -1
S       65.12239025      46.47708227      14.14364678     183.84000005       0.00000000       0.00000000       0.00000000     1281        2        0        0        0
S       65.11939378      46.44972552      11.00392607     183.84000005       0.00000000       0.00000000       0.00000000     1282        2        0        0       -1
S       67.89835290      44.94962871      14.15674129     183.84000005       0.00000000       0.00000000       0.00000000     1283        2        0        0        0
S       67.89681103      44.93314082      11.01719851     183.84000005       0.00000000       0.00000000       0.00000000     1284        2        0        0       -1
S       70.66737621      43.41795149      14.16495076     183.84000005       0.00000000       0.00000000       0.00000000     1285        2        0        0        0
S       70.66795102      43.41243884      11.02548935     183.84000005       0.00000000       0.00000000       0.00000000     1286        2        0        0       -1
S       73.43280120      41.88454230      14.16875211     183.84000005       0.00000000       0.00000000       0.00000000     1287        2        0        0        0
S       73.43580281      41.88975416      11.02926951     183.84000005       0.00000000       0.00000000       0.00000000     1288        2        0        0       -1
S       76.19859023      40.35160292      14.16814534     183.84000005       0.00000000       0.00000000       0.00000000     1289        2        0        0        0
S       76.20350706      40.36765125      11.02854400     183.84000005       0.00000000       0.00000000       0.00000000     1290        2        0        0       -1
S       78.96866921      38.82137559      14.16220063     183.84000005       0.00000000       0.00000000       0.00000000     1291        2        0        0        0
S       78.97422809      38.84856709      11.02239469     183.84000005       0.00000000       0.00000000       0.00000000     1292        2        0        0       -1
S       65.04468950      49.68411658      14.11070200     183.84000005       0.00000000       0.00000000       0.00000000     1293        2        0        0        0
S       65.04868993      49.64897505      10.97027944     183.84000005       0.00000000       0.00000000       0.00000000     1294        2        0        0       -1
S       67.82623808      48.16369712      14.13482752     183.84000005       0.00000000       0.00000000       0.00000000     1295        2        0        0        0
S       67.83303514      48.13926227      10.99473457     183.84000005       0.00000000       0.00000000       0.00000000     1296        2        0        0       -1
S       70.59975036      46.63643329      14.15458672     183.84000005       0.00000000       0.00000000       0.00000000     1297        2        0        0        0
S       70.60902105      46.62367566      11.01475402     183.84000005       0.00000000       0.00000000       0.00000000     1298        2        0        0       -1
S       73.36775865      45.10468914      14.16944159     183.84000005       0.00000000       0.00000000       0.00000000     1299        2        0        0        0
S       73.37929591      45.10312575      11.02977732     183.84000005       0.00000000       0.00000000       0.00000000     1300        2        0        0       -1
S       76.13383783      43.57081197      14.17941344     183.84000005       0.00000000       0.00000000       0.00000000     1301        2        0        0        0
S       76.14696181      43.57960347      11.03981709     183.84000005       0.00000000       0.00000000       0.00000000     1302        2        0        0       -1
S       78.90195242      42.03707484      14.18406571     183.84000005       0.00000000       0.00000000       0.00000000     1303        2        0        0        0
S       78.91521119      42.05581981      11.04443577     183.84000005       0.00000000       0.00000000       0.00000000     1304        2        0        0       -1
S       70.52482651      49.85206895      14.13760535     183.84000005       0.00000000       0.00000000       0.00000000     1305        2        0        0        0
S       70.54344203      49.83157212      10.99736285     183.84000005       0.00000000       0.00000000       0.00000000     1306        2        0        0       -1
S       73.29916337      48.32318316      14.16432481     183.84000005       0.00000000       0.00000000       0.00000000     1307        2        0        0        0
S       73.31913115      48.31395821      11.02439373     183.84000005       0.00000000       0.00000000       0.00000000     1308        2        0        0       -1
S       76.06965013      46.78926128      14.18485229     183.84000005       0.00000000       0.00000000       0.00000000     1309        2        0        0        0
S       76.08981728      46.79036555      11.04515852     183.84000005       0.00000000       0.00000000       0.00000000     1310        2        0        0       -1
S       78.83975316      45.25290639      14.19887157     183.84000005       0.00000000       0.00000000       0.00000000     1311        2        0        0        0
S       78.85875616      45.26316991      11.05932199     183.84000005       0.00000000       0.00000000       0.00000000     1312        2        0        0       -1
S       81.61314912      43.71683026      14.20578612     183.84000005       0.00000000       0.00000000       0.00000000     1313        2        0        0        0
S       81.62915750      43.73563296      11.06625969     183.84000005       0.00000000       0.00000000       0.00000000     1314        2        0        0       -1
S       76.00199922      50.00528963      14.18330806     183.84000005       0.00000000       0.00000000       0.00000000     1315        2        0        0        0
S       76.02825095      49.99760442      11.04343823     183.84000005       0.00000000       0.00000000       0.00000000     1316        2        0        0       -1
S       78.77787455      48.46728925      14.20627137     183.84000005       0.00000000       0.00000000       0.00000000     1317        2        0        0        0
S       78.80091199      48.46847724      11.06669827     183.84000005       0.00000000       0.00000000       0.00000000     1318        2        0        0       -1
S       81.55440534      46.92711236      14.22073302     183.84000005       0.00000000       0.00000000       0.00000000     1319        2        0        0        0
S       81.57291103      46.93608899      11.08134682     183.84000005       0.00000000       0.00000000       0.00000000     1320        2        0        0       -1
S       81.49465026      50.13571927      14.22659442     183.84000005       0.00000000       0.00000000       0.00000000     1321        2        0        0        0
S       81.51416956      50.13443907      11.08722159     183.84000005       0.00000000       0.00000000       0.00000000     1322        2        0        0       -1
S       84.27870627      48.59141831      14.23817079     183.84000005       0.00000000       0.00000000       0.00000000     1323        2        0        0        0
S       84.29109524      48.59702467      11.09898292     183.84000005       0.00000000       0.00000000       0.00000000     1324        2        0        0       -1
S        4.60049770       1.54518756      20.45268120     183.84000005       0.00000000       0.00000000       0.00000000     1325        2        0        0        0
S        4.60934342       1.55025389      17.29514651     183.84000005       0.00000000       0.00000000       0.00000000     1326        2        0        0        0
S        4.66993380       4.73748452      20.45968465     183.84000005       0.00000000       0.00000000       0.00000000     1327        2        0        0        0
S        4.67836994       4.74971702      17.30196217     183.84000005       0.00000000       0.00000000       0.00000000     1328        2        0        0        0
S        7.38567045       3.08471892      20.46678680     183.84000005       0.00000000       0.00000000       0.00000000     1329        2        0        0        0
S        7.40074493       3.09624253      17.30889281     183.84000005       0.00000000       0.00000000       0.00000000     1330        2        0        0        0
S       10.09972713       1.42116568      20.47884881     183.84000005       0.00000000       0.00000000       0.00000000     1331        2        0        0        0
S       10.11810566       1.43266114      17.32066149     183.84000005       0.00000000       0.00000000       0.00000000     1332        2        0        0        0
S        7.46117431       6.28006017      20.47846113     183.84000005       0.00000000       0.00000000       0.00000000     1333        2        0        0        0
S        7.47709962       6.29717982      17.32027868     183.84000005       0.00000000       0.00000000       0.00000000     1334        2        0        0        0
S       10.17164591       4.62043544      20.48984704     183.84000005       0.00000000       0.00000000       0.00000000     1335        2        0        0        0
S       10.19280520       4.63858408      17.33142982     183.84000005       0.00000000       0.00000000       0.00000000     1336        2        0        0        0
S       12.88155621       2.94947226      20.50343748     183.84000005       0.00000000       0.00000000       0.00000000     1337        2        0        0        0
S       12.90339293       2.96937461      17.34471115     183.84000005       0.00000000       0.00000000       0.00000000     1338        2        0        0        0
S       15.59130063       1.26807561      20.51382648     183.84000005       0.00000000       0.00000000       0.00000000     1339        2        0        0        0
S       15.60823223       1.29108227      17.35483430     183.84000005       0.00000000       0.00000000       0.00000000     1340        2        0        0        0
S        7.54809717       9.47471152      20.49391126     183.84000005       0.00000000       0.00000000       0.00000000     1341        2        0        0        0
S        7.56505682       9.49245102      17.33531656     183.84000005       0.00000000       0.00000000       0.00000000     1342        2        0        0        0
S       10.25442698       7.81752077      20.50631637     183.84000005       0.00000000       0.00000000       0.00000000     1343        2        0        0        0
S       10.27790895       7.83854737      17.34751934     183.84000005       0.00000000       0.00000000       0.00000000     1344        2        0        0        0
S       12.96089029       6.14941538      20.52163538     183.84000005       0.00000000       0.00000000       0.00000000     1345        2        0        0        0
S       12.98721186       6.17352570      17.36256521     183.84000005       0.00000000       0.00000000       0.00000000     1346        2        0        0        0
S       15.66792531       4.47051943      20.53542069     183.84000005       0.00000000       0.00000000       0.00000000     1347        2        0        0        0
S       15.69179012       4.49831102      17.37610334     183.84000005       0.00000000       0.00000000       0.00000000     1348        2        0        0        0
S       18.37583820       2.78305875      20.54228881     183.84000005       0.00000000       0.00000000       0.00000000     1349        2        0        0        0
S       18.39230668       2.81541376      17.38286494     183.84000005       0.00000000       0.00000000       0.00000000     1350        2        0        0        0
S       21.08477419       1.09114186      20.53839485     183.84000005       0.00000000       0.00000000       0.00000000     1351        2        0        0        0
S       21.09146577       1.12822836      17.37898768     183.84000005       0.00000000       0.00000000       0.00000000     1352        2        0        0        0
S       10.34855797      11.01359351      20.52338332     183.84000005       0.00000000       0.00000000       0.00000000     1353        2        0        0        0
S       10.37415370      11.03155454      17.36415065     183.84000005       0.00000000       0.00000000       0.00000000     1354        2        0        0        0
S       13.05162326       9.34718189      20.54230734     183.84000005       0.00000000       0.00000000       0.00000000     1355        2        0        0        0
S       13.08148898       9.37037677      17.38280471     183.84000005       0.00000000       0.00000000       0.00000000     1356        2        0        0        0
S       15.75567503       7.67004079      20.56038591     183.84000005       0.00000000       0.00000000       0.00000000     1357        2        0        0        0
S       15.78505482       7.69831296      17.40066221     183.84000005       0.00000000       0.00000000       0.00000000     1358        2        0        0        0
S       18.46112078       5.98364580      20.57274428     183.84000005       0.00000000       0.00000000       0.00000000     1359        2        0        0        0
S       18.48492332       6.01736373      17.41294710     183.84000005       0.00000000       0.00000000       0.00000000     1360        2        0        0        0
S       21.16803063       4.29114611      20.57505814     183.84000005       0.00000000       0.00000000       0.00000000     1361        2        0        0        0
S       21.18279937       4.33061187      17.41531607     183.84000005       0.00000000       0.00000000       0.00000000     1362        2        0        0        0
S       23.87647911       2.59688451      20.56566080     183.84000005       0.00000000       0.00000000       0.00000000     1363        2        0        0        0
S       23.88180580       2.64131536      17.40601449     183.84000005       0.00000000       0.00000000       0.00000000     1364        2        0        0        0
S       26.58722187       0.90550411      20.54661825     183.84000005       0.00000000       0.00000000       0.00000000     1365        2        0        0        0
S       26.58577881       0.95245417      17.38705265     183.84000005       0.00000000       0.00000000       0.00000000     1366        2        0        0        0
S       10.45202963      14.20920294      20.53459243     183.84000005       0.00000000       0.00000000       0.00000000     1367        2        0        0        0
S       10.47980185      14.21825043      17.37506479     183.84000005       0.00000000       0.00000000       0.00000000     1368        2        0        0        0
S       13.15277273      12.54376739      20.55954468     183.84000005       0.00000000       0.00000000       0.00000000     1369        2        0        0        0
S       13.18555314      12.56001363      17.39970501     183.84000005       0.00000000       0.00000000       0.00000000     1370        2        0        0        0
S       15.85442272      10.86769288      20.58365819     183.84000005       0.00000000       0.00000000       0.00000000     1371        2        0        0        0
S       15.88794936      10.89072534      17.42360433     183.84000005       0.00000000       0.00000000       0.00000000     1372        2        0        0        0
S       18.55761763       9.18210429      20.60252548     183.84000005       0.00000000       0.00000000       0.00000000     1373        2        0        0        0
S       18.58697113       9.21178968      17.44243889     183.84000005       0.00000000       0.00000000       0.00000000     1374        2        0        0        0
S       21.26249659       7.48945977      20.61188143     183.84000005       0.00000000       0.00000000       0.00000000     1375        2        0        0        0
S       21.28374150       7.52589024      17.45188833     183.84000005       0.00000000       0.00000000       0.00000000     1376        2        0        0        0
S       23.96898622       5.79326943      20.60922443     183.84000005       0.00000000       0.00000000       0.00000000     1377        2        0        0        0
S       23.98050970       5.83606773      17.44936191     183.84000005       0.00000000       0.00000000       0.00000000     1378        2        0        0        0
S       26.67742935       4.09767006      20.59494645     183.84000005       0.00000000       0.00000000       0.00000000     1379        2        0        0        0
S       26.68030616       4.14512613      17.43517934     183.84000005       0.00000000       0.00000000       0.00000000     1380        2        0        0        0
S       29.38908182       2.40666636      20.57237590     183.84000005       0.00000000       0.00000000       0.00000000     1381        2        0        0        0
S       29.38637934       2.45549190      17.41264779     183.84000005       0.00000000       0.00000000       0.00000000     1382        2        0        0        0
S       32.10603373       0.72308627      20.54665084     183.84000005       0.00000000       0.00000000       0.00000000     1383        2        0        0        0
S       32.10146187       0.76910110      17.38698792     183.84000005       0.00000000       0.00000000       0.00000000     1384        2        0        0        0
S       13.26120543      15.73926364      20.56737169     183.84000005       0.00000000       0.00000000       0.00000000     1385        2        0        0        0
S       13.29666053      15.74408228      17.40743344     183.84000005       0.00000000       0.00000000       0.00000000     1386        2        0        0        0
S       15.96188122      14.06405675      20.59925029     183.84000005       0.00000000       0.00000000       0.00000000     1387        2        0        0        0
S       15.99864513      14.07673471      17.43907587     183.84000005       0.00000000       0.00000000       0.00000000     1388        2        0        0        0
S       18.66377963      12.37912408      20.62594507     183.84000005       0.00000000       0.00000000       0.00000000     1389        2        0        0        0
S       18.69711455      12.39952590      17.46575043     183.84000005       0.00000000       0.00000000       0.00000000     1390        2        0        0        0
S       21.36720986      10.68660719      20.64326263     183.84000005       0.00000000       0.00000000       0.00000000     1391        2        0        0        0
S       21.39304658      10.71461659      17.48317226     183.84000005       0.00000000       0.00000000       0.00000000     1392        2        0        0        0
S       24.07208735       8.98939621      20.64841637     183.84000005       0.00000000       0.00000000       0.00000000     1393        2        0        0        0
S       24.08816493       9.02472861      17.48845492     183.84000005       0.00000000       0.00000000       0.00000000     1394        2        0        0        0
S       26.77854774       7.29094328      20.64077063     183.84000005       0.00000000       0.00000000       0.00000000     1395        2        0        0        0
S       26.78479140       7.33254435      17.48091887     183.84000005       0.00000000       0.00000000       0.00000000     1396        2        0        0        0
S       29.48741969       5.59498008      20.62201632     183.84000005       0.00000000       0.00000000       0.00000000     1397        2        0        0        0
S       29.48557370       5.64046257      17.46219248     183.84000005       0.00000000       0.00000000       0.00000000     1398        2        0        0        0
S       32.20031175       3.90484967      20.59582134     183.84000005       0.00000000       0.00000000       0.00000000     1399        2        0        0        0
S       32.19316105       3.95045726      17.43595572     183.84000005       0.00000000       0.00000000       0.00000000     1400        2        0        0        0
S       34.91928948       2.22267491      20.56688846     183.84000005       0.00000000       0.00000000       0.00000000     1401        2        0        0        0
S       34.90973372       2.26404894      17.40705484     183.84000005       0.00000000       0.00000000       0.00000000     1402        2        0        0        0
S       37.64611613       0.54894169      20.53960561     183.84000005       0.00000000       0.00000000       0.00000000     1403        2        0        0        0
S       37.63636858       0.58226163      17.37995097     183.84000005       0.00000000       0.00000000       0.00000000     1404        2        0        0        0
S       13.37249474      18.93250919      20.56252570     183.84000005       0.00000000       0.00000000       0.00000000     1405        2        0        0        0
S       13.41054003      18.92504167      17.40268045     183.84000005       0.00000000       0.00000000       0.00000000     1406        2        0        0        0
S       16.07426801      17.25871142      20.60266235     183.84000005       0.00000000       0.00000000       0.00000000     1407        2        0        0        0
S       16.11387833      17.25850168      17.44255934     183.84000005       0.00000000       0.00000000       0.00000000     1408        2        0        0        0
S       18.77641741      15.57472505      20.63805629     183.84000005       0.00000000       0.00000000       0.00000000     1409        2        0        0        0
S       18.81283020      15.58243619      17.47789360     183.84000005       0.00000000       0.00000000       0.00000000     1410        2        0        0        0
S       21.47951733      13.88268024      20.66409954     183.84000005       0.00000000       0.00000000       0.00000000     1411        2        0        0        0
S       21.50857479      13.89845580      17.50399891     183.84000005       0.00000000       0.00000000       0.00000000     1412        2        0        0        0
S       24.18356812      12.18519018      20.67776446     183.84000005       0.00000000       0.00000000       0.00000000     1413        2        0        0        0
S       24.20269608      12.20880729      17.51774407     183.84000005       0.00000000       0.00000000       0.00000000     1414        2        0        0        0
S       26.88863661      10.48517900      20.67791537     183.84000005       0.00000000       0.00000000       0.00000000     1415        2        0        0        0
S       26.89709709      10.51593149      17.51797492     183.84000005       0.00000000       0.00000000       0.00000000     1416        2        0        0        0
S       29.59531889       8.78586304      20.66517221     183.84000005       0.00000000       0.00000000       0.00000000     1417        2        0        0        0
S       29.59390952       8.82224574      17.50527752     183.84000005       0.00000000       0.00000000       0.00000000     1418        2        0        0        0
S       32.30481176       7.09050769      20.64172211     183.84000005       0.00000000       0.00000000       0.00000000     1419        2        0        0        0
S       32.29536971       7.12985405      17.48177832     183.84000005       0.00000000       0.00000000       0.00000000     1420        2        0        0        0
S       35.01876815       5.40189801      20.61108201     183.84000005       0.00000000       0.00000000       0.00000000     1421        2        0        0        0
S       35.00369561       5.44041510      17.45104135     183.84000005       0.00000000       0.00000000       0.00000000     1422        2        0        0        0
S       37.73893797       3.72171721      20.57755558     183.84000005       0.00000000       0.00000000       0.00000000     1423        2        0        0        0
S       37.72080118       3.75526984      17.41756706     183.84000005       0.00000000       0.00000000       0.00000000     1424        2        0        0        0
S       40.46653030       2.05024061      20.54532253     183.84000005       0.00000000       0.00000000       0.00000000     1425        2        0        0        0
S       40.44767286       2.07547548      17.38562245     183.84000005       0.00000000       0.00000000       0.00000000     1426        2        0        0        0
S       43.20164521       0.38651453      20.51754764     183.84000005       0.00000000       0.00000000       0.00000000     1427        2        0        0        0
S       43.18389215       0.40173272      17.35828887     183.84000005       0.00000000       0.00000000       0.00000000     1428        2        0        0        0
S       16.18737509      20.45022946      20.59285150     183.84000005       0.00000000       0.00000000       0.00000000     1429        2        0        0        0
S       16.22952871      20.43816839      17.43292058     183.84000005       0.00000000       0.00000000       0.00000000     1430        2        0        0        0
S       18.89173697      18.76810757      20.63641750     183.84000005       0.00000000       0.00000000       0.00000000     1431        2        0        0        0
S       18.93086840      18.76248374      17.47638414     183.84000005       0.00000000       0.00000000       0.00000000     1432        2        0        0        0
S       21.59600840      17.07721744      20.67129106     183.84000005       0.00000000       0.00000000       0.00000000     1433        2        0        0        0
S       21.62770791      17.07917749      17.51124252     183.84000005       0.00000000       0.00000000       0.00000000     1434        2        0        0        0
S       24.30038859      15.38017861      20.69375047     183.84000005       0.00000000       0.00000000       0.00000000     1435        2        0        0        0
S       24.32182096      15.38997504      17.53370828     183.84000005       0.00000000       0.00000000       0.00000000     1436        2        0        0        0
S       27.00496971      13.67968761      20.70220983     183.84000005       0.00000000       0.00000000       0.00000000     1437        2        0        0        0
S       27.01500598      13.69689542      17.54219325     183.84000005       0.00000000       0.00000000       0.00000000     1438        2        0        0        0
S       29.71024365      11.97856017      20.69669747     183.84000005       0.00000000       0.00000000       0.00000000     1439        2        0        0        0
S       29.70910728      12.00222686      17.53671024     183.84000005       0.00000000       0.00000000       0.00000000     1440        2        0        0        0
S       32.41716794      10.27972404      20.67842767     183.84000005       0.00000000       0.00000000       0.00000000     1441        2        0        0        0
S       32.40603901      10.30824252      17.51843170     183.84000005       0.00000000       0.00000000       0.00000000     1442        2        0        0        0
S       35.12702490       8.58603406      20.64968513     183.84000005       0.00000000       0.00000000       0.00000000     1443        2        0        0        0
S       35.10775775       8.61684408      17.48959712     183.84000005       0.00000000       0.00000000       0.00000000     1444        2        0        0        0
S       37.84122847       6.89992181      20.61388465     183.84000005       0.00000000       0.00000000       0.00000000     1445        2        0        0        0
S       37.81627928       6.92956478      17.45370456     183.84000005       0.00000000       0.00000000       0.00000000     1446        2        0        0        0
S       40.56107598       5.22286986      20.57538799     183.84000005       0.00000000       0.00000000       0.00000000     1447        2        0        0        0
S       40.53343801       5.24779695      17.41536565     183.84000005       0.00000000       0.00000000       0.00000000     1448        2        0        0        0
S       43.28735545       3.55504695      20.53869740     183.84000005       0.00000000       0.00000000       0.00000000     1449        2        0        0        0
S       43.26011149       3.57267232      17.37915150     183.84000005       0.00000000       0.00000000       0.00000000     1450        2        0        0        0
S       46.01994603       1.89534945      20.50738131     183.84000005       0.00000000       0.00000000       0.00000000     1451        2        0        0        0
S       45.99565413       1.90469680      17.34844737     183.84000005       0.00000000       0.00000000       0.00000000     1452        2        0        0        0
S       48.75760032       0.24171657      20.48342676     183.84000005       0.00000000       0.00000000       0.00000000     1453        2        0        0        0
S       48.73798652       0.24336796      17.32506316     183.84000005       0.00000000       0.00000000       0.00000000     1454        2        0        0        0
S       16.29731744      23.63671993      20.57273171     183.84000005       0.00000000       0.00000000       0.00000000     1455        2        0        0        0
S       16.34100372      23.61702087      17.41296542     183.84000005       0.00000000       0.00000000       0.00000000     1456        2        0        0        0
S       19.00613578      21.95787185      20.62182467     183.84000005       0.00000000       0.00000000       0.00000000     1457        2        0        0        0
S       19.04742201      21.94110098      17.46194856     183.84000005       0.00000000       0.00000000       0.00000000     1458        2        0        0        0
S       21.71333285      20.26933055      20.66427843     183.84000005       0.00000000       0.00000000       0.00000000     1459        2        0        0        0
S       21.74736639      20.25811242      17.50434039     183.84000005       0.00000000       0.00000000       0.00000000     1460        2        0        0        0
S       24.41944071      18.57370192      20.69511640     183.84000005       0.00000000       0.00000000       0.00000000     1461        2        0        0        0
S       24.44297222      18.56943643      17.53511049     183.84000005       0.00000000       0.00000000       0.00000000     1462        2        0        0        0
S       27.12469815      16.87371759      20.71187288     183.84000005       0.00000000       0.00000000       0.00000000     1463        2        0        0        0
S       27.13622711      16.87660505      17.55183729     183.84000005       0.00000000       0.00000000       0.00000000     1464        2        0        0        0
S       29.82957931      15.17204476      20.71401735     183.84000005       0.00000000       0.00000000       0.00000000     1465        2        0        0        0
S       29.82892956      15.18156636      17.55398367     183.84000005       0.00000000       0.00000000       0.00000000     1466        2        0        0        0
S       32.53490914      13.47136954      20.70220436     183.84000005       0.00000000       0.00000000       0.00000000     1467        2        0        0        0
S       32.52285492      13.48659205      17.54217258     183.84000005       0.00000000       0.00000000       0.00000000     1468        2        0        0        0
S       35.24174598      11.77437230      20.67795343     183.84000005       0.00000000       0.00000000       0.00000000     1469        2        0        0        0
S       35.21980395      11.79387669      17.51788827     183.84000005       0.00000000       0.00000000       0.00000000     1470        2        0        0        0
S       37.95119278      10.08366263      20.64373924     183.84000005       0.00000000       0.00000000       0.00000000     1471        2        0        0        0
S       37.92162556      10.10526495      17.48357254     183.84000005       0.00000000       0.00000000       0.00000000     1472        2        0        0        0
S       40.66429276       8.40151283      20.60331025     183.84000005       0.00000000       0.00000000       0.00000000     1473        2        0        0        0
S       40.63026968       8.42239631      17.44312546     183.84000005       0.00000000       0.00000000       0.00000000     1474        2        0        0        0
S       43.38204428       6.72923838      20.56149968     183.84000005       0.00000000       0.00000000       0.00000000     1475        2        0        0        0
S       43.34740563       6.74674845      17.40167126     183.84000005       0.00000000       0.00000000       0.00000000     1476        2        0        0        0
S       46.10514494       5.06670916      20.52310933     183.84000005       0.00000000       0.00000000       0.00000000     1477        2        0        0        0
S       46.07355172       5.07909744      17.36394163     183.84000005       0.00000000       0.00000000       0.00000000     1478        2        0        0        0
S       48.83352061       3.41238867      20.49167528     183.84000005       0.00000000       0.00000000       0.00000000     1479        2        0        0        0
S       48.80765998       3.41913825      17.33317687     183.84000005       0.00000000       0.00000000       0.00000000     1480        2        0        0        0
S       51.56607672       1.76370284      20.46890665     183.84000005       0.00000000       0.00000000       0.00000000     1481        2        0        0        0
S       51.54738996       1.76535357      17.31094657     183.84000005       0.00000000       0.00000000       0.00000000     1482        2        0        0        0
S       54.30074207       0.11747539      20.45502794     183.84000005       0.00000000       0.00000000       0.00000000     1483        2        0        0        0
S       54.28974787       0.11491023      17.29743001     183.84000005       0.00000000       0.00000000       0.00000000     1484        2        0        0        0
S       19.11645659      25.14245663      20.59796143     183.84000005       0.00000000       0.00000000       0.00000000     1485        2        0        0        0
S       19.15831687      25.11885057      17.43818317     183.84000005       0.00000000       0.00000000       0.00000000     1486        2        0        0        0
S       21.82848313      23.45785611      20.64487073     183.84000005       0.00000000       0.00000000       0.00000000     1487        2        0        0        0
S       21.86399189      23.43605026      17.48502708     183.84000005       0.00000000       0.00000000       0.00000000     1488        2        0        0        0
S       24.53782700      21.76499144      20.68247717     183.84000005       0.00000000       0.00000000       0.00000000     1489        2        0        0        0
S       24.56312576      21.74794817      17.52253953     183.84000005       0.00000000       0.00000000       0.00000000     1490        2        0        0        0
S       27.24503865      20.06662133      20.70687351     183.84000005       0.00000000       0.00000000       0.00000000     1491        2        0        0        0
S       27.25808377      20.05574725      17.54685722     183.84000005       0.00000000       0.00000000       0.00000000     1492        2        0        0        0
S       29.95070323      18.36550341      20.71655306     183.84000005       0.00000000       0.00000000       0.00000000     1493        2        0        0        0
S       29.95087717      18.36095072      17.55651437     183.84000005       0.00000000       0.00000000       0.00000000     1494        2        0        0        0
S       32.65559697      16.66429909      20.71160257     183.84000005       0.00000000       0.00000000       0.00000000     1495        2        0        0        0
S       32.64332843      16.66559546      17.55156994     183.84000005       0.00000000       0.00000000       0.00000000     1496        2        0        0        0
S       35.36062537      14.96561068      20.69312573     183.84000005       0.00000000       0.00000000       0.00000000     1497        2        0        0        0
S       35.33724390      14.97200478      17.53309770     183.84000005       0.00000000       0.00000000       0.00000000     1498        2        0        0        0
S       38.06669128      13.27200336      20.66310482     183.84000005       0.00000000       0.00000000       0.00000000     1499        2        0        0        0
S       38.03442611      13.28241644      17.50303248     183.84000005       0.00000000       0.00000000       0.00000000     1500        2        0        0        0
S       40.77458767      11.58600656      20.62464460     183.84000005       0.00000000       0.00000000       0.00000000     1501        2        0        0        0
S       40.73668664      11.59885168      17.46449362     183.84000005       0.00000000       0.00000000       0.00000000     1502        2        0        0        0
S       43.48516696       9.90970066      20.58216159     183.84000005       0.00000000       0.00000000       0.00000000     1503        2        0        0        0
S       43.44576784       9.92311302      17.42216833     183.84000005       0.00000000       0.00000000       0.00000000     1504        2        0        0        0
S       46.19948255       8.24393421      20.54071839     183.84000005       0.00000000       0.00000000       0.00000000     1505        2        0        0        0
S       46.16285298       8.25624571      17.38128338     183.84000005       0.00000000       0.00000000       0.00000000     1506        2        0        0        0
S       48.91834598       6.58794305      20.50471609     183.84000005       0.00000000       0.00000000       0.00000000     1507        2        0        0        0
S       48.88788593       6.59798506      17.34598001     183.84000005       0.00000000       0.00000000       0.00000000     1508        2        0        0        0
S       51.64178149       4.93954822      20.47691226     183.84000005       0.00000000       0.00000000       0.00000000     1509        2        0        0        0
S       51.61942286       4.94681218      17.31877858     183.84000005       0.00000000       0.00000000       0.00000000     1510        2        0        0        0
S       54.36881423       3.29555992      20.45823159     183.84000005       0.00000000       0.00000000       0.00000000     1511        2        0        0        0
S       54.35508357       3.30004235      17.30054885     183.84000005       0.00000000       0.00000000       0.00000000     1512        2        0        0        0
S       57.09749384       1.65224562      20.44845322     183.84000005       0.00000000       0.00000000       0.00000000     1513        2        0        0        0
S       57.09218939       1.65402813      17.29103381     183.84000005       0.00000000       0.00000000       0.00000000     1514        2        0        0        0
S       19.22008216      28.32083774      20.57010582     183.84000005       0.00000000       0.00000000       0.00000000     1515        2        0        0        0
S       19.25968955      28.29531344      17.41042882     183.84000005       0.00000000       0.00000000       0.00000000     1516        2        0        0        0
S       21.93876379      26.64160215      20.61674744     183.84000005       0.00000000       0.00000000       0.00000000     1517        2        0        0        0
S       21.97381600      26.61317235      17.45691725     183.84000005       0.00000000       0.00000000       0.00000000     1518        2        0        0        0
S       24.65287202      24.95317398      20.65795502     183.84000005       0.00000000       0.00000000       0.00000000     1519        2        0        0        0
S       24.67895660      24.92595353      17.49804396     183.84000005       0.00000000       0.00000000       0.00000000     1520        2        0        0        0
S       27.36329517      23.25780454      20.68837465     183.84000005       0.00000000       0.00000000       0.00000000     1521        2        0        0        0
S       27.37758389      23.23477428      17.52838139     183.84000005       0.00000000       0.00000000       0.00000000     1522        2        0        0        0
S       30.07091090      21.55835322      20.70493437     183.84000005       0.00000000       0.00000000       0.00000000     1523        2        0        0        0
S       30.07212210      21.54080300      17.54489969     183.84000005       0.00000000       0.00000000       0.00000000     1524        2        0        0        0
S       32.77658854      19.85767782      20.70671625     183.84000005       0.00000000       0.00000000       0.00000000     1525        2        0        0        0
S       32.76467188      19.84570151      17.54669498     183.84000005       0.00000000       0.00000000       0.00000000     1526        2        0        0        0
S       35.48115346      18.15851037      20.69434924     183.84000005       0.00000000       0.00000000       0.00000000     1527        2        0        0        0
S       35.45720779      18.15169105      17.53436757     183.84000005       0.00000000       0.00000000       0.00000000     1528        2        0        0        0
S       38.18533541      16.46348037      20.66964581     183.84000005       0.00000000       0.00000000       0.00000000     1529        2        0        0        0
S       38.15165142      16.46127236      17.50967477     183.84000005       0.00000000       0.00000000       0.00000000     1530        2        0        0        0
S       40.88974882      14.77517120      20.63553176     183.84000005       0.00000000       0.00000000       0.00000000     1531        2        0        0        0
S       40.84980105      14.77695711      17.47550259     183.84000005       0.00000000       0.00000000       0.00000000     1532        2        0        0        0
S       43.59507226      13.09594719      20.59603175     183.84000005       0.00000000       0.00000000       0.00000000     1533        2        0        0        0
S       43.55321824      13.10102841      17.43604163     183.84000005       0.00000000       0.00000000       0.00000000     1534        2        0        0        0
S       46.30235184      11.42728285      20.55581705     183.84000005       0.00000000       0.00000000       0.00000000     1535        2        0        0        0
S       46.26305679      11.43486674      17.39618998     183.84000005       0.00000000       0.00000000       0.00000000     1536        2        0        0        0
S       49.01284459       9.76915104      20.51925403     183.84000005       0.00000000       0.00000000       0.00000000     1537        2        0        0        0
S       48.97976317       9.77831021      17.36022790     183.84000005       0.00000000       0.00000000       0.00000000     1538        2        0        0        0
S       51.72740108       8.11996174      20.48946734     183.84000005       0.00000000       0.00000000       0.00000000     1539        2        0        0        0
S       51.70273341       8.12973744      17.33105067     183.84000005       0.00000000       0.00000000       0.00000000     1540        2        0        0        0
S       54.44601723       6.47683017      20.46792318     183.84000005       0.00000000       0.00000000       0.00000000     1541        2        0        0        0
S       54.43040738       6.48636758      17.31000201     183.84000005       0.00000000       0.00000000       0.00000000     1542        2        0        0        0
S       57.16765082       4.83603229      20.45478936     183.84000005       0.00000000       0.00000000       0.00000000     1543        2        0        0        0
S       57.16078758       4.84460006      17.29720148     183.84000005       0.00000000       0.00000000       0.00000000     1544        2        0        0        0
S        1.87881336       3.19349660      20.44980429     183.84000005       0.00000000       0.00000000       0.00000000     1545        2        1        0        0
S        1.88019753       3.20046869      17.29234827     183.84000005       0.00000000       0.00000000       0.00000000     1546        2        1        0        0
S       22.04181448      29.81985804      20.58454645     183.84000005       0.00000000       0.00000000       0.00000000     1547        2        0        0        0
S       22.07350168      29.78907454      17.42477376     183.84000005       0.00000000       0.00000000       0.00000000     1548        2        0        0        0
S       24.76205231      28.13735699      20.62493464     183.84000005       0.00000000       0.00000000       0.00000000     1549        2        0        0        0
S       24.78714122      28.10359858      17.46498208     183.84000005       0.00000000       0.00000000       0.00000000     1550        2        0        0        0
S       27.47686104      26.44663196      20.65855194     183.84000005       0.00000000       0.00000000       0.00000000     1551        2        0        0        0
S       27.49170909      26.41407201      17.49852761     183.84000005       0.00000000       0.00000000       0.00000000     1552        2        0        0        0
S       30.18746586      24.75014177      20.68064889     183.84000005       0.00000000       0.00000000       0.00000000     1553        2        0        0        0
S       30.18980152      24.72153680      17.52059502     183.84000005       0.00000000       0.00000000       0.00000000     1554        2        0        0        0
S       32.89501612      23.05096107      20.68865861     183.84000005       0.00000000       0.00000000       0.00000000     1555        2        0        0        0
S       32.88400234      23.02734124      17.52862719     183.84000005       0.00000000       0.00000000       0.00000000     1556        2        0        0        0
S       35.60040549      21.35217175      20.68225018     183.84000005       0.00000000       0.00000000       0.00000000     1557        2        0        0        0
S       35.57667910      21.33344499      17.52229508     183.84000005       0.00000000       0.00000000       0.00000000     1558        2        0        0        0
S       38.30424503      19.65669603      20.66297520     183.84000005       0.00000000       0.00000000       0.00000000     1559        2        0        0        0
S       38.27005151      19.64239872      17.50309011     183.84000005       0.00000000       0.00000000       0.00000000     1560        2        0        0        0
S       41.00696716      17.96729893      20.63392186     183.84000005       0.00000000       0.00000000       0.00000000     1561        2        0        0        0
S       40.96609066      17.95710751      17.47402635     183.84000005       0.00000000       0.00000000       0.00000000     1562        2        0        0        0
S       43.70911365      16.28645348      20.59923987     183.84000005       0.00000000       0.00000000       0.00000000     1563        2        0        0        0
S       43.66629519      16.28044530      17.43935253     183.84000005       0.00000000       0.00000000       0.00000000     1564        2        0        0        0
S       46.41165314      14.61584126      20.56333584     183.84000005       0.00000000       0.00000000       0.00000000     1565        2        0        0        0
S       46.37152945      14.61432965      17.40366961     183.84000005       0.00000000       0.00000000       0.00000000     1566        2        0        0        0
S       49.11592189      12.95583963      20.53004220     183.84000005       0.00000000       0.00000000       0.00000000     1567        2        0        0        0
S       49.08208541      12.95885628      17.37079810     183.84000005       0.00000000       0.00000000       0.00000000     1568        2        0        0        0
S       51.82317308      11.30536643      20.50207727     183.84000005       0.00000000       0.00000000       0.00000000     1569        2        0        0        0
S       51.79772730      11.31241078      17.34333804     183.84000005       0.00000000       0.00000000       0.00000000     1570        2        0        0        0
S       54.53406260       9.66197787      20.48083222     183.84000005       0.00000000       0.00000000       0.00000000     1571        2        0        0        0
S       54.51763200       9.67208817      17.32256893     183.84000005       0.00000000       0.00000000       0.00000000     1572        2        0        0        0
S       57.24831306       8.02221019      20.46665447     183.84000005       0.00000000       0.00000000       0.00000000     1573        2        0        0        0
S       57.24059018       8.03417605      17.30875013     183.84000005       0.00000000       0.00000000       0.00000000     1574        2        0        0        0
S       59.96470022       6.38207354      20.45955696     183.84000005       0.00000000       0.00000000       0.00000000     1575        2        0        0        0
S       59.96524769       6.39466685      17.30183922     183.84000005       0.00000000       0.00000000       0.00000000     1576        2        0        0        0
S       22.13592679      32.99288102      20.55261283     183.84000005       0.00000000       0.00000000       0.00000000     1577        2        0        0        0
S       22.16124336      32.96325195      17.39307245     183.84000005       0.00000000       0.00000000       0.00000000     1578        2        0        0        0
S       24.86306544      31.31701002      20.58766860     183.84000005       0.00000000       0.00000000       0.00000000     1579        2        0        0        0
S       24.88485532      31.28080123      17.42779051     183.84000005       0.00000000       0.00000000       0.00000000     1580        2        0        0        0
S       27.58321154      29.63240594      20.62070964     183.84000005       0.00000000       0.00000000       0.00000000     1581        2        0        0        0
S       27.59759986      29.59400448      17.46062561     183.84000005       0.00000000       0.00000000       0.00000000     1582        2        0        0        0
S       30.29767252      27.94039384      20.64612220     183.84000005       0.00000000       0.00000000       0.00000000     1583        2        0        0        0
S       30.30126157      27.90371117      17.48598324     183.84000005       0.00000000       0.00000000       0.00000000     1584        2        0        0        0
S       33.00794360      26.24379984      20.65945085     183.84000005       0.00000000       0.00000000       0.00000000     1585        2        0        0        0
S       32.99868039      26.21112395      17.49934288     183.84000005       0.00000000       0.00000000       0.00000000     1586        2        0        0        0
S       35.71517474      24.54607984      20.65868776     183.84000005       0.00000000       0.00000000       0.00000000     1587        2        0        0        0
S       35.69282039      24.51796136      17.49868348     183.84000005       0.00000000       0.00000000       0.00000000     1588        2        0        0        0
S       38.42001027      22.85068493      20.64457918     183.84000005       0.00000000       0.00000000       0.00000000     1589        2        0        0        0
S       38.38644542      22.82665497      17.48470584     183.84000005       0.00000000       0.00000000       0.00000000     1590        2        0        0        0
S       41.12274850      21.16082504      20.62026986     183.84000005       0.00000000       0.00000000       0.00000000     1591        2        0        0        0
S       41.08192938      21.14030417      17.46046040     183.84000005       0.00000000       0.00000000       0.00000000     1592        2        0        0        0
S       43.82377499      19.47923622      20.59041836     183.84000005       0.00000000       0.00000000       0.00000000     1593        2        0        0        0
S       43.78093049      19.46228105      17.43064799     183.84000005       0.00000000       0.00000000       0.00000000     1594        2        0        0        0
S       46.52397680      17.80768998      20.55977907     183.84000005       0.00000000       0.00000000       0.00000000     1595        2        0        0        0
S       46.48413260      17.79516505      17.40017558     183.84000005       0.00000000       0.00000000       0.00000000     1596        2        0        0        0
S       49.22465539      16.14661873      20.53193126     183.84000005       0.00000000       0.00000000       0.00000000     1597        2        0        0        0
S       49.19139906      16.13958012      17.37261956     183.84000005       0.00000000       0.00000000       0.00000000     1598        2        0        0        0
S       51.92710334      14.49512734      20.50889339     183.84000005       0.00000000       0.00000000       0.00000000     1599        2        0        0        0
S       51.90225335      14.49413014      17.34993002     183.84000005       0.00000000       0.00000000       0.00000000     1600        2        0        0        0
S       54.63222447      12.85108812      20.49139478     183.84000005       0.00000000       0.00000000       0.00000000     1601        2        0        0        0
S       54.61615116      12.85591754      17.33278998     183.84000005       0.00000000       0.00000000       0.00000000     1602        2        0        0        0
S       57.34020133      11.21136169      20.47944324     183.84000005       0.00000000       0.00000000       0.00000000     1603        2        0        0        0
S       57.33253095      11.22113983      17.32114640     183.84000005       0.00000000       0.00000000       0.00000000     1604        2        0        0        0
S       60.05038923       9.57220213      20.47303243     183.84000005       0.00000000       0.00000000       0.00000000     1605        2        0        0        0
S       60.05078459       9.58566679      17.31492786     183.84000005       0.00000000       0.00000000       0.00000000     1606        2        0        0        0
S        4.75004844       7.92967511      20.47256885     183.84000005       0.00000000       0.00000000       0.00000000     1607        2        1        0        0
S        4.75846144       7.94548676      17.31450131     183.84000005       0.00000000       0.00000000       0.00000000     1608        2        1        0        0
S       24.95425133      34.49248275      20.55055145     183.84000005       0.00000000       0.00000000       0.00000000     1609        2        0        0        0
S       24.97065808      34.45764109      17.39101620     183.84000005       0.00000000       0.00000000       0.00000000     1610        2        0        0        0
S       27.68012990      32.81479317      20.57927249     183.84000005       0.00000000       0.00000000       0.00000000     1611        2        0        0        0
S       27.69282665      32.77493835      17.41936000     183.84000005       0.00000000       0.00000000       0.00000000     1612        2        0        0        0
S       30.39904535      31.12866526      20.60507265     183.84000005       0.00000000       0.00000000       0.00000000     1613        2        0        0        0
S       30.40398881      31.08802992      17.44491677     183.84000005       0.00000000       0.00000000       0.00000000     1614        2        0        0        0
S       33.11262271      29.43597718      20.62223192     183.84000005       0.00000000       0.00000000       0.00000000     1615        2        0        0        0
S       33.10632067      29.39791080      17.46202323     183.84000005       0.00000000       0.00000000       0.00000000     1616        2        0        0        0
S       35.82235334      27.74013430      20.62669228     183.84000005       0.00000000       0.00000000       0.00000000     1617        2        0        0        0
S       35.80315696      27.70618536      17.46657191     183.84000005       0.00000000       0.00000000       0.00000000     1618        2        0        0        0
S       38.52910956      26.04514676      20.61758581     183.84000005       0.00000000       0.00000000       0.00000000     1619        2        0        0        0
S       38.49799886      26.01514697      17.45763252     183.84000005       0.00000000       0.00000000       0.00000000     1620        2        0        0        0
S       41.23320755      24.35492277      20.59750365     183.84000005       0.00000000       0.00000000       0.00000000     1621        2        0        0        0
S       41.19391628      24.32790645      17.43769473     183.84000005       0.00000000       0.00000000       0.00000000     1622        2        0        0        0
S       43.93491604      22.67275986      20.57150983     183.84000005       0.00000000       0.00000000       0.00000000     1623        2        0        0        0
S       43.89303847      22.64813481      17.41181196     183.84000005       0.00000000       0.00000000       0.00000000     1624        2        0        0        0
S       46.63500335      21.00072927      20.54516996     183.84000005       0.00000000       0.00000000       0.00000000     1625        2        0        0        0
S       46.59614432      20.97900102      17.38564824     183.84000005       0.00000000       0.00000000       0.00000000     1626        2        0        0        0
S       49.33470488      19.33928371      20.52255281     183.84000005       0.00000000       0.00000000       0.00000000     1627        2        0        0        0
S       49.30275833      19.32183913      17.36326850     183.84000005       0.00000000       0.00000000       0.00000000     1628        2        0        0        0
S       52.03521813      17.68743999      20.50543634     183.84000005       0.00000000       0.00000000       0.00000000     1629        2        0        0        0
S       52.01186870      17.67576733      17.34639736     183.84000005       0.00000000       0.00000000       0.00000000     1630        2        0        0        0
S       54.73735461      16.04308397      20.49382038     183.84000005       0.00000000       0.00000000       0.00000000     1631        2        0        0        0
S       54.72264680      16.03810976      17.33501056     183.84000005       0.00000000       0.00000000       0.00000000     1632        2        0        0        0
S       57.44136252      14.40322554      20.48699217     183.84000005       0.00000000       0.00000000       0.00000000     1633        2        0        0        0
S       57.43471383      14.40509333      17.32836994     183.84000005       0.00000000       0.00000000       0.00000000     1634        2        0        0        0
S       60.14689178      12.76432958      20.48449520     183.84000005       0.00000000       0.00000000       0.00000000     1635        2        0        0        0
S       60.14798254      12.77252091      17.32598800     183.84000005       0.00000000       0.00000000       0.00000000     1636        2        0        0        0
S       62.85321485      11.12267443      20.48659087     183.84000005       0.00000000       0.00000000       0.00000000     1637        2        0        0        0
S       62.86223069      11.13621762      17.32809634     183.84000005       0.00000000       0.00000000       0.00000000     1638        2        0        0        0
S       25.03510065      37.66503401      20.51732693     183.84000005       0.00000000       0.00000000       0.00000000     1639        2        0        0        0
S       25.04493323      37.63457881      17.35831380     183.84000005       0.00000000       0.00000000       0.00000000     1640        2        0        0        0
S       27.76629750      35.99436802      20.53908786     183.84000005       0.00000000       0.00000000       0.00000000     1641        2        0        0        0
S       27.77617142      35.95733380      17.37970425     183.84000005       0.00000000       0.00000000       0.00000000     1642        2        0        0        0
S       30.48977998      34.31502974      20.56238441     183.84000005       0.00000000       0.00000000       0.00000000     1643        2        0        0        0
S       30.49583364      34.27514287      17.40258797     183.84000005       0.00000000       0.00000000       0.00000000     1644        2        0        0        0
S       33.20695708      32.62757101      20.58135596     183.84000005       0.00000000       0.00000000       0.00000000     1645        2        0        0        0
S       33.20464676      32.58859552      17.42128961     183.84000005       0.00000000       0.00000000       0.00000000     1646        2        0        0        0
S       35.91950690      30.93468898      20.59030868     183.84000005       0.00000000       0.00000000       0.00000000     1647        2        0        0        0
S       35.90547766      30.89913412      17.43020257     183.84000005       0.00000000       0.00000000       0.00000000     1648        2        0        0        0
S       38.62864405      29.24057444      20.58622616     183.84000005       0.00000000       0.00000000       0.00000000     1649        2        0        0        0
S       38.60233787      29.20899859      17.42624835     183.84000005       0.00000000       0.00000000       0.00000000     1650        2        0        0        0
S       41.33489144      27.54987516      20.57023306     183.84000005       0.00000000       0.00000000       0.00000000     1651        2        0        0        0
S       41.29918757      27.52125048      17.41043160     183.84000005       0.00000000       0.00000000       0.00000000     1652        2        0        0        0
S       44.03852860      25.86672188      20.54715404     183.84000005       0.00000000       0.00000000       0.00000000     1653        2        0        0        0
S       43.99898729      25.83966640      17.38751928     183.84000005       0.00000000       0.00000000       0.00000000     1654        2        0        0        0
S       46.74022914      24.19382807      20.52332166     183.84000005       0.00000000       0.00000000       0.00000000     1655        2        0        0        0
S       46.70301909      24.16784024      17.36388812     183.84000005       0.00000000       0.00000000       0.00000000     1656        2        0        0        0
S       49.44113977      22.53194868      20.50387720     183.84000005       0.00000000       0.00000000       0.00000000     1657        2        0        0        0
S       49.41079764      22.50781057      17.34466396     183.84000005       0.00000000       0.00000000       0.00000000     1658        2        0        0        0
S       52.14235483      20.88006244      20.49120087     183.84000005       0.00000000       0.00000000       0.00000000     1659        2        0        0        0
S       52.12082313      20.85941063      17.33218278     183.84000005       0.00000000       0.00000000       0.00000000     1660        2        0        0        0
S       54.84447394      19.23588629      20.48514232     183.84000005       0.00000000       0.00000000       0.00000000     1661        2        0        0        0
S       54.83166366      19.22044279      17.32627408     183.84000005       0.00000000       0.00000000       0.00000000     1662        2        0        0        0
S       57.54750109      17.59631515      20.48439451     183.84000005       0.00000000       0.00000000       0.00000000     1663        2        0        0        0
S       57.54259755      17.58734151      17.32561442     183.84000005       0.00000000       0.00000000       0.00000000     1664        2        0        0        0
S       60.25099554      15.95779411      20.48787354     183.84000005       0.00000000       0.00000000       0.00000000     1665        2        0        0        0
S       60.25357455      15.95594304      17.32910522     183.84000005       0.00000000       0.00000000       0.00000000     1666        2        0        0        0
S       62.95439605      14.31666593      20.49535728     183.84000005       0.00000000       0.00000000       0.00000000     1667        2        0        0        0
S       62.96472640      14.32200313      17.33651336     183.84000005       0.00000000       0.00000000       0.00000000     1668        2        0        0        0
S        7.64582117      12.66952119      20.50720713     183.84000005       0.00000000       0.00000000       0.00000000     1669        2        1        0        0
S        7.66421264      12.68157069      17.34820391     183.84000005       0.00000000       0.00000000       0.00000000     1670        2        1        0        0
S       27.84184934      39.17241811      20.50428116     183.84000005       0.00000000       0.00000000       0.00000000     1671        2        0        0        0
S       27.84821883      39.14151578      17.34555803     183.84000005       0.00000000       0.00000000       0.00000000     1672        2        0        0        0
S       30.56938794      37.50026297      20.52299989     183.84000005       0.00000000       0.00000000       0.00000000     1673        2        0        0        0
S       30.57596675      37.46531517      17.36387911     183.84000005       0.00000000       0.00000000       0.00000000     1674        2        0        0        0
S       33.29007314      35.81907806      20.54168859     183.84000005       0.00000000       0.00000000       0.00000000     1675        2        0        0        0
S       33.29203812      35.78355928      17.38214403     183.84000005       0.00000000       0.00000000       0.00000000     1676        2        0        0        0
S       36.00547756      34.13040035      20.55398021     183.84000005       0.00000000       0.00000000       0.00000000     1677        2        0        0        0
S       35.99804947      34.09735576      17.39418715     183.84000005       0.00000000       0.00000000       0.00000000     1678        2        0        0        0
S       38.71706630      32.43798458      20.55487762     183.84000005       0.00000000       0.00000000       0.00000000     1679        2        0        0        0
S       38.69776682      32.40885392      17.39507369     183.84000005       0.00000000       0.00000000       0.00000000     1680        2        0        0        0
S       41.42569207      30.74689233      20.54332195     183.84000005       0.00000000       0.00000000       0.00000000     1681        2        0        0        0
S       41.39582929      30.72110919      17.38363983     183.84000005       0.00000000       0.00000000       0.00000000     1682        2        0        0        0
S       44.13180046      29.06215255      20.52291848     183.84000005       0.00000000       0.00000000       0.00000000     1683        2        0        0        0
S       44.09625226      29.03792123      17.36340090     183.84000005       0.00000000       0.00000000       0.00000000     1684        2        0        0        0
S       46.83606510      27.38742503      20.50017251     183.84000005       0.00000000       0.00000000       0.00000000     1685        2        0        0        0
S       46.80127374      27.36314047      17.34085972     183.84000005       0.00000000       0.00000000       0.00000000     1686        2        0        0        0
S       49.53958832      25.72415871      20.48137858     183.84000005       0.00000000       0.00000000       0.00000000     1687        2        0        0        0
S       49.51090263      25.69940783      17.32227973     183.84000005       0.00000000       0.00000000       0.00000000     1688        2        0        0        0
S       52.24341651      24.07162052      20.47018225     183.84000005       0.00000000       0.00000000       0.00000000     1689        2        0        0        0
S       52.22348590      24.04732080      17.31125839     183.84000005       0.00000000       0.00000000       0.00000000     1690        2        0        0        0
S       54.94798464      22.42747916      20.46710569     183.84000005       0.00000000       0.00000000       0.00000000     1691        2        0        0        0
S       54.93697265      22.40532912      17.30828859     183.84000005       0.00000000       0.00000000       0.00000000     1692        2        0        0        0
S       57.65296014      20.78844236      20.47083551     183.84000005       0.00000000       0.00000000       0.00000000     1693        2        0        0        0
S       57.64997957      20.77025436      17.31204198     183.84000005       0.00000000       0.00000000       0.00000000     1694        2        0        0        0
S       60.35752038      19.15074422      20.47992928     183.84000005       0.00000000       0.00000000       0.00000000     1695        2        0        0        0
S       60.36201953      19.13808794      17.32107482     183.84000005       0.00000000       0.00000000       0.00000000     1696        2        0        0        0
S       63.06087669      17.51052884      20.49371676     183.84000005       0.00000000       0.00000000       0.00000000     1697        2        0        0        0
S       63.07307834      17.50460452      17.33471494     183.84000005       0.00000000       0.00000000       0.00000000     1698        2        0        0        0
S       65.76275562      15.86426263      20.51208686     183.84000005       0.00000000       0.00000000       0.00000000     1699        2        0        0        0
S       65.78304563      15.86577194      17.35285418     183.84000005       0.00000000       0.00000000       0.00000000     1700        2        0        0        0
S       27.90853643      42.35035509      20.47739933     183.84000005       0.00000000       0.00000000       0.00000000     1701        2        0        0        0
S       27.91128807      42.32741127      17.31925717     183.84000005       0.00000000       0.00000000       0.00000000     1702        2        0        0        0
S       30.63900865      40.68537417      20.49063589     183.84000005       0.00000000       0.00000000       0.00000000     1703        2        0        0        0
S       30.64538094      40.65815547      17.33218961     183.84000005       0.00000000       0.00000000       0.00000000     1704        2        0        0        0
S       33.36265830      39.01113842      20.50735269     183.84000005       0.00000000       0.00000000       0.00000000     1705        2        0        0        0
S       33.36833348      38.98230064      17.34848277     183.84000005       0.00000000       0.00000000       0.00000000     1706        2        0        0        0
S       36.08066318      37.32783336      20.52156552     183.84000005       0.00000000       0.00000000       0.00000000     1707        2        0        0        0
S       36.08014479      37.30041956      17.36229890     183.84000005       0.00000000       0.00000000       0.00000000     1708        2        0        0        0
S       38.79450679      35.63826272      20.52705053     183.84000005       0.00000000       0.00000000       0.00000000     1709        2        0        0        0
S       38.78354334      35.61441098      17.36758964     183.84000005       0.00000000       0.00000000       0.00000000     1710        2        0        0        0
S       41.50532496      33.94732809      20.52045429     183.84000005       0.00000000       0.00000000       0.00000000     1711        2        0        0        0
S       41.48316218      33.92728747      17.36099666     183.84000005       0.00000000       0.00000000       0.00000000     1712        2        0        0        0
S       44.21382550      32.26069788      20.50329556     183.84000005       0.00000000       0.00000000       0.00000000     1713        2        0        0        0
S       44.18391382      32.24287903      17.34394502     183.84000005       0.00000000       0.00000000       0.00000000     1714        2        0        0        0
S       46.92078975      30.58309357      20.48129832     183.84000005       0.00000000       0.00000000       0.00000000     1715        2        0        0        0
S       46.88928888      30.56521278      17.32212532     183.84000005       0.00000000       0.00000000       0.00000000     1716        2        0        0        0
S       49.62736997      28.91699624      20.46144540     183.84000005       0.00000000       0.00000000       0.00000000     1717        2        0        0        0
S       49.60033881      28.89741857      17.30248129     183.84000005       0.00000000       0.00000000       0.00000000     1718        2        0        0        0
S       52.33468489      27.26236271      20.44884962     183.84000005       0.00000000       0.00000000       0.00000000     1719        2        0        0        0
S       52.31580463      27.24082104      17.29006650     183.84000005       0.00000000       0.00000000       0.00000000     1720        2        0        0        0
S       55.04316420      25.61713463      20.44533885     183.84000005       0.00000000       0.00000000       0.00000000     1721        2        0        0        0
S       55.03330103      25.59459294      17.28665970     183.84000005       0.00000000       0.00000000       0.00000000     1722        2        0        0        0
S       57.75223938      23.97800608      20.45025393     183.84000005       0.00000000       0.00000000       0.00000000     1723        2        0        0        0
S       57.75072451      23.95604999      17.29156704     183.84000005       0.00000000       0.00000000       0.00000000     1724        2        0        0        0
S       60.46063270      22.34105215      20.46228966     183.84000005       0.00000000       0.00000000       0.00000000     1725        2        0        0        0
S       60.46688503      22.32142868      17.30348711     183.84000005       0.00000000       0.00000000       0.00000000     1726        2        0        0        0
S       63.16704417      20.70214195      20.48069290     183.84000005       0.00000000       0.00000000       0.00000000     1727        2        0        0        0
S       63.18122293      20.68659096      17.32169013     183.84000005       0.00000000       0.00000000       0.00000000     1728        2        0        0        0
S       65.87083228      19.05736435      20.50514048     183.84000005       0.00000000       0.00000000       0.00000000     1729        2        0        0        0
S       65.89328261      19.04750479      17.34587206     183.84000005       0.00000000       0.00000000       0.00000000     1730        2        0        0        0
S       10.56079056      17.40363720      20.53477645     183.84000005       0.00000000       0.00000000       0.00000000     1731        2        1        0        0
S       10.59091672      17.40075165      17.37518528     183.84000005       0.00000000       0.00000000       0.00000000     1732        2        1        0        0
S       30.70128071      43.87113616      20.46714646     183.84000005       0.00000000       0.00000000       0.00000000     1733        2        0        0        0
S       30.70674803      43.85277415      17.30923821     183.84000005       0.00000000       0.00000000       0.00000000     1734        2        0        0        0
S       33.42690299      42.20410935      20.48084380     183.84000005       0.00000000       0.00000000       0.00000000     1735        2        0        0        0
S       33.43506584      42.18357158      17.32257995     183.84000005       0.00000000       0.00000000       0.00000000     1736        2        0        0        0
S       36.14693625      40.52707757      20.49554541     183.84000005       0.00000000       0.00000000       0.00000000     1737        2        0        0        0
S       36.15243511      40.50695062      17.33684943     183.84000005       0.00000000       0.00000000       0.00000000     1738        2        0        0        0
S       38.86262797      38.84158805      20.50478980     183.84000005       0.00000000       0.00000000       0.00000000     1739        2        0        0        0
S       38.86003786      38.82435471      17.34575522     183.84000005       0.00000000       0.00000000       0.00000000     1740        2        0        0        0
S       41.57522541      37.15182401      20.50341894     183.84000005       0.00000000       0.00000000       0.00000000     1741        2        0        0        0
S       41.56170964      37.13858878      17.34424950     183.84000005       0.00000000       0.00000000       0.00000000     1742        2        0        0        0
S       44.28566487      35.46358688      20.49048510     183.84000005       0.00000000       0.00000000       0.00000000     1743        2        0        0        0
S       44.26265690      35.45346177      17.33133488     183.84000005       0.00000000       0.00000000       0.00000000     1744        2        0        0        0
S       46.99487598      33.78249101      20.46999322     183.84000005       0.00000000       0.00000000       0.00000000     1745        2        0        0        0
S       46.96753885      33.77316753      17.31096937     183.84000005       0.00000000       0.00000000       0.00000000     1746        2        0        0        0
S       49.70412862      32.11221286      20.44878012     183.84000005       0.00000000       0.00000000       0.00000000     1747        2        0        0        0
S       49.67883301      32.10127060      17.28995000     183.84000005       0.00000000       0.00000000       0.00000000     1748        2        0        0        0
S       52.41474433      30.45373936      20.43313929     183.84000005       0.00000000       0.00000000       0.00000000     1749        2        0        0        0
S       52.39629490      30.43977830      17.27450304     183.84000005       0.00000000       0.00000000       0.00000000     1750        2        0        0        0
S       55.12737305      28.80564577      20.42647078     183.84000005       0.00000000       0.00000000       0.00000000     1751        2        0        0        0
S       55.11773266      28.78862529      17.26796243     183.84000005       0.00000000       0.00000000       0.00000000     1752        2        0        0        0
S       57.84147168      27.16489518      20.42923696     183.84000005       0.00000000       0.00000000       0.00000000     1753        2        0        0        0
S       57.84052918      27.14569776      17.27073032     183.84000005       0.00000000       0.00000000       0.00000000     1754        2        0        0        0
S       60.55544890      25.52762037      20.44065825     183.84000005       0.00000000       0.00000000       0.00000000     1755        2        0        0        0
S       60.56273153      25.50750553      17.28201528     183.84000005       0.00000000       0.00000000       0.00000000     1756        2        0        0        0
S       63.26742851      23.88959491      20.46024258     183.84000005       0.00000000       0.00000000       0.00000000     1757        2        0        0        0
S       63.28307123      23.87000337      17.30135777     183.84000005       0.00000000       0.00000000       0.00000000     1758        2        0        0        0
S       65.97611489      22.24659402      20.48788636     183.84000005       0.00000000       0.00000000       0.00000000     1759        2        0        0        0
S       66.00045304      22.22918884      17.32870141     183.84000005       0.00000000       0.00000000       0.00000000     1760        2        0        0        0
S       68.68133619      20.59498622      20.52281885     183.84000005       0.00000000       0.00000000       0.00000000     1761        2        0        0        0
S       68.71374000      20.58163345      17.36330917     183.84000005       0.00000000       0.00000000       0.00000000     1762        2        0        0        0
S       30.75998368      47.05781381      20.45278140     183.84000005       0.00000000       0.00000000       0.00000000     1763        2        0        0        0
S       30.76409808      47.04831720      17.29524248     183.84000005       0.00000000       0.00000000       0.00000000     1764        2        0        0        0
S       33.48615514      45.39781490      20.46297240     183.84000005       0.00000000       0.00000000       0.00000000     1765        2        0        0        0
S       33.49540300      45.38592423      17.30516180     183.84000005       0.00000000       0.00000000       0.00000000     1766        2        0        0        0
S       36.20730474      43.72753020      20.47689721     183.84000005       0.00000000       0.00000000       0.00000000     1767        2        0        0        0
S       36.21717271      43.71516298      17.31868939     183.84000005       0.00000000       0.00000000       0.00000000     1768        2        0        0        0
S       38.92422109      42.04717699      20.48872487     183.84000005       0.00000000       0.00000000       0.00000000     1769        2        0        0        0
S       38.92893880      42.03678898      17.33010850     183.84000005       0.00000000       0.00000000       0.00000000     1770        2        0        0        0
S       41.63805453      40.35982640      20.49232270     183.84000005       0.00000000       0.00000000       0.00000000     1771        2        0        0        0
S       41.63312845      40.35318454      17.33344899     183.84000005       0.00000000       0.00000000       0.00000000     1772        2        0        0        0
S       44.34984074      38.67084625      20.48445134     183.84000005       0.00000000       0.00000000       0.00000000     1773        2        0        0        0
S       44.33446652      38.66797041      17.32550057     183.84000005       0.00000000       0.00000000       0.00000000     1774        2        0        0        0
S       47.06059466      36.98633117      20.46679373     183.84000005       0.00000000       0.00000000       0.00000000     1775        2        0        0        0
S       47.03827141      36.98542772      17.30790211     183.84000005       0.00000000       0.00000000       0.00000000     1776        2        0        0        0
S       49.77167468      35.31108106      20.44514050     183.84000005       0.00000000       0.00000000       0.00000000     1777        2        0        0        0
S       49.74845544      35.30952810      17.28641212     183.84000005       0.00000000       0.00000000       0.00000000     1778        2        0        0        0
S       52.48465167      33.64730680      20.42634398     183.84000005       0.00000000       0.00000000       0.00000000     1779        2        0        0        0
S       52.46625407      33.64294885      17.26781677     183.84000005       0.00000000       0.00000000       0.00000000     1780        2        0        0        0
S       55.20058967      31.99451771      20.41529038     183.84000005       0.00000000       0.00000000       0.00000000     1781        2        0        0        0
S       55.19031132      31.98644070      17.25692565     183.84000005       0.00000000       0.00000000       0.00000000     1782        2        0        0        0
S       57.91931093      30.35021918      20.41380481     183.84000005       0.00000000       0.00000000       0.00000000     1783        2        0        0        0
S       57.91795111      30.33858510      17.25548136     183.84000005       0.00000000       0.00000000       0.00000000     1784        2        0        0        0
S       60.63925504      28.71083307      20.42181290     183.84000005       0.00000000       0.00000000       0.00000000     1785        2        0        0        0
S       60.64660385      28.69623025      17.26336989     183.84000005       0.00000000       0.00000000       0.00000000     1786        2        0        0        0
S       63.35813521      27.07230180      20.43914089     183.84000005       0.00000000       0.00000000       0.00000000     1787        2        0        0        0
S       63.37428424      27.05537739      17.28044743     183.84000005       0.00000000       0.00000000       0.00000000     1788        2        0        0        0
S       66.07393384      25.43038635      20.46608597     183.84000005       0.00000000       0.00000000       0.00000000     1789        2        0        0        0
S       66.09922454      25.41199149      17.30707052     183.84000005       0.00000000       0.00000000       0.00000000     1790        2        0        0        0
S       68.78565288      23.78110381      20.50246011     183.84000005       0.00000000       0.00000000       0.00000000     1791        2        0        0        0
S       68.81956969      23.76263093      17.34310110     183.84000005       0.00000000       0.00000000       0.00000000     1792        2        0        0        0
S       13.48200057      22.12146771      20.54620477     183.84000005       0.00000000       0.00000000       0.00000000     1793        2        1        0        0
S       13.52215392      22.10499238      17.38651951     183.84000005       0.00000000       0.00000000       0.00000000     1794        2        1        0        0
S        1.81378732       0.00568831      20.44714597     183.84000005       0.00000000       0.00000000       0.00000000     1795        2        0        1        0
S        1.81644371       0.00476402      17.28976343     183.84000005       0.00000000       0.00000000       0.00000000     1796        2        0        1        0
S       33.54448471      48.59157920      20.45363624     183.84000005       0.00000000       0.00000000       0.00000000     1797        2        0        0        0
S       33.55376763      48.58825853      17.29607856     183.84000005       0.00000000       0.00000000       0.00000000     1798        2        0        0        0
S       36.26546468      46.92798751      20.46575061     183.84000005       0.00000000       0.00000000       0.00000000     1799        2        0        0        0
S       36.27803142      46.92349657      17.30786324     183.84000005       0.00000000       0.00000000       0.00000000     1800        2        0        0        0
S       38.98271236      45.25341263      20.47880480     183.84000005       0.00000000       0.00000000       0.00000000     1801        2        0        0        0
S       38.99321548      45.24988357      17.32050902     183.84000005       0.00000000       0.00000000       0.00000000     1802        2        0        0        0
S       41.69709732      43.56963554      20.48655769     183.84000005       0.00000000       0.00000000       0.00000000     1803        2        0        0        0
S       41.70008249      43.56918779      17.32792244     183.84000005       0.00000000       0.00000000       0.00000000     1804        2        0        0        0
S       44.40959411      41.88112186      20.48406097     183.84000005       0.00000000       0.00000000       0.00000000     1805        2        0        0        0
S       44.40219980      41.88463264      17.32526072     183.84000005       0.00000000       0.00000000       0.00000000     1806        2        0        0        0
S       47.12117900      40.19390530      20.47051916     183.84000005       0.00000000       0.00000000       0.00000000     1807        2        0        0        0
S       47.10480733      40.20039240      17.31170583     183.84000005       0.00000000       0.00000000       0.00000000     1808        2        0        0        0
S       49.83316701      38.51361393      20.44993765     183.84000005       0.00000000       0.00000000       0.00000000     1809        2        0        0        0
S       49.81285131      38.52072058      17.29123638     183.84000005       0.00000000       0.00000000       0.00000000     1810        2        0        0        0
S       52.54729086      36.84370836      20.42897020     183.84000005       0.00000000       0.00000000       0.00000000     1811        2        0        0        0
S       52.52916989      36.84892219      17.27045673     183.84000005       0.00000000       0.00000000       0.00000000     1812        2        0        0        0
S       55.26508787      35.18484366      20.41365469     183.84000005       0.00000000       0.00000000       0.00000000     1813        2        0        0        0
S       55.25377462      35.18660463      17.25533023     183.84000005       0.00000000       0.00000000       0.00000000     1814        2        0        0        0
S       57.98701768      33.53529118      20.40728528     183.84000005       0.00000000       0.00000000       0.00000000     1815        2        0        0        0
S       57.98451922      33.53322785      17.24906255     183.84000005       0.00000000       0.00000000       0.00000000     1816        2        0        0        0
S       60.71198340      31.89191733      20.41061809     183.84000005       0.00000000       0.00000000       0.00000000     1817        2        0        0        0
S       60.71855688      31.88619750      17.25233572     183.84000005       0.00000000       0.00000000       0.00000000     1818        2        0        0        0
S       63.43767650      30.25101485      20.42362629     183.84000005       0.00000000       0.00000000       0.00000000     1819        2        0        0        0
S       63.45331665      30.24163672      17.26512582     183.84000005       0.00000000       0.00000000       0.00000000     1820        2        0        0        0
S       66.16152834      28.60864562      20.44673913     183.84000005       0.00000000       0.00000000       0.00000000     1821        2        0        0        0
S       66.18645850      28.59538553      17.28792737     183.84000005       0.00000000       0.00000000       0.00000000     1822        2        0        0        0
S       68.88163919      26.96087123      20.48040205     183.84000005       0.00000000       0.00000000       0.00000000     1823        2        0        0        0
S       68.91552193      26.94386956      17.32124617     183.84000005       0.00000000       0.00000000       0.00000000     1824        2        0        0        0
S       71.59727201      25.30428466      20.52359897     183.84000005       0.00000000       0.00000000       0.00000000     1825        2        0        0        0
S       71.63809137      25.28472365      17.36409510     183.84000005       0.00000000       0.00000000       0.00000000     1826        2        0        0        0
S       36.32547183      50.12712385      20.46228169     183.84000005       0.00000000       0.00000000       0.00000000     1827        2        0        0        0
S       36.33957468      50.13077112      17.30449929     183.84000005       0.00000000       0.00000000       0.00000000     1828        2        0        0        0
S       39.04183961      48.45838087      20.47525790     183.84000005       0.00000000       0.00000000       0.00000000     1829        2        0        0        0
S       39.05676626      48.46215183      17.31711533     183.84000005       0.00000000       0.00000000       0.00000000     1830        2        0        0        0
S       41.75587971      46.77895627      20.48596505     183.84000005       0.00000000       0.00000000       0.00000000     1831        2        0        0        0
S       41.76594897      46.78494072      17.32745542     183.84000005       0.00000000       0.00000000       0.00000000     1832        2        0        0        0
S       44.46836935      45.09212871      20.48852643     183.84000005       0.00000000       0.00000000       0.00000000     1833        2        0        0        0
S       44.46915489      45.10181873      17.32978650     183.84000005       0.00000000       0.00000000       0.00000000     1834        2        0        0        0
S       47.18012166      43.40334036      20.47993262     183.84000005       0.00000000       0.00000000       0.00000000     1835        2        0        0        0
S       47.17082584      43.41663472      17.32112003     183.84000005       0.00000000       0.00000000       0.00000000     1836        2        0        0        0
S       49.89223863      41.71857275      20.46194961     183.84000005       0.00000000       0.00000000       0.00000000     1837        2        0        0        0
S       49.87625872      41.73367947      17.30318830     183.84000005       0.00000000       0.00000000       0.00000000     1838        2        0        0        0
S       52.60640808      40.04237140      20.44025994     183.84000005       0.00000000       0.00000000       0.00000000     1839        2        0        0        0
S       52.58961978      40.05671932      17.28164740     183.84000005       0.00000000       0.00000000       0.00000000     1840        2        0        0        0
S       55.32453314      38.37665942      20.42151449     183.84000005       0.00000000       0.00000000       0.00000000     1841        2        0        0        0
S       55.31253804      38.38815329      17.26308709     183.84000005       0.00000000       0.00000000       0.00000000     1842        2        0        0        0
S       58.04780972      36.72069527      20.41046683     183.84000005       0.00000000       0.00000000       0.00000000     1843        2        0        0        0
S       58.04396789      36.72843854      17.25218859     183.84000005       0.00000000       0.00000000       0.00000000     1844        2        0        0        0
S       60.77594579      35.07191361      20.40896684     183.84000005       0.00000000       0.00000000       0.00000000     1845        2        0        0        0
S       60.78125513      35.07585987      17.25071653     183.84000005       0.00000000       0.00000000       0.00000000     1846        2        0        0        0
S       63.50708712      33.42698693      20.41710260     183.84000005       0.00000000       0.00000000       0.00000000     1847        2        0        0        0
S       63.52145996      33.42698340      17.25872003     183.84000005       0.00000000       0.00000000       0.00000000     1848        2        0        0        0
S       66.23850645      31.78241483      20.43494047     183.84000005       0.00000000       0.00000000       0.00000000     1849        2        0        0        0
S       66.26182858      31.77764565      17.27630256     183.84000005       0.00000000       0.00000000       0.00000000     1850        2        0        0        0
S       68.96756810      30.13465428      20.46303202     183.84000005       0.00000000       0.00000000       0.00000000     1851        2        0        0        0
S       68.99953198      30.12403206      17.30408185     183.84000005       0.00000000       0.00000000       0.00000000     1852        2        0        0        0
S       71.69245259      28.48033227      20.50137565     183.84000005       0.00000000       0.00000000       0.00000000     1853        2        0        0        0
S       71.73159873      28.46352609      17.34208716     183.84000005       0.00000000       0.00000000       0.00000000     1854        2        0        0        0
S       16.40091205      26.81674364      20.54793423     183.84000005       0.00000000       0.00000000       0.00000000     1855        2        1        0        0
S       16.44390552      26.79504694      17.38832793     183.84000005       0.00000000       0.00000000       0.00000000     1856        2        1        0        0
S       41.81807321      49.98573827      20.49130221     183.84000005       0.00000000       0.00000000       0.00000000     1857        2        0        0        0
S       41.83444603      49.99881082      17.33276670     183.84000005       0.00000000       0.00000000       0.00000000     1858        2        0        0        0
S       44.52968481      48.30148255      20.49815675     183.84000005       0.00000000       0.00000000       0.00000000     1859        2        0        0        0
S       44.53871330      48.31782113      17.33935790     183.84000005       0.00000000       0.00000000       0.00000000     1860        2        0        0        0
S       47.24091863      46.61233719      20.49479330     183.84000005       0.00000000       0.00000000       0.00000000     1861        2        0        0        0
S       47.23984531      46.63257884      17.33588631     183.84000005       0.00000000       0.00000000       0.00000000     1862        2        0        0        0
S       49.95253733      44.92408325      20.48065170     183.84000005       0.00000000       0.00000000       0.00000000     1863        2        0        0        0
S       49.94273976      44.94715916      17.32175120     183.84000005       0.00000000       0.00000000       0.00000000     1864        2        0        0        0
S       52.66593414      43.24197932      20.45976761     183.84000005       0.00000000       0.00000000       0.00000000     1865        2        0        0        0
S       52.65228068      43.26549878      17.30096574     183.84000005       0.00000000       0.00000000       0.00000000     1866        2        0        0        0
S       55.38312359      41.56917869      20.43867580     183.84000005       0.00000000       0.00000000       0.00000000     1867        2        0        0        0
S       55.37157846      41.59058189      17.28002840     183.84000005       0.00000000       0.00000000       0.00000000     1868        2        0        0        0
S       58.10594204      39.90614432      20.42331826     183.84000005       0.00000000       0.00000000       0.00000000     1869        2        0        0        0
S       58.10107612      39.92379238      17.26482948     183.84000005       0.00000000       0.00000000       0.00000000     1870        2        0        0        0
S       60.83505342      38.25109586      20.41695542     183.84000005       0.00000000       0.00000000       0.00000000     1871        2        0        0        0
S       60.83888842      38.26451396      17.25856809     183.84000005       0.00000000       0.00000000       0.00000000     1872        2        0        0        0
S       63.56944173      36.60109680      20.42017837     183.84000005       0.00000000       0.00000000       0.00000000     1873        2        0        0        0
S       63.58203572      36.61019450      17.26177171     183.84000005       0.00000000       0.00000000       0.00000000     1874        2        0        0        0
S       66.30669720      34.95299720      20.43253026     183.84000005       0.00000000       0.00000000       0.00000000     1875        2        0        0        0
S       66.32746833      34.95707795      17.27397576     183.84000005       0.00000000       0.00000000       0.00000000     1876        2        0        0        0
S       69.04382966      33.30374709      20.45394649     183.84000005       0.00000000       0.00000000       0.00000000     1877        2        0        0        0
S       69.07219292      33.30127878      17.29515406     183.84000005       0.00000000       0.00000000       0.00000000     1878        2        0        0        0
S       71.77810595      31.65037331      20.48474291     183.84000005       0.00000000       0.00000000       0.00000000     1879        2        0        0        0
S       71.81304409      31.63980522      17.32566173     183.84000005       0.00000000       0.00000000       0.00000000     1880        2        0        0        0
S       74.50763821      29.99011571      20.52437409     183.84000005       0.00000000       0.00000000       0.00000000     1881        2        0        0        0
S       74.54687197      29.97116171      17.36497645     183.84000005       0.00000000       0.00000000       0.00000000     1882        2        0        0        0
S       47.30703027      49.81902205      20.51560732     183.84000005       0.00000000       0.00000000       0.00000000     1883        2        0        0        0
S       47.31486738      49.84614403      17.35649629     183.84000005       0.00000000       0.00000000       0.00000000     1884        2        0        0        0
S       50.01758289      48.12842409      20.50622620     183.84000005       0.00000000       0.00000000       0.00000000     1885        2        0        0        0
S       50.01564504      48.15931449      17.34711073     183.84000005       0.00000000       0.00000000       0.00000000     1886        2        0        0        0
S       52.72965877      46.44121840      20.48765259     183.84000005       0.00000000       0.00000000       0.00000000     1887        2        0        0        0
S       52.72118807      46.47388757      17.32860075     183.84000005       0.00000000       0.00000000       0.00000000     1888        2        0        0        0
S       55.44505339      44.76153331      20.46549490     183.84000005       0.00000000       0.00000000       0.00000000     1889        2        0        0        0
S       55.43557456      44.79312266      17.30656291     183.84000005       0.00000000       0.00000000       0.00000000     1890        2        0        0        0
S       58.16596698      43.09111955      20.44625896     183.84000005       0.00000000       0.00000000       0.00000000     1891        2        0        0        0
S       58.16075418      43.11909253      17.28746888     183.84000005       0.00000000       0.00000000       0.00000000     1892        2        0        0        0
S       60.89395393      41.42927690      20.43465353     183.84000005       0.00000000       0.00000000       0.00000000     1893        2        0        0        0
S       60.89613601      41.45223912      17.27599702     183.84000005       0.00000000       0.00000000       0.00000000     1894        2        0        0        0
S       63.62904693      39.77364184      20.43240010     183.84000005       0.00000000       0.00000000       0.00000000     1895        2        0        0        0
S       63.63924996      39.79119419      17.27382046     183.84000005       0.00000000       0.00000000       0.00000000     1896        2        0        0        0
S       66.36956568      38.12131532      20.43901545     183.84000005       0.00000000       0.00000000       0.00000000     1897        2        0        0        0
S       66.38695159      38.13310867      17.28041388     183.84000005       0.00000000       0.00000000       0.00000000     1898        2        0        0        0
S       69.11263592      36.46956720      20.45358136     183.84000005       0.00000000       0.00000000       0.00000000     1899        2        0        0        0
S       69.13613028      36.47448002      17.29485891     183.84000005       0.00000000       0.00000000       0.00000000     1900        2        0        0        0
S       71.85499166      34.81589994      20.47586570     183.84000005       0.00000000       0.00000000       0.00000000     1901        2        0        0        0
S       71.88366218      34.81213599      17.31694603     183.84000005       0.00000000       0.00000000       0.00000000     1902        2        0        0        0
S       74.59371785      33.15787177      20.50601077     183.84000005       0.00000000       0.00000000       0.00000000     1903        2        0        0        0
S       74.62625758      33.14402740      17.34683638     183.84000005       0.00000000       0.00000000       0.00000000     1904        2        0        0        0
S       19.31523981      31.49313656      20.54321581     183.84000005       0.00000000       0.00000000       0.00000000     1905        2        1        0        0
S       19.34922085      31.46952011      17.38373916     183.84000005       0.00000000       0.00000000       0.00000000     1906        2        1        0        0
S       52.80093747      49.63934772      20.52364740     183.84000005       0.00000000       0.00000000       0.00000000     1907        2        0        0        0
S       52.79917720      49.67976001      17.36430247     183.84000005       0.00000000       0.00000000       0.00000000     1908        2        0        0        0
S       55.51407729      47.95336536      20.50203863     183.84000005       0.00000000       0.00000000       0.00000000     1909        2        0        0        0
S       55.50819168      47.99424471      17.34278747     183.84000005       0.00000000       0.00000000       0.00000000     1910        2        0        0        0
S       58.23214826      46.27558346      20.47977905     183.84000005       0.00000000       0.00000000       0.00000000     1911        2        0        0        0
S       58.22735491      46.31362655      17.32065454     183.84000005       0.00000000       0.00000000       0.00000000     1912        2        0        0        0
S       60.95731008      44.60656965      20.46258291     183.84000005       0.00000000       0.00000000       0.00000000     1913        2        0        0        0
S       60.95755185      44.63914932      17.30359447     183.84000005       0.00000000       0.00000000       0.00000000     1914        2        0        0        0
S       63.69063214      42.94486861      20.45367422     183.84000005       0.00000000       0.00000000       0.00000000     1915        2        0        0        0
S       63.69744841      42.97061351      17.29481639     183.84000005       0.00000000       0.00000000       0.00000000     1916        2        0        0        0
S       66.43144797      41.28795643      20.45343417     183.84000005       0.00000000       0.00000000       0.00000000     1917        2        0        0        0
S       66.44429595      41.30640081      17.29466434     183.84000005       0.00000000       0.00000000       0.00000000     1918        2        0        0        0
S       69.17744511      39.63323723      20.46065926     183.84000005       0.00000000       0.00000000       0.00000000     1919        2        0        0        0
S       69.19495518      39.64390010      17.30190264     183.84000005       0.00000000       0.00000000       0.00000000     1920        2        0        0        0
S       71.92530220      37.97847229      20.47426358     183.84000005       0.00000000       0.00000000       0.00000000     1921        2        0        0        0
S       71.94633494      37.98022583      17.31543903     183.84000005       0.00000000       0.00000000       0.00000000     1922        2        0        0        0
S       74.67146419      36.32161437      20.49410986     183.84000005       0.00000000       0.00000000       0.00000000     1923        2        0        0        0
S       74.69527125      36.31297727      17.33513454     183.84000005       0.00000000       0.00000000       0.00000000     1924        2        0        0        0
S       77.41286468      34.66049722      20.52046953     183.84000005       0.00000000       0.00000000       0.00000000     1925        2        0        0        0
S       77.43844413      34.64075994      17.36125410     183.84000005       0.00000000       0.00000000       0.00000000     1926        2        0        0        0
S       58.30783189      49.46020977      20.52297725     183.84000005       0.00000000       0.00000000       0.00000000     1927        2        0        0        0
S       58.30401161      49.50604475      17.36350704     183.84000005       0.00000000       0.00000000       0.00000000     1928        2        0        0        0
S       61.02908406      47.78383939      20.50064069     183.84000005       0.00000000       0.00000000       0.00000000     1929        2        0        0        0
S       61.02704685      47.82485173      17.34130161     183.84000005       0.00000000       0.00000000       0.00000000     1930        2        0        0        0
S       63.75860270      46.11560167      20.48413294     183.84000005       0.00000000       0.00000000       0.00000000     1931        2        0        0        0
S       63.76078102      46.14904531      17.32494704     183.84000005       0.00000000       0.00000000       0.00000000     1932        2        0        0        0
S       66.49680418      44.45369003      20.47536771     183.84000005       0.00000000       0.00000000       0.00000000     1933        2        0        0        0
S       66.50351448      44.47821270      17.31634530     183.84000005       0.00000000       0.00000000       0.00000000     1934        2        0        0        0
S       69.24229998      42.79571243      20.47391356     183.84000005       0.00000000       0.00000000       0.00000000     1935        2        0        0        0
S       69.25248622      42.81094786      17.31503021     183.84000005       0.00000000       0.00000000       0.00000000     1936        2        0        0        0
S       71.99219960      41.13945330      20.47840280     183.84000005       0.00000000       0.00000000       0.00000000     1937        2        0        0        0
S       72.00464120      41.14515956      17.31959659     183.84000005       0.00000000       0.00000000       0.00000000     1938        2        0        0        0
S       74.74280625      39.48303469      20.48802546     183.84000005       0.00000000       0.00000000       0.00000000     1939        2        0        0        0
S       74.75691143      39.47855678      17.32920741     183.84000005       0.00000000       0.00000000       0.00000000     1940        2        0        0        0
S       77.49039858      37.82457255      20.50306800     183.84000005       0.00000000       0.00000000       0.00000000     1941        2        0        0        0
S       77.50610040      37.80916772      17.34412712     183.84000005       0.00000000       0.00000000       0.00000000     1942        2        0        0        0
S       22.22041036      36.16184333      20.52412843     183.84000005       0.00000000       0.00000000       0.00000000     1943        2        1        0        0
S       22.23730521      36.13571060      17.36494485     183.84000005       0.00000000       0.00000000       0.00000000     1944        2        1        0        0
S       63.83625310      49.28740135      20.52287975     183.84000005       0.00000000       0.00000000       0.00000000     1945        2        0        0        0
S       63.83275282      49.32668011      17.36335776     183.84000005       0.00000000       0.00000000       0.00000000     1946        2        0        0        0
S       66.56947001      47.61988272      20.50452586     183.84000005       0.00000000       0.00000000       0.00000000     1947        2        0        0        0
S       66.56841777      47.64972697      17.34520419     183.84000005       0.00000000       0.00000000       0.00000000     1948        2        0        0        0
S       69.31115830      45.95816566      20.49278866     183.84000005       0.00000000       0.00000000       0.00000000     1949        2        0        0        0
S       69.31247823      45.97747383      17.33369950     183.84000005       0.00000000       0.00000000       0.00000000     1950        2        0        0        0
S       72.05929268      44.30009114      20.48713400     183.84000005       0.00000000       0.00000000       0.00000000     1951        2        0        0        0
S       72.06225293      44.30892884      17.32826239     183.84000005       0.00000000       0.00000000       0.00000000     1952        2        0        0        0
S       74.81056911      42.64369642      20.48658240     183.84000005       0.00000000       0.00000000       0.00000000     1953        2        0        0        0
S       74.81472637      42.64241183      17.32786081     183.84000005       0.00000000       0.00000000       0.00000000     1954        2        0        0        0
S       77.56113377      40.98717277      20.49091724     183.84000005       0.00000000       0.00000000       0.00000000     1955        2        0        0        0
S       77.56679625      40.97582463      17.33223709     183.84000005       0.00000000       0.00000000       0.00000000     1956        2        0        0        0
S       80.30737496      39.32846213      20.50092236     183.84000005       0.00000000       0.00000000       0.00000000     1957        2        0        0        0
S       80.31519074      39.30709080      17.34214791     183.84000005       0.00000000       0.00000000       0.00000000     1958        2        0        0        0
S       69.38720880      49.12221183      20.51695502     183.84000005       0.00000000       0.00000000       0.00000000     1959        2        0        0        0
S       69.37848008      49.14513159      17.35758874     183.84000005       0.00000000       0.00000000       0.00000000     1960        2        0        0        0
S       72.13008177      47.46174549      20.50016284     183.84000005       0.00000000       0.00000000       0.00000000     1961        2        0        0        0
S       72.12277364      47.47371686      17.34113698     183.84000005       0.00000000       0.00000000       0.00000000     1962        2        0        0        0
S       74.87809980      45.80499224      20.48914613     183.84000005       0.00000000       0.00000000       0.00000000     1963        2        0        0        0
S       74.87234781      45.80673363      17.33044246     183.84000005       0.00000000       0.00000000       0.00000000     1964        2        0        0        0
S       77.62784226      44.14996047      20.48354765     183.84000005       0.00000000       0.00000000       0.00000000     1965        2        0        0        0
S       77.62412662      44.14245963      17.32507772     183.84000005       0.00000000       0.00000000       0.00000000     1966        2        0        0        0
S       80.37559775      42.49458263      20.48367708     183.84000005       0.00000000       0.00000000       0.00000000     1967        2        0        0        0
S       80.37490886      42.47846740      17.32529601     183.84000005       0.00000000       0.00000000       0.00000000     1968        2        0        0        0
S       25.10657319      40.83636732      20.49048701     183.84000005       0.00000000       0.00000000       0.00000000     1969        2        1        0        0
S       25.10973423      40.81218268      17.33202009     183.84000005       0.00000000       0.00000000       0.00000000     1970        2        1        0        0
S       74.94881918      48.96824250      20.49591966     183.84000005       0.00000000       0.00000000       0.00000000     1971        2        0        0        0
S       74.93341065      48.97357285      17.33714418     183.84000005       0.00000000       0.00000000       0.00000000     1972        2        0        0        0
S       77.69401650      47.31426925      20.48087618     183.84000005       0.00000000       0.00000000       0.00000000     1973        2        0        0        0
S       77.68185691      47.31096781      17.32252210     183.84000005       0.00000000       0.00000000       0.00000000     1974        2        0        0        0
S       80.43976457      45.66175318      20.47245977     183.84000005       0.00000000       0.00000000       0.00000000     1975        2        0        0        0
S       80.43181922      45.65113002      17.31437833     183.84000005       0.00000000       0.00000000       0.00000000     1976        2        0        0        0
S       83.18269657      44.00811823      20.47110466     183.84000005       0.00000000       0.00000000       0.00000000     1977        2        0        0        0
S       83.17998558      43.99097646      17.31309513     183.84000005       0.00000000       0.00000000       0.00000000     1978        2        0        0        0
S       80.50380252      48.83103389      20.46739938     183.84000005       0.00000000       0.00000000       0.00000000     1979        2        0        0        0
S       80.48991730      48.82633703      17.30946464     183.84000005       0.00000000       0.00000000       0.00000000     1980        2        0        0        0
S       83.24402944      47.18145054      20.45930360     183.84000005       0.00000000       0.00000000       0.00000000     1981        2        0        0        0
S       83.23663381      47.17153722      17.30159627     183.84000005       0.00000000       0.00000000       0.00000000     1982        2        0        0        0
S       27.96953665      45.52928356      20.45928398     183.84000005       0.00000000       0.00000000       0.00000000     1983        2        1        0        0
S       27.96902851      45.51477386      17.30157770     183.84000005       0.00000000       0.00000000       0.00000000     1984        2        1        0        0
S       86.04060942      48.70971846      20.44975152     183.84000005       0.00000000       0.00000000       0.00000000     1985        2        0        0        0
S       86.03741802      48.70350821      17.29229770     183.84000005       0.00000000       0.00000000       0.00000000     1986        2        0        0        0
