366
Lattice="24.90379205328297 0.0 0.0 12.451896026641482 21.567316568708076 0.0 0.0 0.0 30.0" Properties=species:S:1:pos:R:3:masses:R:1:momenta:R:3:id:I:1:type:I:1:travel:I:3 comment="LAMMPS data file via write_data, version 28 Mar 2023, timestep = 58, units = metal" pbc="T T T"
Mo      25.71391874       1.65211538      12.41379398      95.95000002       0.00000000       0.00000000       0.00000000        1        1       -1        0       -1
Mo       3.67391973       0.25069361      12.43116272      95.95000002       0.00000000       0.00000000       0.00000000        2        1        0        0       -1
Mo       3.45736272       3.43224666      12.44635800      95.95000002       0.00000000       0.00000000       0.00000000        3        1        0        0       -1
Mo       6.31977477       2.02589285      12.47707781      95.95000002       0.00000000       0.00000000       0.00000000        4        1        0        0       -1
Mo       9.18075065       0.60865712      12.52347808      95.95000002       0.00000000       0.00000000       0.00000000        5        1        0        0        0
Mo      28.15225999       6.61052646      12.49182832      95.95000002       0.00000000       0.00000000       0.00000000        6        1       -1        0       -1
Mo       6.11039242       5.20517920      12.50221261      95.95000002       0.00000000       0.00000000       0.00000000        7        1        0        0        0
Mo       8.97113904       3.79054845      12.53245354      95.95000002       0.00000000       0.00000000       0.00000000        8        1        0        0        0
Mo      11.83079963       2.36446609      12.55529394      95.95000002       0.00000000       0.00000000       0.00000000        9        1        0        0        0
Mo      14.69134630       0.93354838      12.54672480      95.95000002       0.00000000       0.00000000       0.00000000       10        1        0        0        0
Mo       5.91090179       8.37972741      12.53744357      95.95000002       0.00000000       0.00000000       0.00000000       11        1        0        0        0
Mo       8.77140121       6.96806570      12.55259401      95.95000002       0.00000000       0.00000000       0.00000000       12        1        0        0        0
Mo      11.62851695       5.54594461      12.56911454      95.95000002       0.00000000       0.00000000       0.00000000       13        1        0        0        0
Mo      14.48398248       4.11657026      12.55963105      95.95000002       0.00000000       0.00000000       0.00000000       14        1        0        0        0
Mo      17.34135160       2.69058246      12.51643137      95.95000002       0.00000000       0.00000000       0.00000000       15        1        0        0        0
Mo      20.20293759       1.27601082      12.46003032      95.95000002       0.00000000       0.00000000       0.00000000       16        1        0        0       -1
Mo      30.62153616      11.55135246      12.55669312      95.95000002       0.00000000       0.00000000       0.00000000       17        1       -1        0        0
Mo       8.57966426      10.14192508      12.55822353      95.95000002       0.00000000       0.00000000       0.00000000       18        1        0        0        0
Mo      11.43638167       8.72557080      12.57227499      95.95000002       0.00000000       0.00000000       0.00000000       19        1        0        0        0
Mo      14.28734688       7.30089146      12.57353771      95.95000002       0.00000000       0.00000000       0.00000000       20        1        0        0        0
Mo      17.13689072       5.87527517      12.54276734      95.95000002       0.00000000       0.00000000       0.00000000       21        1        0        0        0
Mo      19.99042885       4.45828593      12.48792909      95.95000002       0.00000000       0.00000000       0.00000000       22        1        0        0       -1
Mo      22.85018452       3.05231417      12.43647350      95.95000002       0.00000000       0.00000000       0.00000000       23        1        0        0       -1
Mo       8.38626689      13.31427353      12.53592961      95.95000002       0.00000000       0.00000000       0.00000000       24        1        0        0        0
Mo      11.24621244      11.90384403      12.54487877      95.95000002       0.00000000       0.00000000       0.00000000       25        1        0        0        0
Mo      14.09777598      10.48650284      12.56145146      95.95000002       0.00000000       0.00000000       0.00000000       26        1        0        0        0
Mo      16.94286172       9.06421785      12.55991600      95.95000002       0.00000000       0.00000000       0.00000000       27        1        0        0        0
Mo      19.78816736       7.64503301      12.52945806      95.95000002       0.00000000       0.00000000       0.00000000       28        1        0        0        0
Mo      22.63972338       6.23507929      12.48423573      95.95000002       0.00000000       0.00000000       0.00000000       29        1        0        0       -1
Mo      25.49857790       4.83296019      12.44979937      95.95000002       0.00000000       0.00000000       0.00000000       30        1        0        0       -1
Mo      33.08640743      16.48771849      12.49655601      95.95000002       0.00000000       0.00000000       0.00000000       31        1       -1        0       -1
Mo      11.04699324      15.08144806      12.49320415      95.95000002       0.00000000       0.00000000       0.00000000       32        1        0        0       -1
Mo      13.90412894      13.67179661      12.51605010      95.95000002       0.00000000       0.00000000       0.00000000       33        1        0        0        0
Mo      16.75212387      12.25587026      12.54482426      95.95000002       0.00000000       0.00000000       0.00000000       34        1        0        0        0
Mo      19.59487802      10.83680783      12.55467097      95.95000002       0.00000000       0.00000000       0.00000000       35        1        0        0        0
Mo      22.43992488       9.42140737      12.53792478      95.95000002       0.00000000       0.00000000       0.00000000       36        1        0        0        0
Mo      25.29258763       8.01354757      12.50893588      95.95000002       0.00000000       0.00000000       0.00000000       37        1        0        0        0
Mo      10.83521506      18.25956284      12.44329754      95.95000002       0.00000000       0.00000000       0.00000000       38        1        0        0       -1
Mo      13.69827214      16.85546063      12.45809145      95.95000002       0.00000000       0.00000000       0.00000000       39        1        0        0       -1
Mo      16.55387577      15.44635334      12.50056904      95.95000002       0.00000000       0.00000000       0.00000000       40        1        0        0        0
Mo      19.40181506      14.03055242      12.54558142      95.95000002       0.00000000       0.00000000       0.00000000       41        1        0        0        0
Mo      22.24699457      12.61127885      12.56766106      95.95000002       0.00000000       0.00000000       0.00000000       42        1        0        0        0
Mo      25.09638535      11.19529396      12.56091073      95.95000002       0.00000000       0.00000000       0.00000000       43        1        0        0        0
Mo      27.95324322       9.78613590      12.54268572      95.95000002       0.00000000       0.00000000       0.00000000       44        1        0        0        0
Mo      35.52007546      21.43894906      12.42041899      95.95000002       0.00000000       0.00000000       0.00000000       45        1       -1        0       -1
Mo      13.48168315      20.03787515      12.41743861      95.95000002       0.00000000       0.00000000       0.00000000       46        1        0        0       -1
Mo      16.34353835      18.63364243      12.45350361      95.95000002       0.00000000       0.00000000       0.00000000       47        1        0        0       -1
Mo      19.19958604      17.22192979      12.51175634      95.95000002       0.00000000       0.00000000       0.00000000       48        1        0        0        0
Mo      22.05109618      15.80188597      12.56215811      95.95000002       0.00000000       0.00000000       0.00000000       49        1        0        0        0
Mo      24.90295677      14.37900825      12.58143361      95.95000002       0.00000000       0.00000000       0.00000000       50        1        0        0        0
Mo      27.75972351      12.96155014      12.57159310      95.95000002       0.00000000       0.00000000       0.00000000       51        1        0        0        0
Mo      18.98704142      20.40947088      12.48115712      95.95000002       0.00000000       0.00000000       0.00000000       52        1        0        0       -1
Mo      21.84525884      18.99040658      12.53802049      95.95000002       0.00000000       0.00000000       0.00000000       53        1        0        0        0
Mo      24.70263825      17.56372930      12.57152671      95.95000002       0.00000000       0.00000000       0.00000000       54        1        0        0        0
Mo      27.56227437      16.13893673      12.56969168      95.95000002       0.00000000       0.00000000       0.00000000       55        1        0        0        0
Mo      30.42556907      14.72324329      12.54851751      95.95000002       0.00000000       0.00000000       0.00000000       56        1        0        0        0
Mo      24.49327227      20.74831424      12.55529905      95.95000002       0.00000000       0.00000000       0.00000000       57        1        0        0        0
Mo      27.35533568      19.31890203      12.55300521      95.95000002       0.00000000       0.00000000       0.00000000       58        1        0        0        0
Mo      30.21995459      17.89803669      12.52429832      95.95000002       0.00000000       0.00000000       0.00000000       59        1        0        0        0
Mo      30.00633670      21.07647206      12.50797344      95.95000002       0.00000000       0.00000000       0.00000000       60        1        0        0        0
Mo      32.87230644      19.66403679      12.46425613      95.95000002       0.00000000       0.00000000       0.00000000       61        1        0        0       -1
W        4.66438548       1.33408240      19.04602230      32.06000001       0.00000000       0.00000000       0.00000000       62        3        0        0        0
W        4.87697940       4.51613369      19.01904865      32.06000001       0.00000000       0.00000000       0.00000000       63        3        0        0        0
W        7.52608309       2.74562700      18.99614458      32.06000001       0.00000000       0.00000000       0.00000000       64        3        0        0        0
W       10.17585115       0.98509643      18.96442449      32.06000001       0.00000000       0.00000000       0.00000000       65        3        0        0        0
W        7.73134623       5.93001827      18.96925269      32.06000001       0.00000000       0.00000000       0.00000000       66        3        0        0        0
W       10.38333833       4.16800102      18.95108016      32.06000001       0.00000000       0.00000000       0.00000000       67        3        0        0        0
W       13.03600505       2.41386242      18.94621073      32.06000001       0.00000000       0.00000000       0.00000000       68        3        0        0        0
W       15.68671777       0.65887103      18.96632366      32.06000001       0.00000000       0.00000000       0.00000000       69        3        0        0        0
W        7.92696894       9.11868100      18.94862733      32.06000001       0.00000000       0.00000000       0.00000000       70        3        0        0        0
W       10.58101652       7.35288011      18.93606639      32.06000001       0.00000000       0.00000000       0.00000000       71        3        0        0        0
W       13.23808231       5.59590562      18.93352986      32.06000001       0.00000000       0.00000000       0.00000000       72        3        0        0        0
W       15.89488447       3.84094299      18.95859271      32.06000001       0.00000000       0.00000000       0.00000000       73        3        0        0        0
W       18.54706393       2.07892800      19.00499806      32.06000001       0.00000000       0.00000000       0.00000000       74        3        0        0        0
W       21.19406427       0.30661828      19.04930149      32.06000001       0.00000000       0.00000000       0.00000000       75        3        0        0        0
W       10.77206493      10.53970331      18.94422377      32.06000001       0.00000000       0.00000000       0.00000000       76        3        0        0        0
W       13.43093040       8.77708150      18.93194358      32.06000001       0.00000000       0.00000000       0.00000000       77        3        0        0        0
W       16.09388710       7.01937735      18.94349993      32.06000001       0.00000000       0.00000000       0.00000000       78        3        0        0        0
W       18.75464600       5.25841608      18.98478148      32.06000001       0.00000000       0.00000000       0.00000000       79        3        0        0        0
W       21.40865171       3.48837926      19.03663578      32.06000001       0.00000000       0.00000000       0.00000000       80        3        0        0        0
W       24.05698451       1.71035434      19.07248219      32.06000001       0.00000000       0.00000000       0.00000000       81        3        0        0        0
W       10.96649680      13.72657715      18.98272654      32.06000001       0.00000000       0.00000000       0.00000000       82        3        0        0        0
W       13.62219611      11.95754853      18.95907376      32.06000001       0.00000000       0.00000000       0.00000000       83        3        0        0        0
W       16.28593381      10.19487146      18.94426713      32.06000001       0.00000000       0.00000000       0.00000000       84        3        0        0        0
W       18.95315444       8.43342482      18.95866523      32.06000001       0.00000000       0.00000000       0.00000000       85        3        0        0        0
W       21.61599694       6.66637846      18.99879337      32.06000001       0.00000000       0.00000000       0.00000000       86        3        0        0        0
W       24.27098075       4.89113418      19.04076418      32.06000001       0.00000000       0.00000000       0.00000000       87        3        0        0        0
W        2.01665037       3.11142893      19.06020034      32.06000001       0.00000000       0.00000000       0.00000000       88        3        1        0        0
W       13.82198765      15.13734860      19.00798656      32.06000001       0.00000000       0.00000000       0.00000000       89        3        0        0        0
W       16.48036064      13.36915861      18.97095431      32.06000001       0.00000000       0.00000000       0.00000000       90        3        0        0        0
W       19.14669487      11.60571999      18.94902516      32.06000001       0.00000000       0.00000000       0.00000000       91        3        0        0        0
W       21.81456821       9.84132900      18.95793016      32.06000001       0.00000000       0.00000000       0.00000000       92        3        0        0        0
W       24.47643990       8.07061357      18.98860185      32.06000001       0.00000000       0.00000000       0.00000000       93        3        0        0        0
W       27.13073647       6.29354368      19.01585103      32.06000001       0.00000000       0.00000000       0.00000000       94        3        0        0        0
W       14.03342715      18.31721310      19.05423133      32.06000001       0.00000000       0.00000000       0.00000000       95        3        0        0        0
W       16.68491581      16.54427011      19.01121111      32.06000001       0.00000000       0.00000000       0.00000000       96        3        0        0        0
W       19.34407637      14.77819552      18.96329759      32.06000001       0.00000000       0.00000000       0.00000000       97        3        0        0        0
W       22.00907425      13.01572621      18.93716845      32.06000001       0.00000000       0.00000000       0.00000000       98        3        0        0        0
W       24.67324135      11.25031546      18.94272308      32.06000001       0.00000000       0.00000000       0.00000000       99        3        0        0        0
W       27.33130314       9.47800025      18.96471308      32.06000001       0.00000000       0.00000000       0.00000000      100        3        0        0        0
W        5.08023471       7.70188555      18.97763867      32.06000001       0.00000000       0.00000000       0.00000000      101        3        1        0        0
W       14.25141888      21.49770827      19.07507810      32.06000001       0.00000000       0.00000000       0.00000000      102        3        0        0        0
W       16.89913703      19.72167374      19.04233665      32.06000001       0.00000000       0.00000000       0.00000000      103        3        0        0        0
W       19.55088913      17.95329028      18.98914795      32.06000001       0.00000000       0.00000000       0.00000000      104        3        0        0        0
W       22.20802129      16.19199366      18.94264133      32.06000001       0.00000000       0.00000000       0.00000000      105        3        0        0        0
W       24.86792047      14.43168740      18.92462378      32.06000001       0.00000000       0.00000000       0.00000000      106        3        0        0        0
W       27.52545317      12.66534350      18.93402709      32.06000001       0.00000000       0.00000000       0.00000000      107        3        0        0        0
W       30.17881487      10.89209174      18.94881746      32.06000001       0.00000000       0.00000000       0.00000000      108        3        0        0        0
W       19.76481725      21.13172805      19.00492952      32.06000001       0.00000000       0.00000000       0.00000000      109        3        0        0        0
W       22.41573318      19.37104147      18.95918726      32.06000001       0.00000000       0.00000000       0.00000000      110        3        0        0        0
W       25.06902026      17.61453092      18.93329557      32.06000001       0.00000000       0.00000000       0.00000000      111        3        0        0        0
W       27.72204792      15.85377902      18.93525749      32.06000001       0.00000000       0.00000000       0.00000000      112        3        0        0        0
W       30.37280035      14.08438956      18.95047964      32.06000001       0.00000000       0.00000000       0.00000000      113        3        0        0        0
W        8.11904017      12.31028928      18.95602931      32.06000001       0.00000000       0.00000000       0.00000000      114        3        1        0        0
W       25.27809655      20.79803324      18.94714653      32.06000001       0.00000000       0.00000000       0.00000000      115        3        0        0        0
W       27.92739035      19.04105779      18.95447586      32.06000001       0.00000000       0.00000000       0.00000000      116        3        0        0        0
W       30.57461601      17.27502901      18.97617738      32.06000001       0.00000000       0.00000000       0.00000000      117        3        0        0        0
W       33.22112322      15.50114090      18.99063883      32.06000001       0.00000000       0.00000000       0.00000000      118        3        0        0        0
W       30.78558818      20.46240593      19.00144814      32.06000001       0.00000000       0.00000000       0.00000000      119        3        0        0        0
W       33.43016353      18.68902037      19.03001346      32.06000001       0.00000000       0.00000000       0.00000000      120        3        0        0        0
W       11.17184298      16.91177063      19.03330754      32.06000001       0.00000000       0.00000000       0.00000000      121        3        1        0        0
W       36.29084168      20.09540643      19.06917431      32.06000001       0.00000000       0.00000000       0.00000000      122        3        0        0        0
S        2.63338680       1.77277967      13.99532597     183.84000005       0.00000000       0.00000000       0.00000000      123        2        0        0        0
S        2.65972228       1.78653315      10.85627550     183.84000005       0.00000000       0.00000000       0.00000000      124        2        0        0       -1
S        5.48528223       0.37719748      14.02950504     183.84000005       0.00000000       0.00000000       0.00000000      125        2        0        0        0
S        5.53488378       0.37248968      10.89048942     183.84000005       0.00000000       0.00000000       0.00000000      126        2        0        0       -1
S        5.27125539       3.54576013      14.04259659     183.84000005       0.00000000       0.00000000       0.00000000      127        2        0        0        0
S        5.31681396       3.56797294      10.90316588     183.84000005       0.00000000       0.00000000       0.00000000      128        2        0        0       -1
S        8.13046021       2.14045841      14.08067219     183.84000005       0.00000000       0.00000000       0.00000000      129        2        0        0        0
S        8.18240179       2.14676971      10.94082561     183.84000005       0.00000000       0.00000000       0.00000000      130        2        0        0       -1
S       11.00271028       0.71848104      14.11670363     183.84000005       0.00000000       0.00000000       0.00000000      131        2        0        0        0
S       11.03297338       0.71689114      10.97623229     183.84000005       0.00000000       0.00000000       0.00000000      132        2        0        0       -1
S        5.07081310       6.71814770      14.08025523     183.84000005       0.00000000       0.00000000       0.00000000      133        2        0        0        0
S        5.10180455       6.75051295      10.94014081     183.84000005       0.00000000       0.00000000       0.00000000      134        2        0        0       -1
S        7.92715827       5.31489925      14.10071488     183.84000005       0.00000000       0.00000000       0.00000000      135        2        0        0        0
S        7.96958247       5.33238655      10.96000410     183.84000005       0.00000000       0.00000000       0.00000000      136        2        0        0       -1
S       10.79378966       3.89507291      14.12591808     183.84000005       0.00000000       0.00000000       0.00000000      137        2        0        0        0
S       10.82371771       3.90626221      10.98464198     183.84000005       0.00000000       0.00000000       0.00000000      138        2        0        0       -1
S       13.67035067       2.46296451      14.12742105     183.84000005       0.00000000       0.00000000       0.00000000      139        2        0        0        0
S       13.66613194       2.47450452      10.98615034     183.84000005       0.00000000       0.00000000       0.00000000      140        2        0        0       -1
S       16.54774415       1.03553072      14.09441467     183.84000005       0.00000000       0.00000000       0.00000000      141        2        0        0        0
S       16.50993658       1.04441062      10.95404306     183.84000005       0.00000000       0.00000000       0.00000000      142        2        0        0       -1
S        7.74130836       8.49547670      14.12260678     183.84000005       0.00000000       0.00000000       0.00000000      143        2        0        0        0
S        7.76118336       8.50188794      10.98141310     183.84000005       0.00000000       0.00000000       0.00000000      144        2        0        0       -1
S       10.60117573       7.07967164      14.13989746     183.84000005       0.00000000       0.00000000       0.00000000      145        2        0        0        0
S       10.62013198       7.08249037      10.99790837     183.84000005       0.00000000       0.00000000       0.00000000      146        2        0        0       -1
S       13.46750904       5.64690113      14.14297391     183.84000005       0.00000000       0.00000000       0.00000000      147        2        0        0        0
S       13.46458748       5.65934911      11.00086615     183.84000005       0.00000000       0.00000000       0.00000000      148        2        0        0       -1
S       16.33577263       4.21177554      14.11220041     183.84000005       0.00000000       0.00000000       0.00000000      149        2        0        0        0
S       16.30444708       4.23620622      10.97115397     183.84000005       0.00000000       0.00000000       0.00000000      150        2        0        0       -1
S       19.19931163       2.79196303      14.05643482     183.84000005       0.00000000       0.00000000       0.00000000      151        2        0        0        0
S       19.15507420       2.81794350      10.91672805     183.84000005       0.00000000       0.00000000       0.00000000      152        2        0        0       -1
S       22.05617434       1.39081800      14.00424538     183.84000005       0.00000000       0.00000000       0.00000000      153        2        0        0        0
S       22.02298242       1.40564697      10.86519369     183.84000005       0.00000000       0.00000000       0.00000000      154        2        0        0       -1
S        7.56478809      11.67816854      14.12286501     183.84000005       0.00000000       0.00000000       0.00000000      155        2        0        0        0
S        7.55531918      11.66122253      10.98214690     183.84000005       0.00000000       0.00000000       0.00000000      156        2        0        0       -1
S       10.42090524      10.26999008      14.13276442     183.84000005       0.00000000       0.00000000       0.00000000      157        2        0        0        0
S       10.42100492      10.24674618      10.99121148     183.84000005       0.00000000       0.00000000       0.00000000      158        2        0        0       -1
S       13.27738969       8.84349510      14.14485932     183.84000005       0.00000000       0.00000000       0.00000000      159        2        0        0        0
S       13.27239718       8.83263267      11.00266287     183.84000005       0.00000000       0.00000000       0.00000000      160        2        0        0       -1
S       16.13385724       7.40440382      14.13319119     183.84000005       0.00000000       0.00000000       0.00000000      161        2        0        0        0
S       16.11190600       7.41973762      10.99156091     183.84000005       0.00000000       0.00000000       0.00000000      162        2        0        0       -1
S       18.98767803       5.97199062      14.09059424     183.84000005       0.00000000       0.00000000       0.00000000      163        2        0        0        0
S       18.95405832       6.00957121      10.95042019     183.84000005       0.00000000       0.00000000       0.00000000      164        2        0        0       -1
S       21.83884149       4.55909092      14.03634825     183.84000005       0.00000000       0.00000000       0.00000000      165        2        0        0        0
S       21.81120298       4.60241921      10.89721635     183.84000005       0.00000000       0.00000000       0.00000000      166        2        0        0       -1
S       24.68841514       3.16298183      13.99830599     183.84000005       0.00000000       0.00000000       0.00000000      167        2        0        0        0
S       24.68385997       3.19579110      10.85933396     183.84000005       0.00000000       0.00000000       0.00000000      168        2        0        0       -1
S       10.23744265      13.45540991      14.09540669     183.84000005       0.00000000       0.00000000       0.00000000      169        2        0        0        0
S       10.21891787      13.41094556      10.95525449     183.84000005       0.00000000       0.00000000       0.00000000      170        2        0        0       -1
S       13.08922946      12.04213803      14.11350568     183.84000005       0.00000000       0.00000000       0.00000000      171        2        0        0        0
S       13.08208474      12.00140464      10.97245024     183.84000005       0.00000000       0.00000000       0.00000000      172        2        0        0       -1
S       15.93806479      10.61051491      14.12931750     183.84000005       0.00000000       0.00000000       0.00000000      173        2        0        0        0
S       15.92927947      10.59564341      10.98785199     183.84000005       0.00000000       0.00000000       0.00000000      174        2        0        0       -1
S       18.78403145       9.17149489      14.12057461     183.84000005       0.00000000       0.00000000       0.00000000      175        2        0        0        0
S       18.76793924       9.19273651      10.97984854     183.84000005       0.00000000       0.00000000       0.00000000      176        2        0        0       -1
S       21.62896278       7.74336336      14.08688274     183.84000005       0.00000000       0.00000000       0.00000000      177        2        0        0        0
S       21.61277927       7.79099100      10.94719265     183.84000005       0.00000000       0.00000000       0.00000000      178        2        0        0       -1
S       24.47569412       6.33464002      14.04830944     183.84000005       0.00000000       0.00000000       0.00000000      179        2        0        0        0
S       24.47265577       6.38803131      10.90916021     183.84000005       0.00000000       0.00000000       0.00000000      180        2        0        0       -1
S       27.32410791       4.93976768      14.02911360     183.84000005       0.00000000       0.00000000       0.00000000      181        2        0        0        0
S       27.34541079       4.98109606      10.88995800     183.84000005       0.00000000       0.00000000       0.00000000      182        2        0        0       -1
S       10.03834839      16.63004877      14.04489653     183.84000005       0.00000000       0.00000000       0.00000000      183        2        0        0        0
S       10.00800969      16.58635339      10.90574156     183.84000005       0.00000000       0.00000000       0.00000000      184        2        0        0       -1
S       12.88985742      15.22936404      14.05746025     183.84000005       0.00000000       0.00000000       0.00000000      185        2        0        0        0
S       12.88265120      15.17720830      10.91778806     183.84000005       0.00000000       0.00000000       0.00000000      186        2        0        0       -1
S       15.73739804      13.81389472      14.09111588     183.84000005       0.00000000       0.00000000       0.00000000      187        2        0        0        0
S       15.74398768      13.77229647      10.95071557     183.84000005       0.00000000       0.00000000       0.00000000      188        2        0        0       -1
S       18.58250357      12.38211760      14.12073644     183.84000005       0.00000000       0.00000000       0.00000000      189        2        0        0        0
S       18.58912660      12.37091521      10.97997495     183.84000005       0.00000000       0.00000000       0.00000000      190        2        0        0       -1
S       21.42678644      10.94591448      14.12579117     183.84000005       0.00000000       0.00000000       0.00000000      191        2        0        0        0
S       21.42763649      10.97020763      10.98516547     183.84000005       0.00000000       0.00000000       0.00000000      192        2        0        0       -1
S       24.27323522       9.52151297      14.10687157     183.84000005       0.00000000       0.00000000       0.00000000      193        2        0        0        0
S       24.27363458       9.56771838      10.96666565     183.84000005       0.00000000       0.00000000       0.00000000      194        2        0        0       -1
S       27.12292135       8.11520312      14.08407403     183.84000005       0.00000000       0.00000000       0.00000000      195        2        0        0        0
S       27.13455146       8.16173849      10.94418081     183.84000005       0.00000000       0.00000000       0.00000000      196        2        0        0       -1
S       12.67648301      18.40246747      14.00489593     183.84000005       0.00000000       0.00000000       0.00000000      197        2        0        0        0
S       12.67045699      18.36557261      10.86586063     183.84000005       0.00000000       0.00000000       0.00000000      198        2        0        0       -1
S       15.52547233      17.00161439      14.03771625     183.84000005       0.00000000       0.00000000       0.00000000      199        2        0        0        0
S       15.54479963      16.95792254      10.89839355     183.84000005       0.00000000       0.00000000       0.00000000      200        2        0        0       -1
S       18.37441858      15.58559571      14.08929015     183.84000005       0.00000000       0.00000000       0.00000000      201        2        0        0        0
S       18.40309430      15.55212127      10.94924934     183.84000005       0.00000000       0.00000000       0.00000000      202        2        0        0       -1
S       21.22520178      14.15460472      14.13128259     183.84000005       0.00000000       0.00000000       0.00000000      203        2        0        0        0
S       21.24562667      14.14620910      10.99034212     183.84000005       0.00000000       0.00000000       0.00000000      204        2        0        0       -1
S       24.07843809      12.72124344      14.14372149     183.84000005       0.00000000       0.00000000       0.00000000      205        2        0        0        0
S       24.08410668      12.73839355      11.00242827     183.84000005       0.00000000       0.00000000       0.00000000      206        2        0        0       -1
S       26.93369595      11.30140953      14.13117362     183.84000005       0.00000000       0.00000000       0.00000000      207        2        0        0        0
S       26.93282464      11.32875398      10.99023487     183.84000005       0.00000000       0.00000000       0.00000000      208        2        0        0       -1
S       29.78930321       9.89737315      14.11763142     183.84000005       0.00000000       0.00000000       0.00000000      209        2        0        0        0
S       29.79636668       9.91698280      10.97698321     183.84000005       0.00000000       0.00000000       0.00000000      210        2        0        0       -1
S       12.45595553      21.56682318      13.98162080     183.84000005       0.00000000       0.00000000       0.00000000      211        2        0        0        0
S       12.45087193      21.56350705      10.84247270     183.84000005       0.00000000       0.00000000       0.00000000      212        2        0        0       -1
S       15.30540343      20.17442586      13.99902263     183.84000005       0.00000000       0.00000000       0.00000000      213        2        0        0        0
S       15.33140660      20.15374078      10.86004206     183.84000005       0.00000000       0.00000000       0.00000000      214        2        0        0       -1
S       18.15738116      18.77179408      14.04955803     183.84000005       0.00000000       0.00000000       0.00000000      215        2        0        0        0
S       18.20121336      18.74230513      10.91034790     183.84000005       0.00000000       0.00000000       0.00000000      216        2        0        0       -1
S       21.01572223      17.35267253      14.10839515     183.84000005       0.00000000       0.00000000       0.00000000      217        2        0        0        0
S       21.05371422      17.32792118      10.96809995     183.84000005       0.00000000       0.00000000       0.00000000      218        2        0        0       -1
S       23.88019989      15.92076952      14.14557947     183.84000005       0.00000000       0.00000000       0.00000000      219        2        0        0        0
S       23.89370895      15.91035108      11.00420811     183.84000005       0.00000000       0.00000000       0.00000000      220        2        0        0       -1
S       26.74648841      14.49238123      14.14834992     183.84000005       0.00000000       0.00000000       0.00000000      221        2        0        0        0
S       26.73553992      14.49224659      11.00687592     183.84000005       0.00000000       0.00000000       0.00000000      222        2        0        0       -1
S       29.60983581      13.07993545      14.13175391     183.84000005       0.00000000       0.00000000       0.00000000      223        2        0        0        0
S       29.59125289      13.07602145      10.99090961     183.84000005       0.00000000       0.00000000       0.00000000      224        2        0        0       -1
S       20.79831638      20.53467645      14.08363137     183.84000005       0.00000000       0.00000000       0.00000000      225        2        0        0        0
S       20.84782287      20.51930704      10.94400546     183.84000005       0.00000000       0.00000000       0.00000000      226        2        0        0       -1
S       23.67058036      19.10865330      14.12738762     183.84000005       0.00000000       0.00000000       0.00000000      227        2        0        0        0
S       23.69360496      19.09260159      10.98670757     183.84000005       0.00000000       0.00000000       0.00000000      228        2        0        0       -1
S       26.54785946      17.67825816      14.13805080     183.84000005       0.00000000       0.00000000       0.00000000      229        2        0        0        0
S       26.53449211      17.66451487      10.99691269     183.84000005       0.00000000       0.00000000       0.00000000      230        2        0        0       -1
S       29.42082962      16.25966331      14.11933376     183.84000005       0.00000000       0.00000000       0.00000000      231        2        0        0        0
S       29.38495454      16.24114031      10.97879509     183.84000005       0.00000000       0.00000000       0.00000000      232        2        0        0       -1
S       32.28487447      14.85608411      14.09730853     183.84000005       0.00000000       0.00000000       0.00000000      233        2        0        0        0
S       32.25065188      14.82394728      10.95743571     183.84000005       0.00000000       0.00000000       0.00000000      234        2        0        0       -1
S       26.33591749      20.85538201      14.12415071     183.84000005       0.00000000       0.00000000       0.00000000      235        2        0        0        0
S       26.32678089      20.85022289      10.98339029     183.84000005       0.00000000       0.00000000       0.00000000      236        2        0        0       -1
S       29.21494075      19.43304205      14.09898676     183.84000005       0.00000000       0.00000000       0.00000000      237        2        0        0        0
S       29.17408600      19.42058222      10.95879682     183.84000005       0.00000000       0.00000000       0.00000000      238        2        0        0       -1
S       32.08368765      18.02678980      14.06323083     183.84000005       0.00000000       0.00000000       0.00000000      239        2        0        0        0
S       32.03670264      17.99989545      10.92384906     183.84000005       0.00000000       0.00000000       0.00000000      240        2        0        0       -1
S       31.86871236      21.19219399      14.04474770     183.84000005       0.00000000       0.00000000       0.00000000      241        2        0        0        0
S       31.81983082      21.18962020      10.90539421     183.84000005       0.00000000       0.00000000       0.00000000      242        2        0        0       -1
S       34.72800516      19.79575329      14.00798854     183.84000005       0.00000000       0.00000000       0.00000000      243        2        0        0        0
S       34.69366042      19.77550051      10.86905910     183.84000005       0.00000000       0.00000000       0.00000000      244        2        0        0       -1
S        2.83893567       1.46435634      20.64352544     183.84000005       0.00000000       0.00000000       0.00000000      245        2        0        0        0
S        2.81626963       1.45070852      17.48571474     183.84000005       0.00000000       0.00000000       0.00000000      246        2        0        0        0
S        3.05133335       4.65996879      20.61353782     183.84000005       0.00000000       0.00000000       0.00000000      247        2        0        0        0
S        3.03257472       4.61979257      17.45557554     183.84000005       0.00000000       0.00000000       0.00000000      248        2        0        0        0
S        5.70904998       2.87516503      20.60173434     183.84000005       0.00000000       0.00000000       0.00000000      249        2        0        0        0
S        5.67141656       2.85022062      17.44324646     183.84000005       0.00000000       0.00000000       0.00000000      250        2        0        0        0
S        8.35799271       1.09883976      20.56833391     183.84000005       0.00000000       0.00000000       0.00000000      251        2        0        0        0
S        8.31928313       1.08964461      17.40911724     183.84000005       0.00000000       0.00000000       0.00000000      252        2        0        0        0
S        5.91150387       6.06657877      20.56836614     183.84000005       0.00000000       0.00000000       0.00000000      253        2        0        0        0
S        5.88320939       6.02917214      17.40935462     183.84000005       0.00000000       0.00000000       0.00000000      254        2        0        0        0
S        8.56383013       4.29050714      20.55091143     183.84000005       0.00000000       0.00000000       0.00000000      255        2        0        0        0
S        8.53141017       4.26547500      17.39096790     183.84000005       0.00000000       0.00000000       0.00000000      256        2        0        0        0
S       11.20551997       2.52525946      20.53169005     183.84000005       0.00000000       0.00000000       0.00000000      257        2        0        0        0
S       11.19212542       2.51285123      17.37133015     183.84000005       0.00000000       0.00000000       0.00000000      258        2        0        0        0
S       13.84052363       0.76647843      20.53112861     183.84000005       0.00000000       0.00000000       0.00000000      259        2        0        0        0
S       13.85835525       0.76667847      17.37130850     183.84000005       0.00000000       0.00000000       0.00000000      260        2        0        0        0
S        6.10018542       9.25022067      20.53654410     183.84000005       0.00000000       0.00000000       0.00000000      261        2        0        0        0
S        6.08754609       9.22563321      17.37695016     183.84000005       0.00000000       0.00000000       0.00000000      262        2        0        0        0
S        8.75719502       7.47518294      20.52878024     183.84000005       0.00000000       0.00000000       0.00000000      263        2        0        0        0
S        8.73492116       7.45665691      17.36826298     183.84000005       0.00000000       0.00000000       0.00000000      264        2        0        0        0
S       11.40631779       5.71067118      20.51689793     183.84000005       0.00000000       0.00000000       0.00000000      265        2        0        0        0
S       11.39595356       5.69697121      17.35567002     183.84000005       0.00000000       0.00000000       0.00000000      266        2        0        0        0
S       14.04812297       3.95497679      20.52324899     183.84000005       0.00000000       0.00000000       0.00000000      267        2        0        0        0
S       14.06668981       3.94453678      17.36249228     183.84000005       0.00000000       0.00000000       0.00000000      268        2        0        0        0
S       16.68870168       2.19677845      20.55570922     183.84000005       0.00000000       0.00000000       0.00000000      269        2        0        0        0
S       16.73173050       2.19167845      17.39640029     183.84000005       0.00000000       0.00000000       0.00000000      270        2        0        0        0
S       19.33413911       0.42647836      20.59982428     183.84000005       0.00000000       0.00000000       0.00000000      271        2        0        0        0
S       19.38142015       0.43101248      17.44166814     183.84000005       0.00000000       0.00000000       0.00000000      272        2        0        0        0
S        8.94063314      10.65315040      20.52714006     183.84000005       0.00000000       0.00000000       0.00000000      273        2        0        0        0
S        8.93305537      10.66115391      17.36667531     183.84000005       0.00000000       0.00000000       0.00000000      274        2        0        0        0
S       11.59754987       8.88634481      20.51388732     183.84000005       0.00000000       0.00000000       0.00000000      275        2        0        0        0
S       11.58913780       8.89376756      17.35252545     183.84000005       0.00000000       0.00000000       0.00000000      276        2        0        0        0
S       14.24958857       7.13209040      20.51270877     183.84000005       0.00000000       0.00000000       0.00000000      277        2        0        0        0
S       14.26076986       7.13080915      17.35127733     183.84000005       0.00000000       0.00000000       0.00000000      278        2        0        0        0
S       16.89903381       5.38111680      20.54042556     183.84000005       0.00000000       0.00000000       0.00000000      279        2        0        0        0
S       16.93433657       5.36846175      17.38014967     183.84000005       0.00000000       0.00000000       0.00000000      280        2        0        0        0
S       19.54996705       3.61955265      20.58955826     183.84000005       0.00000000       0.00000000       0.00000000      281        2        0        0        0
S       19.59365657       3.60218860      17.43079064     183.84000005       0.00000000       0.00000000       0.00000000      282        2        0        0        0
S       22.20495400       1.84225094      20.63557799     183.84000005       0.00000000       0.00000000       0.00000000      283        2        0        0        0
S       22.23594110       1.83097951      17.47772218     183.84000005       0.00000000       0.00000000       0.00000000      284        2        0        0        0
S        9.12582189      13.83136827      20.55567264     183.84000005       0.00000000       0.00000000       0.00000000      285        2        0        0        0
S        9.13525774      13.86442784      17.39616929     183.84000005       0.00000000       0.00000000       0.00000000      286        2        0        0        0
S       11.78648891      12.05826584      20.54015286     183.84000005       0.00000000       0.00000000       0.00000000      287        2        0        0        0
S       11.78118633      12.09317672      17.37984598     183.84000005       0.00000000       0.00000000       0.00000000      288        2        0        0        0
S       14.44651078      10.29916799      20.52211952     183.84000005       0.00000000       0.00000000       0.00000000      289        2        0        0        0
S       14.44465154      10.32267245      17.36122725     183.84000005       0.00000000       0.00000000       0.00000000      290        2        0        0        0
S       17.10507285       8.55117090      20.52620129     183.84000005       0.00000000       0.00000000       0.00000000      291        2        0        0        0
S       17.12109608       8.55100699      17.36554157     183.84000005       0.00000000       0.00000000       0.00000000      292        2        0        0        0
S       19.76307207       6.80039662      20.56012928     183.84000005       0.00000000       0.00000000       0.00000000      293        2        0        0        0
S       19.79269489       6.77662157      17.40060515     183.84000005       0.00000000       0.00000000       0.00000000      294        2        0        0        0
S       22.42185575       5.03442324      20.60699126     183.84000005       0.00000000       0.00000000       0.00000000      295        2        0        0        0
S       22.44695006       5.00018295      17.44871198     183.84000005       0.00000000       0.00000000       0.00000000      296        2        0        0        0
S       25.08212700       3.25275403      20.64078529     183.84000005       0.00000000       0.00000000       0.00000000      297        2        0        0        0
S       25.08621699       3.22388493      17.48303596     183.84000005       0.00000000       0.00000000       0.00000000      298        2        0        0        0
S       11.98401987      15.23634411      20.58873709     183.84000005       0.00000000       0.00000000       0.00000000      299        2        0        0        0
S       11.98321346      15.28220379      17.42989762     183.84000005       0.00000000       0.00000000       0.00000000      300        2        0        0        0
S       14.64659391      13.46690306      20.55851893     183.84000005       0.00000000       0.00000000       0.00000000      301        2        0        0        0
S       14.63240213      13.50948500      17.39911985     183.84000005       0.00000000       0.00000000       0.00000000      302        2        0        0        0
S       17.30936601      11.71303757      20.53264739     183.84000005       0.00000000       0.00000000       0.00000000      303        2        0        0        0
S       17.30038623      11.73453113      17.37274772     183.84000005       0.00000000       0.00000000       0.00000000      304        2        0        0        0
S       19.97155169       9.96691540      20.53332438     183.84000005       0.00000000       0.00000000       0.00000000      305        2        0        0        0
S       19.97764900       9.95626395      17.37350121     183.84000005       0.00000000       0.00000000       0.00000000      306        2        0        0        0
S       22.63285043       8.21335918      20.56138417     183.84000005       0.00000000       0.00000000       0.00000000      307        2        0        0        0
S       22.64608273       8.17587555      17.40235500     183.84000005       0.00000000       0.00000000       0.00000000      308        2        0        0        0
S       25.29401754       6.44315037      20.59619103     183.84000005       0.00000000       0.00000000       0.00000000      309        2        0        0        0
S       25.29708990       6.39606275      17.43803967     183.84000005       0.00000000       0.00000000       0.00000000      310        2        0        0        0
S       12.19415031      18.42526022      20.63498883     183.84000005       0.00000000       0.00000000       0.00000000      311        2        0        0        0
S       12.19708653      18.45793165      17.47710940     183.84000005       0.00000000       0.00000000       0.00000000      312        2        0        0        0
S       14.85582516      16.64492913      20.60598625     183.84000005       0.00000000       0.00000000       0.00000000      313        2        0        0        0
S       14.83436802      16.68577494      17.44783974     183.84000005       0.00000000       0.00000000       0.00000000      314        2        0        0        0
S       17.51727168      14.87900191      20.56132290     183.84000005       0.00000000       0.00000000       0.00000000      315        2        0        0        0
S       17.48759341      14.91252898      17.40253135     183.84000005       0.00000000       0.00000000       0.00000000      316        2        0        0        0
S       20.17749161      13.12767980      20.52779186     183.84000005       0.00000000       0.00000000       0.00000000      317        2        0        0        0
S       20.15845942      13.13727358      17.36814151     183.84000005       0.00000000       0.00000000       0.00000000      318        2        0        0        0
S       22.83656085      11.37991693      20.52381164     183.84000005       0.00000000       0.00000000       0.00000000      319        2        0        0        0
S       22.83415930      11.35961790      17.36394038     183.84000005       0.00000000       0.00000000       0.00000000      320        2        0        0        0
S       25.49561795       9.62144717      20.54420506     183.84000005       0.00000000       0.00000000       0.00000000      321        2        0        0        0
S       25.49787367       9.58038832      17.38496667     183.84000005       0.00000000       0.00000000       0.00000000      322        2        0        0        0
S       28.15592802       7.84762889      20.56581493     183.84000005       0.00000000       0.00000000       0.00000000      323        2        0        0        0
S       28.14554305       7.80218062      17.40715289     183.84000005       0.00000000       0.00000000       0.00000000      324        2        0        0        0
S       24.86398868       0.05492578      20.65581902     183.84000005       0.00000000       0.00000000       0.00000000      325        2       -1        1        0
S       24.86846308       0.05796346      17.49801243     183.84000005       0.00000000       0.00000000       0.00000000      326        2       -1        1        0
S       15.07267698      19.83489790      20.64015746     183.84000005       0.00000000       0.00000000       0.00000000      327        2        0        0        0
S       15.04904360      19.85356302      17.48241921     183.84000005       0.00000000       0.00000000       0.00000000      328        2        0        0        0
S       17.73108900      18.05719242      20.59530230     183.84000005       0.00000000       0.00000000       0.00000000      329        2        0        0        0
S       17.69099839      18.08359498      17.43717180     183.84000005       0.00000000       0.00000000       0.00000000      330        2        0        0        0
S       20.38536759      16.29485491      20.54385743     183.84000005       0.00000000       0.00000000       0.00000000      331        2        0        0        0
S       20.34942572      16.31499600      17.38465336     183.84000005       0.00000000       0.00000000       0.00000000      332        2        0        0        0
S       23.03689914      14.54384845      20.51215633     183.84000005       0.00000000       0.00000000       0.00000000      333        2        0        0        0
S       23.02124918      14.54660697      17.35195002     183.84000005       0.00000000       0.00000000       0.00000000      334        2        0        0        0
S       25.68898662      12.79122204      20.51109501     183.84000005       0.00000000       0.00000000       0.00000000      335        2        0        0        0
S       25.69121567      12.77542714      17.35084245     183.84000005       0.00000000       0.00000000       0.00000000      336        2        0        0        0
S       28.34478337      11.02614836      20.52717039     183.84000005       0.00000000       0.00000000       0.00000000      337        2        0        0        0
S       28.34686813      11.00051213      17.36752600     183.84000005       0.00000000       0.00000000       0.00000000      338        2        0        0        0
S       17.94780886      21.24737779      20.61293620     183.84000005       0.00000000       0.00000000       0.00000000      339        2        0        0        0
S       17.90623497      21.24985443      17.45485096     183.84000005       0.00000000       0.00000000       0.00000000      340        2        0        0        0
S       20.59730969      19.47525404      20.56417039     183.84000005       0.00000000       0.00000000       0.00000000      341        2        0        0        0
S       20.55619393      19.48734145      17.40527337     183.84000005       0.00000000       0.00000000       0.00000000      342        2        0        0        0
S       23.24040083      17.71641807      20.52289806     183.84000005       0.00000000       0.00000000       0.00000000      343        2        0        0        0
S       23.21981662      17.72940870      17.36301278     183.84000005       0.00000000       0.00000000       0.00000000      344        2        0        0        0
S       25.88273332      15.96241815      20.50822117     183.84000005       0.00000000       0.00000000       0.00000000      345        2        0        0        0
S       25.88795229      15.97072516      17.34785164     183.84000005       0.00000000       0.00000000       0.00000000      346        2        0        0        0
S       28.53024776      14.20128686      20.51750923     183.84000005       0.00000000       0.00000000       0.00000000      347        2        0        0        0
S       28.54688210      14.20514144      17.35745319     183.84000005       0.00000000       0.00000000       0.00000000      348        2        0        0        0
S       31.18531670      12.42885461      20.52977340     183.84000005       0.00000000       0.00000000       0.00000000      349        2        0        0        0
S       31.19300064      12.43316451      17.36997499     183.84000005       0.00000000       0.00000000       0.00000000      350        2        0        0        0
S       23.44898728      20.90165340      20.53520916     183.84000005       0.00000000       0.00000000       0.00000000      351        2        0        0        0
S       23.43102442      20.90532944      17.37552279     183.84000005       0.00000000       0.00000000       0.00000000      352        2        0        0        0
S       26.08422862      19.14359155      20.52273860     183.84000005       0.00000000       0.00000000       0.00000000      353        2        0        0        0
S       26.09588520      19.15668816      17.36291379     183.84000005       0.00000000       0.00000000       0.00000000      354        2        0        0        0
S       28.72373348      17.38169336      20.53367483     183.84000005       0.00000000       0.00000000       0.00000000      355        2        0        0        0
S       28.75419670      17.40147186      17.37417783     183.84000005       0.00000000       0.00000000       0.00000000      356        2        0        0        0
S       31.37241804      15.60967473      20.55160809     183.84000005       0.00000000       0.00000000       0.00000000      357        2        0        0        0
S       31.40002708      15.63569679      17.39242211     183.84000005       0.00000000       0.00000000       0.00000000      358        2        0        0        0
S       28.92902816      20.57129374      20.55324216     183.84000005       0.00000000       0.00000000       0.00000000      359        2        0        0        0
S       28.96937006      20.58404151      17.39431649     183.84000005       0.00000000       0.00000000       0.00000000      360        2        0        0        0
S       31.57353037      18.79844772      20.58310407     183.84000005       0.00000000       0.00000000       0.00000000      361        2        0        0        0
S       31.61516599      18.82321541      17.42473568     183.84000005       0.00000000       0.00000000       0.00000000      362        2        0        0        0
S       34.22747511      17.01709368      20.59925333     183.84000005       0.00000000       0.00000000       0.00000000      363        2        0        0        0
S       34.25085035      17.05396565      17.44090697     183.84000005       0.00000000       0.00000000       0.00000000      364        2        0        0        0
S       34.43891152      20.21161459      20.63210838     183.84000005       0.00000000       0.00000000       0.00000000      365        2        0        0        0
S       34.46957971      20.22963801      17.47436021     183.84000005       0.00000000       0.00000000       0.00000000      366        2        0        0        0
