42
Lattice="8.43625277162533 0.0 0.0 4.218126385812664 7.3060092129744145 0.0 0.0 0.0 30.0" Properties=species:S:1:pos:R:3:masses:R:1:momenta:R:3:id:I:1:type:I:1:travel:I:3 comment="LAMMPS data file via write_data, version 28 Mar 2023, timestep = 42, units = metal" pbc="T T T"
Mo       8.98140758       1.80768926      12.49553519      95.95000002       0.00000000       0.00000000       0.00000000        1        1       -1        0       -1
Mo       3.55692344       0.76303881      12.49655219      95.95000002       0.00000000       0.00000000       0.00000000        2        1        0        0       -1
Mo       2.95849042       3.89295000      12.49655565      95.95000002       0.00000000       0.00000000       0.00000000        3        1        0        0       -1
Mo       5.96828670       2.84623542      12.49654883      95.95000002       0.00000000       0.00000000       0.00000000        4        1        0        0       -1
Mo      10.78759301       7.02165004      12.49555277      95.95000002       0.00000000       0.00000000       0.00000000        5        1       -1        0       -1
Mo       5.36909272       5.97885053      12.49553693      95.95000002       0.00000000       0.00000000       0.00000000        6        1        0        0       -1
Mo       8.37936785       4.93607555      12.50068463      95.95000002       0.00000000       0.00000000       0.00000000        7        1        0        0        0
W        4.76425401       0.76474239      19.00346379      32.06000001       0.00000000       0.00000000       0.00000000        8        3        0        0        0
W        5.36314200       3.89442125      19.00348062      32.06000001       0.00000000       0.00000000       0.00000000        9        3        0        0        0
W        7.77620080       1.80920130      19.00425962      32.06000001       0.00000000       0.00000000       0.00000000       10        3        0        0        0
W        5.96996450       7.02360497      19.00426669      32.06000001       0.00000000       0.00000000       0.00000000       11        3        0        0        0
W        8.37836972       4.93780996      18.99970630      32.06000001       0.00000000       0.00000000       0.00000000       12        3        0        0        0
W        2.35333048       2.84823962      19.00347214      32.06000001       0.00000000       0.00000000       0.00000000       13        3        1        0        0
W       11.38891084       5.98064331      19.00424190      32.06000001       0.00000000       0.00000000       0.00000000       14        3        0        0        0
S        2.35196312       2.15814173      14.06888796     183.84000005       0.00000000       0.00000000       0.00000000       15        2        0        0        0
S        2.35317878       2.15467357      10.92611760     183.84000005       0.00000000       0.00000000       0.00000000       16        2        0        0       -1
S        5.36258003       1.10519164      14.06892066     183.84000005       0.00000000       0.00000000       0.00000000       17        2        0        0        0
S        5.36496767       1.10794645      10.92612372     183.84000005       0.00000000       0.00000000       0.00000000       18        2        0        0       -1
S        4.76915338       4.23888739      14.06892257     183.84000005       0.00000000       0.00000000       0.00000000       19        2        0        0        0
S        4.76555571       4.23957757      10.92611965     183.84000005       0.00000000       0.00000000       0.00000000       20        2        0        0       -1
S        7.77124229       3.19488423      14.06987556     183.84000005       0.00000000       0.00000000       0.00000000       21        2        0        0        0
S        7.77605000       3.19847849      10.92746210     183.84000005       0.00000000       0.00000000       0.00000000       22        2        0        0       -1
S        8.37938173       0.06536934      14.05576053     183.84000005       0.00000000       0.00000000       0.00000000       23        2       -1        1        0
S        8.37936462       0.06538477      10.92565449     183.84000005       0.00000000       0.00000000       0.00000000       24        2       -1        1       -1
S        7.17551707       6.33330929      14.06988137     183.84000005       0.00000000       0.00000000       0.00000000       25        2        0        0        0
S        7.17622130       6.32735865      10.92745939     183.84000005       0.00000000       0.00000000       0.00000000       26        2        0        0       -1
S       10.19132203       5.28003530      14.06991463     183.84000005       0.00000000       0.00000000       0.00000000       27        2        0        0        0
S       10.18582485       5.28239545      10.92746420     183.84000005       0.00000000       0.00000000       0.00000000       28        2        0        0       -1
S        2.95616907       1.10977580      20.58336729     183.84000005       0.00000000       0.00000000       0.00000000       29        2        0        0        0
S        2.95852290       1.10744946      17.42166716     183.84000005       0.00000000       0.00000000       0.00000000       30        2        0        0        0
S        3.55616876       4.24158789      20.58336835     183.84000005       0.00000000       0.00000000       0.00000000       31        2        0        0        0
S        3.55300650       4.24069065      17.42163843     183.84000005       0.00000000       0.00000000       0.00000000       32        2        0        0        0
S        5.96837122       2.15604690      20.58336931     183.84000005       0.00000000       0.00000000       0.00000000       33        2        0        0        0
S        5.96919134       2.15926936      17.42163907     183.84000005       0.00000000       0.00000000       0.00000000       34        2        0        0        0
S        8.37834905       0.06714374      20.58371118     183.84000005       0.00000000       0.00000000       0.00000000       35        2       -1        1        0
S        8.37835122       0.06717116      17.43368040     183.84000005       0.00000000       0.00000000       0.00000000       36        2       -1        1        0
S        6.57176629       5.28427775      20.58203707     183.84000005       0.00000000       0.00000000       0.00000000       37        2        0        0        0
S        6.56668151       5.28197277      17.42103536     183.84000005       0.00000000       0.00000000       0.00000000       38        2        0        0        0
S        8.98162360       3.20001256      20.58203153     183.84000005       0.00000000       0.00000000       0.00000000       39        2        0        0        0
S        8.98614918       3.19678435      17.42102495     183.84000005       0.00000000       0.00000000       0.00000000       40        2        0        0        0
S        9.58172116       6.32912634      20.58202013     183.84000005       0.00000000       0.00000000       0.00000000       41        2        0        0        0
S        9.58225509       6.33465805      17.42098810     183.84000005       0.00000000       0.00000000       0.00000000       42        2        0        0        0
