2814
Lattice="69.05370500844002 0.0 0.0 34.526852504219995 59.802262762745784 0.0 0.0 0.0 28.26298049003122" Properties=species:S:1:pos:R:3:masses:R:1:momenta:R:3:id:I:1:type:I:1:travel:I:3 comment="LAMMPS data file via write_data, version 28 Mar 2023, timestep = 173, units = metal" pbc="T T T"
Mo      69.91957911       1.62061576      11.44239352      95.95000002       0.00000000       0.00000000       0.00000000        1        1        0        0        0
Mo       3.68122306       0.12731168      11.44772761      95.95000002       0.00000000       0.00000000       0.00000000        2        1        0        0        0
Mo      69.80699260       4.80631031      11.45397241      95.95000002       0.00000000       0.00000000       0.00000000        3        1        0        0        0
Mo       3.56743650       3.31463474      11.45292634      95.95000002       0.00000000       0.00000000       0.00000000        4        1        0        0        0
Mo       6.38082761       1.81968610      11.46435919      95.95000002       0.00000000       0.00000000       0.00000000        5        1        0        0        0
Mo       9.19271359       0.31945708      11.48745027      95.95000002       0.00000000       0.00000000       0.00000000        6        1        0        0        0
Mo      72.51161667       6.50082259      11.47057810      95.95000002       0.00000000       0.00000000       0.00000000        7        1        0        0        0
Mo       6.27030274       5.00733639      11.47563743      95.95000002       0.00000000       0.00000000       0.00000000        8        1        0        0        0
Mo       9.08199721       3.50893336      11.49251201      95.95000002       0.00000000       0.00000000       0.00000000        9        1        0        0        0
Mo      11.89249095       2.00350292      11.51916695      95.95000002       0.00000000       0.00000000       0.00000000       10        1        0        0        0
Mo      14.70159446       0.48911704      11.55184748      95.95000002       0.00000000       0.00000000       0.00000000       11        1        0        0        0
Mo       6.16528852       8.19291300      11.49859387      95.95000002       0.00000000       0.00000000       0.00000000       12        1        0        0        0
Mo       8.97619199       6.69583240      11.50933875      95.95000002       0.00000000       0.00000000       0.00000000       13        1        0        0        0
Mo      11.78640583       5.19203239      11.53026955      95.95000002       0.00000000       0.00000000       0.00000000       14        1        0        0        0
Mo      14.59567068       3.67932446      11.55778552      95.95000002       0.00000000       0.00000000       0.00000000       15        1        0        0        0
Mo      17.40407089       2.15603469      11.58721500      95.95000002       0.00000000       0.00000000       0.00000000       16        1        0        0        0
Mo      20.21183692       0.62146996      11.61443933      95.95000002       0.00000000       0.00000000       0.00000000       17        1        0        0        0
Mo      75.12121397      11.37607228      11.53098333      95.95000002       0.00000000       0.00000000       0.00000000       18        1        0        0        0
Mo       8.87731196       9.87969509      11.53586870      95.95000002       0.00000000       0.00000000       0.00000000       19        1        0        0        0
Mo      11.68688470       8.37726694      11.55128673      95.95000002       0.00000000       0.00000000       0.00000000       20        1        0        0        0
Mo      14.49569552       6.86623907      11.57399986      95.95000002       0.00000000       0.00000000       0.00000000       21        1        0        0        0
Mo      17.30373386       5.34464910      11.59923185      95.95000002       0.00000000       0.00000000       0.00000000       22        1        0        0        0
Mo      20.11128887       3.81154681      11.62250372      95.95000002       0.00000000       0.00000000       0.00000000       23        1        0        0        0
Mo      22.91872072       2.26726250      11.64118962      95.95000002       0.00000000       0.00000000       0.00000000       24        1        0        0        0
Mo      25.72631147       0.71328801      11.65498302      95.95000002       0.00000000       0.00000000       0.00000000       25        1        0        0        0
Mo       8.78697818      13.06006839      11.56834845      95.95000002       0.00000000       0.00000000       0.00000000       26        1        0        0        0
Mo      11.59582077      11.55865178      11.57846350      95.95000002       0.00000000       0.00000000       0.00000000       27        1        0        0        0
Mo      14.40403103      10.04933019      11.59671709      95.95000002       0.00000000       0.00000000       0.00000000       28        1        0        0        0
Mo      17.21130861       8.52973098      11.61846217      95.95000002       0.00000000       0.00000000       0.00000000       29        1        0        0        0
Mo      20.01783713       6.99853313      11.63877289      95.95000002       0.00000000       0.00000000       0.00000000       30        1        0        0        0
Mo      22.82404845       5.45576838      11.65437333      95.95000002       0.00000000       0.00000000       0.00000000       31        1        0        0        0
Mo      25.63043709       3.90275180      11.66448038      95.95000002       0.00000000       0.00000000       0.00000000       32        1        0        0        0
Mo      28.43744917       2.34171125      11.67037266      95.95000002       0.00000000       0.00000000       0.00000000       33        1        0        0        0
Mo      31.24544314       0.77533801      11.67411977      95.95000002       0.00000000       0.00000000       0.00000000       34        1        0        0        0
Mo      77.76001121      16.23680948      11.60205940      95.95000002       0.00000000       0.00000000       0.00000000       35        1        0        0        0
Mo      11.51440599      14.73581684      11.60713930      95.95000002       0.00000000       0.00000000       0.00000000       36        1        0        0        0
Mo      14.32213208      13.22810110      11.62104583      95.95000002       0.00000000       0.00000000       0.00000000       37        1        0        0        0
Mo      17.12871029      11.71077768      11.63977340      95.95000002       0.00000000       0.00000000       0.00000000       38        1        0        0        0
Mo      19.93403286      10.18202644      11.65817499      95.95000002       0.00000000       0.00000000       0.00000000       39        1        0        0        0
Mo      22.73843931       8.64144685      11.67223527      95.95000002       0.00000000       0.00000000       0.00000000       40        1        0        0        0
Mo      25.54252382       7.09007129      11.68038754      95.95000002       0.00000000       0.00000000       0.00000000       41        1        0        0        0
Mo      28.34696817       5.53000298      11.68342624      95.95000002       0.00000000       0.00000000       0.00000000       42        1        0        0        0
Mo      31.15242391       3.96390934      11.68338272      95.95000002       0.00000000       0.00000000       0.00000000       43        1        0        0        0
Mo      33.95944814       2.39463229      11.68215017      95.95000002       0.00000000       0.00000000       0.00000000       44        1        0        0        0
Mo      36.76846567       0.82500671      11.68055896      95.95000002       0.00000000       0.00000000       0.00000000       45        1        0        0        0
Mo      11.44290345      17.90879507      11.63322646      95.95000002       0.00000000       0.00000000       0.00000000       46        1        0        0        0
Mo      14.25034858      16.40233798      11.64270222      95.95000002       0.00000000       0.00000000       0.00000000       47        1        0        0        0
Mo      17.05655590      14.88741637      11.65843055      95.95000002       0.00000000       0.00000000       0.00000000       48        1        0        0        0
Mo      19.86096654      13.36161241      11.67549337      95.95000002       0.00000000       0.00000000       0.00000000       49        1        0        0        0
Mo      22.66365072      11.82395713      11.68929966      95.95000002       0.00000000       0.00000000       0.00000000       50        1        0        0        0
Mo      25.46513527      10.27505016      11.69738322      95.95000002       0.00000000       0.00000000       0.00000000       51        1        0        0        0
Mo      28.26622676       8.71675600      11.69976204      95.95000002       0.00000000       0.00000000       0.00000000       52        1        0        0        0
Mo      31.06782854       7.15166870      11.69805709      95.95000002       0.00000000       0.00000000       0.00000000       53        1        0        0        0
Mo      33.87080500       5.58264052      11.69413647      95.95000002       0.00000000       0.00000000       0.00000000       54        1        0        0        0
Mo      36.67590435       4.01254310      11.68904644      95.95000002       0.00000000       0.00000000       0.00000000       55        1        0        0        0
Mo      39.48368187       2.44422857      11.68257570      95.95000002       0.00000000       0.00000000       0.00000000       56        1        0        0        0
Mo      42.29442414       0.88054895      11.67342639      95.95000002       0.00000000       0.00000000       0.00000000       57        1        0        0        0
Mo      80.43427135      21.07803901      11.65431282      95.95000002       0.00000000       0.00000000       0.00000000       58        1        0        0        0
Mo      14.18790178      19.57221208      11.65924896      95.95000002       0.00000000       0.00000000       0.00000000       59        1        0        0        0
Mo      16.99416159      18.05956558      11.67164467      95.95000002       0.00000000       0.00000000       0.00000000       60        1        0        0        0
Mo      19.79822973      16.53703395      11.68733596      95.95000002       0.00000000       0.00000000       0.00000000       61        1        0        0        0
Mo      22.59976210      15.00297889      11.70148768      95.95000002       0.00000000       0.00000000       0.00000000       62        1        0        0        0
Mo      25.39904441      13.45741728      11.71079816      95.95000002       0.00000000       0.00000000       0.00000000       63        1        0        0        0
Mo      28.19684093      11.90182515      11.71438399      95.95000002       0.00000000       0.00000000       0.00000000       64        1        0        0        0
Mo      30.99418750      10.33861973      11.71323849      95.95000002       0.00000000       0.00000000       0.00000000       65        1        0        0        0
Mo      33.79219533       8.77061550      11.70896190      95.95000002       0.00000000       0.00000000       0.00000000       66        1        0        0        0
Mo      36.59192373       7.20070649      11.70258769      95.95000002       0.00000000       0.00000000       0.00000000       67        1        0        0        0
Mo      39.39428322       5.63179653      11.69398511      95.95000002       0.00000000       0.00000000       0.00000000       68        1        0        0        0
Mo      42.19992874       4.06682944      11.68191924      95.95000002       0.00000000       0.00000000       0.00000000       69        1        0        0        0
Mo      45.00916556       2.50870854      11.66472961      95.95000002       0.00000000       0.00000000       0.00000000       70        1        0        0        0
Mo      47.82193585       0.96000651      11.64140549      95.95000002       0.00000000       0.00000000       0.00000000       71        1        0        0        0
Mo      14.13312771      22.73827477      11.67027961      95.95000002       0.00000000       0.00000000       0.00000000       72        1        0        0        0
Mo      16.93982224      21.22749333      11.67891733      95.95000002       0.00000000       0.00000000       0.00000000       73        1        0        0        0
Mo      19.74420073      19.70830754      11.69279202      95.95000002       0.00000000       0.00000000       0.00000000       74        1        0        0        0
Mo      22.54540833      18.17834878      11.70722877      95.95000002       0.00000000       0.00000000       0.00000000       75        1        0        0        0
Mo      25.34335531      16.63693611      11.71826470      95.95000002       0.00000000       0.00000000       0.00000000       76        1        0        0        0
Mo      28.13858960      15.08500194      11.72409281      95.95000002       0.00000000       0.00000000       0.00000000       77        1        0        0        0
Mo      30.93211885      13.52465268      11.72498162      95.95000002       0.00000000       0.00000000       0.00000000       78        1        0        0        0
Mo      33.72517512      11.95858573      11.72217217      95.95000002       0.00000000       0.00000000       0.00000000       79        1        0        0        0
Mo      36.51904125      10.38967574      11.71662228      95.95000002       0.00000000       0.00000000       0.00000000       80        1        0        0        0
Mo      39.31493546       8.82084806      11.70820582      95.95000002       0.00000000       0.00000000       0.00000000       81        1        0        0        0
Mo      42.11389662       7.25510080      11.69559798      95.95000002       0.00000000       0.00000000       0.00000000       82        1        0        0        0
Mo      44.91666623       5.69547821      11.67687183      95.95000002       0.00000000       0.00000000       0.00000000       83        1        0        0        0
Mo      47.72357017       4.14478811      11.65069441      95.95000002       0.00000000       0.00000000       0.00000000       84        1        0        0        0
Mo      50.53453461       2.60513448      11.61754495      95.95000002       0.00000000       0.00000000       0.00000000       85        1        0        0        0
Mo      53.34920979       1.07744449      11.58013500      95.95000002       0.00000000       0.00000000       0.00000000       86        1        0        0        0
Mo      83.13752336      25.90139051      11.67678110      95.95000002       0.00000000       0.00000000       0.00000000       87        1        0        0        0
Mo      16.89123223      24.39179596      11.68134750      95.95000002       0.00000000       0.00000000       0.00000000       88        1        0        0        0
Mo      19.69651785      22.87574347      11.69281598      95.95000002       0.00000000       0.00000000       0.00000000       89        1        0        0        0
Mo      22.49827849      21.35013137      11.70708604      95.95000002       0.00000000       0.00000000       0.00000000       90        1        0        0        0
Mo      25.29595747      19.81349866      11.71975755      95.95000002       0.00000000       0.00000000       0.00000000       91        1        0        0        0
Mo      28.08976155      18.26610152      11.72810972      95.95000002       0.00000000       0.00000000       0.00000000       92        1        0        0        0
Mo      30.88051032      16.70959324      11.73161040      95.95000002       0.00000000       0.00000000       0.00000000       93        1        0        0        0
Mo      33.66941038      15.14645808      11.73110353      95.95000002       0.00000000       0.00000000       0.00000000       94        1        0        0        0
Mo      36.45783351      13.57949161      11.72752299      95.95000002       0.00000000       0.00000000       0.00000000       95        1        0        0        0
Mo      39.24719133      12.01159549      11.72086889      95.95000002       0.00000000       0.00000000       0.00000000       96        1        0        0        0
Mo      42.03882692      10.44576450      11.70983472      95.95000002       0.00000000       0.00000000       0.00000000       97        1        0        0        0
Mo      44.83389739       8.88509906      11.69220572      95.95000002       0.00000000       0.00000000       0.00000000       98        1        0        0        0
Mo      47.63323530       7.33260708      11.66603276      95.95000002       0.00000000       0.00000000       0.00000000       99        1        0        0        0
Mo      50.43722939       5.79073657      11.63115910      95.95000002       0.00000000       0.00000000       0.00000000      100        1        0        0        0
Mo      53.24586398       4.26083364      11.59009920      95.95000002       0.00000000       0.00000000       0.00000000      101        1        0        0        0
Mo      56.05880781       2.74274939      11.54757257      95.95000002       0.00000000       0.00000000       0.00000000      102        1        0        0        0
Mo      58.87538141       1.23485562      11.50895006      95.95000002       0.00000000       0.00000000       0.00000000      103        1        0        0        0
Mo      16.84584837      27.55332181      11.68062410      95.95000002       0.00000000       0.00000000       0.00000000      104        1        0        0        0
Mo      19.65251530      26.03990647      11.68908148      95.95000002       0.00000000       0.00000000       0.00000000      105        1        0        0        0
Mo      22.45562776      24.51860918      11.70254797      95.95000002       0.00000000       0.00000000       0.00000000      106        1        0        0        0
Mo      25.25411440      22.98715640      11.71648193      95.95000002       0.00000000       0.00000000       0.00000000      107        1        0        0        0
Mo      28.04775020      21.44502537      11.72726464      95.95000002       0.00000000       0.00000000       0.00000000      108        1        0        0        0
Mo      30.83704909      19.89327828      11.73342108      95.95000002       0.00000000       0.00000000       0.00000000      109        1        0        0        0
Mo      33.62306104      18.33406866      11.73529218      95.95000002       0.00000000       0.00000000       0.00000000      110        1        0        0        0
Mo      36.40713090      16.77005537      11.73381356      95.95000002       0.00000000       0.00000000       0.00000000      111        1        0        0        0
Mo      39.19072421      15.20406919      11.72929424      95.95000002       0.00000000       0.00000000       0.00000000      112        1        0        0        0
Mo      41.97534613      13.63904596      11.72074444      95.95000002       0.00000000       0.00000000       0.00000000      113        1        0        0        0
Mo      44.76245391      12.07804359      11.70597357      95.95000002       0.00000000       0.00000000       0.00000000      114        1        0        0        0
Mo      47.55333787      10.52414391      11.68252755      95.95000002       0.00000000       0.00000000       0.00000000      115        1        0        0        0
Mo      50.34895157       8.98007415      11.64929707      95.95000002       0.00000000       0.00000000       0.00000000      116        1        0        0        0
Mo      53.14980990       7.44764258      11.60788377      95.95000002       0.00000000       0.00000000       0.00000000      117        1        0        0        0
Mo      55.95599928       5.92723381      11.56268470      95.95000002       0.00000000       0.00000000       0.00000000      118        1        0        0        0
Mo      58.76711171       4.41766117      11.51950542      95.95000002       0.00000000       0.00000000       0.00000000      119        1        0        0        0
Mo      61.58213381       2.91654000      11.48352869      95.95000002       0.00000000       0.00000000       0.00000000      120        1        0        0        0
Mo      64.39957361       1.42093656      11.45801704      95.95000002       0.00000000       0.00000000       0.00000000      121        1        0        0        0
Mo      85.85482486      30.71306207      11.67831268      95.95000002       0.00000000       0.00000000       0.00000000      122        1        0        0        0
Mo      19.60950934      29.20154855      11.68312348      95.95000002       0.00000000       0.00000000       0.00000000      123        1        0        0        0
Mo      22.41462380      27.68424546      11.69497541      95.95000002       0.00000000       0.00000000       0.00000000      124        1        0        0        0
Mo      25.21489192      26.15810991      11.70960852      95.95000002       0.00000000       0.00000000       0.00000000      125        1        0        0        0
Mo      28.00959218      24.62178216      11.72262750      95.95000002       0.00000000       0.00000000       0.00000000      126        1        0        0        0
Mo      30.79883551      23.07560392      11.73142052      95.95000002       0.00000000       0.00000000       0.00000000      127        1        0        0        0
Mo      33.58341358      21.52126252      11.73555164      95.95000002       0.00000000       0.00000000       0.00000000      128        1        0        0        0
Mo      36.36455231      19.96119986      11.73583324      95.95000002       0.00000000       0.00000000       0.00000000      129        1        0        0        0
Mo      39.14368907      18.39814532      11.73297099      95.95000002       0.00000000       0.00000000       0.00000000      130        1        0        0        0
Mo      41.92235715      16.83493648      11.72658489      95.95000002       0.00000000       0.00000000       0.00000000      131        1        0        0        0
Mo      44.70215008      15.27451566      11.71497430      95.95000002       0.00000000       0.00000000       0.00000000      132        1        0        0        0
Mo      47.48466016      13.71989630      11.69567524      95.95000002       0.00000000       0.00000000       0.00000000      133        1        0        0        0
Mo      50.27133448      12.17392040      11.66682423      95.95000002       0.00000000       0.00000000       0.00000000      134        1        0        0        0
Mo      53.06328927      10.63877802      11.62875038      95.95000002       0.00000000       0.00000000       0.00000000      135        1        0        0        0
Mo      55.86119495       9.11545069      11.58468811      95.95000002       0.00000000       0.00000000       0.00000000      136        1        0        0        0
Mo      58.66515821       7.60338821      11.53995817      95.95000002       0.00000000       0.00000000       0.00000000      137        1        0        0        0
Mo      61.47451376       6.10067101      11.50011302      95.95000002       0.00000000       0.00000000       0.00000000      138        1        0        0        0
Mo      64.28785208       4.60459248      11.46927376      95.95000002       0.00000000       0.00000000       0.00000000      139        1        0        0        0
Mo      67.10342790       3.11219933      11.44969760      95.95000002       0.00000000       0.00000000       0.00000000      140        1        0        0        0
Mo      19.56487814      32.36156444      11.67597640      95.95000002       0.00000000       0.00000000       0.00000000      141        1        0        0        0
Mo      22.37248323      30.84766795      11.68515344      95.95000002       0.00000000       0.00000000       0.00000000      142        1        0        0        0
Mo      25.17534384      29.32670630      11.69961402      95.95000002       0.00000000       0.00000000       0.00000000      143        1        0        0        0
Mo      27.97223006      27.79648666      11.71452973      95.95000002       0.00000000       0.00000000       0.00000000      144        1        0        0        0
Mo      30.76277149      26.25653773      11.72605870      95.95000002       0.00000000       0.00000000       0.00000000      145        1        0        0        0
Mo      33.54739726      24.70793020      11.73260741      95.95000002       0.00000000       0.00000000       0.00000000      146        1        0        0        0
Mo      36.32713152      23.15276875      11.73450218      95.95000002       0.00000000       0.00000000       0.00000000      147        1        0        0        0
Mo      39.10333315      21.59363676      11.73272070      95.95000002       0.00000000       0.00000000       0.00000000      148        1        0        0        0
Mo      41.87751459      20.03326220      11.72762861      95.95000002       0.00000000       0.00000000       0.00000000      149        1        0        0        0
Mo      44.65128640      18.47443343      11.71838555      95.95000002       0.00000000       0.00000000       0.00000000      150        1        0        0        0
Mo      47.42636300      16.91999492      11.70311689      95.95000002       0.00000000       0.00000000       0.00000000      151        1        0        0        0
Mo      50.20449910      15.37272943      11.67981815      95.95000002       0.00000000       0.00000000       0.00000000      152        1        0        0        0
Mo      52.98731356      13.83502272      11.64778147      95.95000002       0.00000000       0.00000000       0.00000000      153        1        0        0        0
Mo      55.77609074      12.30836614      11.60869285      95.95000002       0.00000000       0.00000000       0.00000000      154        1        0        0        0
Mo      58.57158087      10.79293648      11.56650514      95.95000002       0.00000000       0.00000000       0.00000000      155        1        0        0        0
Mo      61.37373997       9.28752333      11.52613498      95.95000002       0.00000000       0.00000000       0.00000000      156        1        0        0        0
Mo      64.18154721       7.78985999      11.49201697      95.95000002       0.00000000       0.00000000       0.00000000      157        1        0        0        0
Mo      66.99325941       6.29711661      11.46732563      95.95000002       0.00000000       0.00000000       0.00000000      158        1        0        0        0
Mo      88.56977584      35.52099430      11.66810317      95.95000002       0.00000000       0.00000000       0.00000000      159        1        0        0        0
Mo      22.32646130      34.00968047      11.67332145      95.95000002       0.00000000       0.00000000       0.00000000      160        1        0        0        0
Mo      25.13253260      32.49345864      11.68626311      95.95000002       0.00000000       0.00000000       0.00000000      161        1        0        0        0
Mo      27.93256564      30.96937637      11.70232875      95.95000002       0.00000000       0.00000000       0.00000000      162        1        0        0        0
Mo      30.72566712      29.43611619      11.71663340      95.95000002       0.00000000       0.00000000       0.00000000      163        1        0        0        0
Mo      33.51180264      27.89399876      11.72611572      95.95000002       0.00000000       0.00000000       0.00000000      164        1        0        0        0
Mo      36.29168977      26.34463176      11.73009287      95.95000002       0.00000000       0.00000000       0.00000000      165        1        0        0        0
Mo      39.06654797      24.79035622      11.72940541      95.95000002       0.00000000       0.00000000       0.00000000      166        1        0        0        0
Mo      41.83785322      23.23376991      11.72504360      95.95000002       0.00000000       0.00000000       0.00000000      167        1        0        0        0
Mo      44.60721382      21.67751139      11.71717422      95.95000002       0.00000000       0.00000000       0.00000000      168        1        0        0        0
Mo      47.37636066      20.12421616      11.70492612      95.95000002       0.00000000       0.00000000       0.00000000      169        1        0        0        0
Mo      50.14716442      18.57648489      11.68683315      95.95000002       0.00000000       0.00000000       0.00000000      170        1        0        0        0
Mo      52.92154537      17.03670374      11.66181911      95.95000002       0.00000000       0.00000000       0.00000000      171        1        0        0        0
Mo      55.70127813      15.50667854      11.63026461      95.95000002       0.00000000       0.00000000       0.00000000      172        1        0        0        0
Mo      58.48773280      13.98722398      11.59439772      95.95000002       0.00000000       0.00000000       0.00000000      173        1        0        0        0
Mo      61.28157911      12.47794978      11.55766133      95.95000002       0.00000000       0.00000000       0.00000000      174        1        0        0        0
Mo      64.08250461      10.97733361      11.52375665      95.95000002       0.00000000       0.00000000       0.00000000      175        1        0        0        0
Mo      66.88913846       9.48292817      11.49614018      95.95000002       0.00000000       0.00000000       0.00000000      176        1        0        0        0
Mo      69.69949189       7.99176754      11.47772804      95.95000002       0.00000000       0.00000000       0.00000000      177        1        0        0        0
Mo      22.27391982      37.17127079      11.65941702      95.95000002       0.00000000       0.00000000       0.00000000      178        1        0        0        0
Mo      25.08355805      35.65907175      11.66903199      95.95000002       0.00000000       0.00000000       0.00000000      179        1        0        0        0
Mo      27.88747078      34.14084320      11.68480296      95.95000002       0.00000000       0.00000000       0.00000000      180        1        0        0        0
Mo      30.68424294      32.61445936      11.70144880      95.95000002       0.00000000       0.00000000       0.00000000      181        1        0        0        0
Mo      33.47330212      31.07941471      11.71443916      95.95000002       0.00000000       0.00000000       0.00000000      182        1        0        0        0
Mo      36.25492963      29.53665169      11.72156954      95.95000002       0.00000000       0.00000000       0.00000000      183        1        0        0        0
Mo      39.03010238      27.98810661      11.72291104      95.95000002       0.00000000       0.00000000       0.00000000      184        1        0        0        0
Mo      41.80022320      26.43617626      11.71964921      95.95000002       0.00000000       0.00000000       0.00000000      185        1        0        0        0
Mo      44.56690619      24.88335461      11.71282065      95.95000002       0.00000000       0.00000000       0.00000000      186        1        0        0        0
Mo      47.33189520      23.33208799      11.70268153      95.95000002       0.00000000       0.00000000       0.00000000      187        1        0        0        0
Mo      50.09707682      21.78474869      11.68873539      95.95000002       0.00000000       0.00000000       0.00000000      188        1        0        0        0
Mo      52.86448227      20.24358644      11.67024320      95.95000002       0.00000000       0.00000000       0.00000000      189        1        0        0        0
Mo      55.63616703      18.71051052      11.64695995      95.95000002       0.00000000       0.00000000       0.00000000      190        1        0        0        0
Mo      58.41397667      17.18677684      11.61965100      95.95000002       0.00000000       0.00000000       0.00000000      191        1        0        0        0
Mo      61.19922080      15.67272791      11.59002681      95.95000002       0.00000000       0.00000000       0.00000000      192        1        0        0        0
Mo      63.99236322      14.16771635      11.56032027      95.95000002       0.00000000       0.00000000       0.00000000      193        1        0        0        0
Mo      66.79277471      12.67005490      11.53320785      95.95000002       0.00000000       0.00000000       0.00000000      194        1        0        0        0
Mo      69.59876344      11.17710248      11.51190691      95.95000002       0.00000000       0.00000000       0.00000000      195        1        0        0        0
Mo      72.40815626       9.68574533      11.49962291      95.95000002       0.00000000       0.00000000       0.00000000      196        1        0        0        0
Mo      91.26624073      40.33356064      11.64333213      95.95000002       0.00000000       0.00000000       0.00000000      197        1        0        0        0
Mo      25.02577897      38.82444374      11.64772178      95.95000002       0.00000000       0.00000000       0.00000000      198        1        0        0        0
Mo      27.83396562      37.31144700      11.66103483      95.95000002       0.00000000       0.00000000       0.00000000      199        1        0        0        0
Mo      30.63524928      35.79178428      11.67867076      95.95000002       0.00000000       0.00000000       0.00000000      200        1        0        0        0
Mo      33.42850202      34.26412383      11.69519876      95.95000002       0.00000000       0.00000000       0.00000000      201        1        0        0        0
Mo      36.21345875      32.72861517      11.70670346      95.95000002       0.00000000       0.00000000       0.00000000      202        1        0        0        0
Mo      38.99069881      31.18659999      11.71179681      95.95000002       0.00000000       0.00000000       0.00000000      203        1        0        0        0
Mo      41.76144300      29.64012563      11.71113863      95.95000002       0.00000000       0.00000000       0.00000000      204        1        0        0        0
Mo      44.52728753      28.09149534      11.70617878      95.95000002       0.00000000       0.00000000       0.00000000      205        1        0        0        0
Mo      47.29001428      26.54299788      11.69812432      95.95000002       0.00000000       0.00000000       0.00000000      206        1        0        0        0
Mo      50.05152609      24.99680422      11.68754209      95.95000002       0.00000000       0.00000000       0.00000000      207        1        0        0        0
Mo      52.81386865      23.45497118      11.67445905      95.95000002       0.00000000       0.00000000       0.00000000      208        1        0        0        0
Mo      55.57919786      21.91936118      11.65870552      95.95000002       0.00000000       0.00000000       0.00000000      209        1        0        0        0
Mo      58.34962246      20.39145545      11.64026486      95.95000002       0.00000000       0.00000000       0.00000000      210        1        0        0        0
Mo      61.12693196      18.87214594      11.61942674      95.95000002       0.00000000       0.00000000       0.00000000      211        1        0        0        0
Mo      63.91225435      17.36157446      11.59684080      95.95000002       0.00000000       0.00000000       0.00000000      212        1        0        0        0
Mo      66.70576697      15.85898738      11.57378100      95.95000002       0.00000000       0.00000000       0.00000000      213        1        0        0        0
Mo      69.50647902      14.36251129      11.55271026      95.95000002       0.00000000       0.00000000       0.00000000      214        1        0        0        0
Mo      72.31239656      12.86929107      11.53725246      95.95000002       0.00000000       0.00000000       0.00000000      215        1        0        0        0
Mo      24.95716918      41.99060410      11.62288641      95.95000002       0.00000000       0.00000000       0.00000000      216        1        0        0        0
Mo      27.76960922      40.48192119      11.63135715      95.95000002       0.00000000       0.00000000       0.00000000      217        1        0        0        0
Mo      30.57582538      38.96841727      11.64766198      95.95000002       0.00000000       0.00000000       0.00000000      218        1        0        0        0
Mo      33.37421902      37.44806736      11.66660814      95.95000002       0.00000000       0.00000000       0.00000000      219        1        0        0        0
Mo      36.16394066      35.92018673      11.68303167      95.95000002       0.00000000       0.00000000       0.00000000      220        1        0        0        0
Mo      38.94502714      34.38535538      11.69373063      95.95000002       0.00000000       0.00000000       0.00000000      221        1        0        0        0
Mo      41.71833942      32.84507552      11.69800387      95.95000002       0.00000000       0.00000000       0.00000000      222        1        0        0        0
Mo      44.48533366      31.30133107      11.69692108      95.95000002       0.00000000       0.00000000       0.00000000      223        1        0        0        0
Mo      47.24780792      29.75622710      11.69213687      95.95000002       0.00000000       0.00000000       0.00000000      224        1        0        0        0
Mo      50.00771890      28.21177936      11.68506636      95.95000002       0.00000000       0.00000000       0.00000000      225        1        0        0        0
Mo      52.76712484      26.66987516      11.67658702      95.95000002       0.00000000       0.00000000       0.00000000      226        1        0        0        0
Mo      55.52819044      25.13226277      11.66704292      95.95000002       0.00000000       0.00000000       0.00000000      227        1        0        0        0
Mo      58.29311915      23.60049206      11.65633175      95.95000002       0.00000000       0.00000000       0.00000000      228        1        0        0        0
Mo      61.06397026      22.07580315      11.64400072      95.95000002       0.00000000       0.00000000       0.00000000      229        1        0        0        0
Mo      63.84236692      20.55897260      11.62948365      95.95000002       0.00000000       0.00000000       0.00000000      230        1        0        0        0
Mo      66.62915771      19.05010694      11.61267163      95.95000002       0.00000000       0.00000000       0.00000000      231        1        0        0        0
Mo      69.42413886      17.54832600      11.59473040      95.95000002       0.00000000       0.00000000       0.00000000      232        1        0        0        0
Mo      72.22591340      16.05151644      11.57867360      95.95000002       0.00000000       0.00000000       0.00000000      233        1        0        0        0
Mo      75.03221447      14.55657838      11.56871583      95.95000002       0.00000000       0.00000000       0.00000000      234        1        0        0        0
Mo      93.93039303      45.15854924      11.59580992      95.95000002       0.00000000       0.00000000       0.00000000      235        1        0        0        0
Mo      27.69296124      43.65312656      11.59769690      95.95000002       0.00000000       0.00000000       0.00000000      236        1        0        0        0
Mo      30.50401323      42.14484602      11.61000063      95.95000002       0.00000000       0.00000000       0.00000000      237        1        0        0        0
Mo      33.30798198      40.63125107      11.62901852      95.95000002       0.00000000       0.00000000       0.00000000      238        1        0        0        0
Mo      36.10350702      39.11094826      11.64947965      95.95000002       0.00000000       0.00000000       0.00000000      239        1        0        0        0
Mo      38.89001556      37.58368047      11.66672400      95.95000002       0.00000000       0.00000000       0.00000000      240        1        0        0        0
Mo      41.66783846      36.05021210      11.67819639      95.95000002       0.00000000       0.00000000       0.00000000      241        1        0        0        0
Mo      44.43809798      34.51201367      11.68365460      95.95000002       0.00000000       0.00000000       0.00000000      242        1        0        0        0
Mo      47.20247121      32.97088883      11.68436061      95.95000002       0.00000000       0.00000000       0.00000000      243        1        0        0        0
Mo      49.96294466      31.42868865      11.68203881      95.95000002       0.00000000       0.00000000       0.00000000      244        1        0        0        0
Mo      52.72162492      29.88717731      11.67819790      95.95000002       0.00000000       0.00000000       0.00000000      245        1        0        0        0
Mo      55.48068113      28.34800564      11.67381302      95.95000002       0.00000000       0.00000000       0.00000000      246        1        0        0        0
Mo      58.24232634      26.81272935      11.66916709      95.95000002       0.00000000       0.00000000       0.00000000      247        1        0        0        0
Mo      61.00872506      25.28278679      11.66376669      95.95000002       0.00000000       0.00000000       0.00000000      248        1        0        0        0
Mo      63.78179195      23.75941227      11.65649260      95.95000002       0.00000000       0.00000000       0.00000000      249        1        0        0        0
Mo      66.56287684      22.24343786      11.64624052      95.95000002       0.00000000       0.00000000       0.00000000      250        1        0        0        0
Mo      69.35243548      20.73493603      11.63293982      95.95000002       0.00000000       0.00000000       0.00000000      251        1        0        0        0
Mo      72.14979066      19.23280118      11.61846323      95.95000002       0.00000000       0.00000000       0.00000000      252        1        0        0        0
Mo      74.95313534      17.73456887      11.60669223      95.95000002       0.00000000       0.00000000       0.00000000      253        1        0        0        0
Mo      27.60391099      46.82587823      11.56303680      95.95000002       0.00000000       0.00000000       0.00000000      254        1        0        0        0
Mo      30.41921956      45.32172104      11.56934749      95.95000002       0.00000000       0.00000000       0.00000000      255        1        0        0        0
Mo      33.22856979      43.81389357      11.58559436      95.95000002       0.00000000       0.00000000       0.00000000      256        1        0        0        0
Mo      36.03030831      42.30057375      11.60772049      95.95000002       0.00000000       0.00000000       0.00000000      257        1        0        0        0
Mo      38.82331596      40.78079568      11.63071028      95.95000002       0.00000000       0.00000000       0.00000000      258        1        0        0        0
Mo      41.60729690      39.25449070      11.65040913      95.95000002       0.00000000       0.00000000       0.00000000      259        1        0        0        0
Mo      44.38285282      37.72240519      11.66467791      95.95000002       0.00000000       0.00000000       0.00000000      260        1        0        0        0
Mo      47.15133640      36.18584463      11.67342656      95.95000002       0.00000000       0.00000000       0.00000000      261        1        0        0        0
Mo      49.91461578      34.64638518      11.67785686      95.95000002       0.00000000       0.00000000       0.00000000      262        1        0        0        0
Mo      52.67482019      33.10567015      11.67959281      95.95000002       0.00000000       0.00000000       0.00000000      263        1        0        0        0
Mo      55.43415022      31.56530603      11.68007008      95.95000002       0.00000000       0.00000000       0.00000000      264        1        0        0        0
Mo      58.19481322      30.02686904      11.68013099      95.95000002       0.00000000       0.00000000       0.00000000      265        1        0        0        0
Mo      60.95898862      28.49193537      11.67974046      95.95000002       0.00000000       0.00000000       0.00000000      266        1        0        0        0
Mo      63.72871551      26.96205585      11.67791176      95.95000002       0.00000000       0.00000000       0.00000000      267        1        0        0        0
Mo      66.50565690      25.43862458      11.67314515      95.95000002       0.00000000       0.00000000       0.00000000      268        1        0        0        0
Mo      69.29077281      23.92253519      11.66446907      95.95000002       0.00000000       0.00000000       0.00000000      269        1        0        0        0
Mo      72.08402893      22.41369705      11.65260886      95.95000002       0.00000000       0.00000000       0.00000000      270        1        0        0        0
Mo      74.88425065      20.91058856      11.64054634      95.95000002       0.00000000       0.00000000       0.00000000      271        1        0        0        0
Mo      77.68928758      19.41023256      11.63279572      95.95000002       0.00000000       0.00000000       0.00000000      272        1        0        0        0
Mo      96.55749046      50.00068470      11.53066458      95.95000002       0.00000000       0.00000000       0.00000000      273        1        0        0        0
Mo      30.32240925      48.49964997      11.53024898      95.95000002       0.00000000       0.00000000       0.00000000      274        1        0        0        0
Mo      33.13635887      46.99644499      11.54149213      95.95000002       0.00000000       0.00000000       0.00000000      275        1        0        0        0
Mo      35.94396043      45.48906204      11.56222629      95.95000002       0.00000000       0.00000000       0.00000000      276        1        0        0        0
Mo      38.74377452      43.97612898      11.58841716      95.95000002       0.00000000       0.00000000       0.00000000      277        1        0        0        0
Mo      41.53492744      42.45687685      11.61534319      95.95000002       0.00000000       0.00000000       0.00000000      278        1        0        0        0
Mo      44.31738704      40.93121605      11.63912996      95.95000002       0.00000000       0.00000000       0.00000000      279        1        0        0        0
Mo      47.09198897      39.39973735      11.65772769      95.95000002       0.00000000       0.00000000       0.00000000      280        1        0        0        0
Mo      49.86027209      37.86354325      11.67091798      95.95000002       0.00000000       0.00000000       0.00000000      281        1        0        0        0
Mo      52.62424164      36.32406256      11.67969691      95.95000002       0.00000000       0.00000000       0.00000000      282        1        0        0        0
Mo      55.38609496      34.78287764      11.68553250      95.95000002       0.00000000       0.00000000       0.00000000      283        1        0        0        0
Mo      58.14804032      33.24164026      11.68972481      95.95000002       0.00000000       0.00000000       0.00000000      284        1        0        0        0
Mo      60.91223205      31.70207090      11.69289067      95.95000002       0.00000000       0.00000000       0.00000000      285        1        0        0        0
Mo      63.68072499      30.16595797      11.69464427      95.95000002       0.00000000       0.00000000       0.00000000      286        1        0        0        0
Mo      66.45533851      28.63510653      11.69370222      95.95000002       0.00000000       0.00000000       0.00000000      287        1        0        0        0
Mo      69.23738512      27.11106831      11.68869288      95.95000002       0.00000000       0.00000000       0.00000000      288        1        0        0        0
Mo      72.02735821      25.59465648      11.67943224      95.95000002       0.00000000       0.00000000       0.00000000      289        1        0        0        0
Mo      74.82470572      24.08536763      11.66787465      95.95000002       0.00000000       0.00000000       0.00000000      290        1        0        0        0
Mo      77.62780590      22.58102371      11.65801034      95.95000002       0.00000000       0.00000000       0.00000000      291        1        0        0        0
Mo      30.21596768      51.67888528      11.49690144      95.95000002       0.00000000       0.00000000       0.00000000      292        1        0        0        0
Mo      33.03330138      50.17930930      11.50208702      95.95000002       0.00000000       0.00000000       0.00000000      293        1        0        0        0
Mo      35.84570997      48.67671592      11.51883846      95.95000002       0.00000000       0.00000000       0.00000000      294        1        0        0        0
Mo      38.65173475      47.16956065      11.54482316      95.95000002       0.00000000       0.00000000       0.00000000      295        1        0        0        0
Mo      41.45016071      45.65668938      11.57607242      95.95000002       0.00000000       0.00000000       0.00000000      296        1        0        0        0
Mo      44.24035487      44.13731527      11.60790953      95.95000002       0.00000000       0.00000000       0.00000000      297        1        0        0        0
Mo      47.02252079      42.61119622      11.63641836      95.95000002       0.00000000       0.00000000       0.00000000      298        1        0        0        0
Mo      49.79768211      41.07874789      11.65941543      95.95000002       0.00000000       0.00000000       0.00000000      299        1        0        0        0
Mo      52.56750481      39.54100522      11.67652724      95.95000002       0.00000000       0.00000000       0.00000000      300        1        0        0        0
Mo      55.33403361      37.99946021      11.68865508      95.95000002       0.00000000       0.00000000       0.00000000      301        1        0        0        0
Mo      58.09941855      36.45586445      11.69720979      95.95000002       0.00000000       0.00000000       0.00000000      302        1        0        0        0
Mo      60.86576675      34.91211818      11.70336356      95.95000002       0.00000000       0.00000000       0.00000000      303        1        0        0        0
Mo      63.63508921      33.37022709      11.70747767      95.95000002       0.00000000       0.00000000       0.00000000      304        1        0        0        0
Mo      66.40924182      31.83229331      11.70889125      95.95000002       0.00000000       0.00000000       0.00000000      305        1        0        0        0
Mo      69.18975631      30.30036267      11.70635098      95.95000002       0.00000000       0.00000000       0.00000000      306        1        0        0        0
Mo      71.97754359      28.77599440      11.69914404      95.95000002       0.00000000       0.00000000       0.00000000      307        1        0        0        0
Mo      74.77261347      27.25964171      11.68830792      95.95000002       0.00000000       0.00000000       0.00000000      308        1        0        0        0
Mo      77.57393134      25.75008582      11.67704719      95.95000002       0.00000000       0.00000000       0.00000000      309        1        0        0        0
Mo      80.37951063      24.24434832      11.66983542      95.95000002       0.00000000       0.00000000       0.00000000      310        1        0        0        0
Mo      99.15691224      54.85931089      11.47250639      95.95000002       0.00000000       0.00000000       0.00000000      311        1        0        0        0
Mo      32.92242954      53.36258844      11.47143498      95.95000002       0.00000000       0.00000000       0.00000000      312        1        0        0        0
Mo      35.73815209      51.86383619      11.48272444      95.95000002       0.00000000       0.00000000       0.00000000      313        1        0        0        0
Mo      38.54902513      50.36134893      11.50547495      95.95000002       0.00000000       0.00000000       0.00000000      314        1        0        0        0
Mo      41.35382828      48.85381398      11.53722927      95.95000002       0.00000000       0.00000000       0.00000000      315        1        0        0        0
Mo      44.15157075      47.34006579      11.57379212      95.95000002       0.00000000       0.00000000       0.00000000      316        1        0        0        0
Mo      46.94185148      45.81916327      11.61019559      95.95000002       0.00000000       0.00000000       0.00000000      317        1        0        0        0
Mo      49.72508052      44.29072944      11.64235347      95.95000002       0.00000000       0.00000000       0.00000000      318        1        0        0        0
Mo      52.50240569      42.75520988      11.66811436      95.95000002       0.00000000       0.00000000       0.00000000      319        1        0        0        0
Mo      55.27550567      41.21386150      11.68726353      95.95000002       0.00000000       0.00000000       0.00000000      320        1        0        0        0
Mo      58.04631229      39.66848200      11.70083910      95.95000002       0.00000000       0.00000000       0.00000000      321        1        0        0        0
Mo      60.81680189      38.12115044      11.71024090      95.95000002       0.00000000       0.00000000       0.00000000      322        1        0        0        0
Mo      63.58889780      36.57409646      11.71643647      95.95000002       0.00000000       0.00000000       0.00000000      323        1        0        0        0
Mo      66.36441838      35.02965938      11.71948352      95.95000002       0.00000000       0.00000000       0.00000000      324        1        0        0        0
Mo      69.14499112      33.49023076      11.71859137      95.95000002       0.00000000       0.00000000       0.00000000      325        1        0        0        0
Mo      71.93183257      31.95794180      11.71291774      95.95000002       0.00000000       0.00000000       0.00000000      326        1        0        0        0
Mo      74.72544288      30.43407635      11.70281426      95.95000002       0.00000000       0.00000000       0.00000000      327        1        0        0        0
Mo      77.52536772      28.91839028      11.69066427      95.95000002       0.00000000       0.00000000       0.00000000      328        1        0        0        0
Mo      80.33014995      27.40874875      11.68057604      95.95000002       0.00000000       0.00000000       0.00000000      329        1        0        0        0
Mo      32.80719267      56.54620371      11.45186056      95.95000002       0.00000000       0.00000000       0.00000000      330        1        0        0        0
Mo      35.62458247      55.05054604      11.45710930      95.95000002       0.00000000       0.00000000       0.00000000      331        1        0        0        0
Mo      38.43858146      53.55182812      11.47474148      95.95000002       0.00000000       0.00000000       0.00000000      332        1        0        0        0
Mo      41.24811053      52.04857417      11.50360459      95.95000002       0.00000000       0.00000000       0.00000000      333        1        0        0        0
Mo      44.05219052      50.53946445      11.54078411      95.95000002       0.00000000       0.00000000       0.00000000      334        1        0        0        0
Mo      46.85006305      49.02317224      11.58147621      95.95000002       0.00000000       0.00000000       0.00000000      335        1        0        0        0
Mo      49.64155822      47.49864869      11.62037992      95.95000002       0.00000000       0.00000000       0.00000000      336        1        0        0        0
Mo      52.42723839      45.96565906      11.65362716      95.95000002       0.00000000       0.00000000       0.00000000      337        1        0        0        0
Mo      55.20824613      44.42505930      11.67962829      95.95000002       0.00000000       0.00000000       0.00000000      338        1        0        0        0
Mo      57.98609837      42.87857040      11.69865086      95.95000002       0.00000000       0.00000000       0.00000000      339        1        0        0        0
Mo      60.76248370      41.32838911      11.71191307      95.95000002       0.00000000       0.00000000       0.00000000      340        1        0        0        0
Mo      63.53913618      39.77693762      11.72066726      95.95000002       0.00000000       0.00000000       0.00000000      341        1        0        0        0
Mo      66.31776844      38.22676516      11.72551814      95.95000002       0.00000000       0.00000000       0.00000000      342        1        0        0        0
Mo      69.10000389      36.68050276      11.72619215      95.95000002       0.00000000       0.00000000       0.00000000      343        1        0        0        0
Mo      71.88723855      35.14067627      11.72197550      95.95000002       0.00000000       0.00000000       0.00000000      344        1        0        0        0
Mo      74.68037060      33.60923733      11.71278402      95.95000002       0.00000000       0.00000000       0.00000000      345        1        0        0        0
Mo      77.47949314      32.08685290      11.70024776      95.95000002       0.00000000       0.00000000       0.00000000      346        1        0        0        0
Mo      80.28372051      30.57233812      11.68793505      95.95000002       0.00000000       0.00000000       0.00000000      347        1        0        0        0
Mo      83.09122735      29.06261270      11.68029787      95.95000002       0.00000000       0.00000000       0.00000000      348        1        0        0        0
Mo     101.74464510      59.73013315      11.44447484      95.95000002       0.00000000       0.00000000       0.00000000      349        1        0        0        0
Mo      35.50840006      58.23688263      11.44347504      95.95000002       0.00000000       0.00000000       0.00000000      350        1        0        0        0
Mo      38.32381458      56.74121008      11.45512473      95.95000002       0.00000000       0.00000000       0.00000000      351        1        0        0        0
Mo      41.13618895      55.24138564      11.47894673      95.95000002       0.00000000       0.00000000       0.00000000      352        1        0        0        0
Mo      43.94471239      53.73594099      11.51318798      95.95000002       0.00000000       0.00000000       0.00000000      353        1        0        0        0
Mo      46.74865029      52.22338273      11.55403509      95.95000002       0.00000000       0.00000000       0.00000000      354        1        0        0        0
Mo      49.54750953      50.70227682      11.59606361      95.95000002       0.00000000       0.00000000       0.00000000      355        1        0        0        0
Mo      52.34132512      49.17181449      11.63423051      95.95000002       0.00000000       0.00000000       0.00000000      356        1        0        0        0
Mo      55.13066757      47.63236309      11.66563939      95.95000002       0.00000000       0.00000000       0.00000000      357        1        0        0        0
Mo      57.91650646      46.08542283      11.68964958      95.95000002       0.00000000       0.00000000       0.00000000      358        1        0        0        0
Mo      60.70008268      44.53320072      11.70702043      95.95000002       0.00000000       0.00000000       0.00000000      359        1        0        0        0
Mo      63.48279733      42.97824073      11.71895595      95.95000002       0.00000000       0.00000000       0.00000000      360        1        0        0        0
Mo      66.26613614      41.42324676      11.72631015      95.95000002       0.00000000       0.00000000       0.00000000      361        1        0        0        0
Mo      69.05161083      39.87101262      11.72915104      95.95000002       0.00000000       0.00000000       0.00000000      362        1        0        0        0
Mo      71.84066408      38.32431431      11.72691010      95.95000002       0.00000000       0.00000000       0.00000000      363        1        0        0        0
Mo      74.63445595      36.78558230      11.71921303      95.95000002       0.00000000       0.00000000       0.00000000      364        1        0        0        0
Mo      77.43355533      35.25627189      11.70701476      95.95000002       0.00000000       0.00000000       0.00000000      365        1        0        0        0
Mo      80.23765201      33.73616702      11.69324484      95.95000002       0.00000000       0.00000000       0.00000000      366        1        0        0        0
Mo      83.04545498      32.22305848      11.68228603      95.95000002       0.00000000       0.00000000       0.00000000      367        1        0        0        0
Mo      41.02160496      58.43249825      11.46551919      95.95000002       0.00000000       0.00000000       0.00000000      368        1        0        0        0
Mo      43.83260790      56.92995220      11.49463828      95.95000002       0.00000000       0.00000000       0.00000000      369        1        0        0        0
Mo      46.64052696      55.42030411      11.53223793      95.95000002       0.00000000       0.00000000       0.00000000      370        1        0        0        0
Mo      49.44490989      53.90193921      11.57355278      95.95000002       0.00000000       0.00000000       0.00000000      371        1        0        0        0
Mo      52.24553502      52.37370380      11.61325190      95.95000002       0.00000000       0.00000000       0.00000000      372        1        0        0        0
Mo      55.04251237      50.83554896      11.64752162      95.95000002       0.00000000       0.00000000       0.00000000      373        1        0        0        0
Mo      57.83627142      49.28867114      11.67489754      95.95000002       0.00000000       0.00000000       0.00000000      374        1        0        0        0
Mo      60.62753126      47.73516587      11.69564304      95.95000002       0.00000000       0.00000000       0.00000000      375        1        0        0        0
Mo      63.41724380      46.17760902      11.71075897      95.95000002       0.00000000       0.00000000       0.00000000      376        1        0        0        0
Mo      66.20653834      44.61878405      11.72110978      95.95000002       0.00000000       0.00000000       0.00000000      377        1        0        0        0
Mo      68.99667461      43.06157369      11.72686650      95.95000002       0.00000000       0.00000000       0.00000000      378        1        0        0        0
Mo      71.78898009      41.50888003      11.72746346      95.95000002       0.00000000       0.00000000       0.00000000      379        1        0        0        0
Mo      74.58470741      39.96343396      11.72221555      95.95000002       0.00000000       0.00000000       0.00000000      380        1        0        0        0
Mo      77.38475432      38.42730611      11.71140244      95.95000002       0.00000000       0.00000000       0.00000000      381        1        0        0        0
Mo      80.18932996      36.90118575      11.69719609      95.95000002       0.00000000       0.00000000       0.00000000      382        1        0        0        0
Mo      82.99771998      35.38383878      11.68364903      95.95000002       0.00000000       0.00000000       0.00000000      383        1        0        0        0
Mo      85.80825928      33.87210024      11.67547431      95.95000002       0.00000000       0.00000000       0.00000000      384        1        0        0        0
Mo      46.52949566      58.61438109      11.51988298      95.95000002       0.00000000       0.00000000       0.00000000      385        1        0        0        0
Mo      49.33718729      57.09817900      11.55757069      95.95000002       0.00000000       0.00000000       0.00000000      386        1        0        0        0
Mo      52.14249453      55.57177892      11.59551677      95.95000002       0.00000000       0.00000000       0.00000000      387        1        0        0        0
Mo      54.94535756      54.03485709      11.62961319      95.95000002       0.00000000       0.00000000       0.00000000      388        1        0        0        0
Mo      57.74583991      52.48834022      11.65785526      95.95000002       0.00000000       0.00000000       0.00000000      389        1        0        0        0
Mo      60.54420263      50.93414925      11.68013310      95.95000002       0.00000000       0.00000000       0.00000000      390        1        0        0        0
Mo      63.34093285      49.37480750      11.69729948      95.95000002       0.00000000       0.00000000       0.00000000      391        1        0        0        0
Mo      66.13673094      47.81310891      11.71019732      95.95000002       0.00000000       0.00000000       0.00000000      392        1        0        0        0
Mo      68.93248929      46.25195529      11.71898639      95.95000002       0.00000000       0.00000000       0.00000000      393        1        0        0        0
Mo      71.72926187      44.69427656      11.72297532      95.95000002       0.00000000       0.00000000       0.00000000      394        1        0        0        0
Mo      74.52818490      43.14294018      11.72108327      95.95000002       0.00000000       0.00000000       0.00000000      395        1        0        0        0
Mo      77.33027758      41.60043327      11.71284024      95.95000002       0.00000000       0.00000000       0.00000000      396        1        0        0        0
Mo      80.13612076      40.06821003      11.69948136      95.95000002       0.00000000       0.00000000       0.00000000      397        1        0        0        0
Mo      82.94553368      38.54601444      11.68440452      95.95000002       0.00000000       0.00000000       0.00000000      398        1        0        0        0
Mo      85.75740963      37.03157739      11.67244487      95.95000002       0.00000000       0.00000000       0.00000000      399        1        0        0        0
Mo      52.03617609      58.76655455      11.58586767      95.95000002       0.00000000       0.00000000       0.00000000      400        1        0        0        0
Mo      54.84259357      57.23078232      11.61718280      95.95000002       0.00000000       0.00000000       0.00000000      401        1        0        0        0
Mo      57.64769600      55.68478175      11.64361948      95.95000002       0.00000000       0.00000000       0.00000000      402        1        0        0        0
Mo      60.45150657      54.13031489      11.66493722      95.95000002       0.00000000       0.00000000       0.00000000      403        1        0        0        0
Mo      63.25416870      52.56982261      11.68200989      95.95000002       0.00000000       0.00000000       0.00000000      404        1        0        0        0
Mo      66.05599630      51.00606963      11.69579496      95.95000002       0.00000000       0.00000000       0.00000000      405        1        0        0        0
Mo      68.85748804      49.44192647      11.70653089      95.95000002       0.00000000       0.00000000       0.00000000      406        1        0        0        0
Mo      71.65933224      47.88029210      11.71344462      95.95000002       0.00000000       0.00000000       0.00000000      407        1        0        0        0
Mo      74.46237424      46.32404644      11.71507318      95.95000002       0.00000000       0.00000000       0.00000000      408        1        0        0        0
Mo      77.26751416      44.77588873      11.71017075      95.95000002       0.00000000       0.00000000       0.00000000      409        1        0        0        0
Mo      80.07547693      43.23783857      11.69888270      95.95000002       0.00000000       0.00000000       0.00000000      410        1        0        0        0
Mo      82.88647288      41.71051870      11.68358353      95.95000002       0.00000000       0.00000000       0.00000000      411        1        0        0        0
Mo      85.69992284      40.19262772      11.66870494      95.95000002       0.00000000       0.00000000       0.00000000      412        1        0        0        0
Mo      88.51436788      38.68098917      11.65940287      95.95000002       0.00000000       0.00000000       0.00000000      413        1        0        0        0
Mo      57.54599193      58.87843110      11.63718978      95.95000002       0.00000000       0.00000000       0.00000000      414        1        0        0        0
Mo      60.35289541      57.32401598      11.65527135      95.95000002       0.00000000       0.00000000       0.00000000      415        1        0        0        0
Mo      63.15944553      55.76285857      11.66979098      95.95000002       0.00000000       0.00000000       0.00000000      416        1        0        0        0
Mo      65.96574054      54.19769096      11.68202661      95.95000002       0.00000000       0.00000000       0.00000000      417        1        0        0        0
Mo      68.77198980      52.63135075      11.69250763      95.95000002       0.00000000       0.00000000       0.00000000      418        1        0        0        0
Mo      71.57853285      51.06668550      11.70058877      95.95000002       0.00000000       0.00000000       0.00000000      419        1        0        0        0
Mo      74.38585992      49.50652713      11.70463284      95.95000002       0.00000000       0.00000000       0.00000000      420        1        0        0        0
Mo      77.19458108      47.95363535      11.70277269      95.95000002       0.00000000       0.00000000       0.00000000      421        1        0        0        0
Mo      80.00530637      46.41036487      11.69408136      95.95000002       0.00000000       0.00000000       0.00000000      422        1        0        0        0
Mo      82.81840806      44.87802875      11.67966860      95.95000002       0.00000000       0.00000000       0.00000000      423        1        0        0        0
Mo      85.63370034      43.35625052      11.66302997      95.95000002       0.00000000       0.00000000       0.00000000      424        1        0        0        0
Mo      88.45022477      41.84270706      11.64926870      95.95000002       0.00000000       0.00000000       0.00000000      425        1        0        0        0
Mo      63.06109939      58.95418666      11.66523272      95.95000002       0.00000000       0.00000000       0.00000000      426        1        0        0        0
Mo      65.86951444      57.38814375      11.67367867      95.95000002       0.00000000       0.00000000       0.00000000      427        1        0        0        0
Mo      68.67853453      55.82024444      11.68136201      95.95000002       0.00000000       0.00000000       0.00000000      428        1        0        0        0
Mo      71.48831104      54.25330686      11.68803979      95.95000002       0.00000000       0.00000000       0.00000000      429        1        0        0        0
Mo      74.29904508      52.69012161      11.69221856      95.95000002       0.00000000       0.00000000       0.00000000      430        1        0        0        0
Mo      77.11101581      51.13343582      11.69175969      95.95000002       0.00000000       0.00000000       0.00000000      431        1        0        0        0
Mo      79.92456498      49.58575963      11.68494359      95.95000002       0.00000000       0.00000000       0.00000000      432        1        0        0        0
Mo      82.73997475      48.04886726      11.67166571      95.95000002       0.00000000       0.00000000       0.00000000      433        1        0        0        0
Mo      85.55723259      46.52314732      11.65418002      95.95000002       0.00000000       0.00000000       0.00000000      434        1        0        0        0
Mo      88.37576657      45.00714372      11.63687552      95.95000002       0.00000000       0.00000000       0.00000000      435        1        0        0        0
Mo      91.19428859      43.49766961      11.62505287      95.95000002       0.00000000       0.00000000       0.00000000      436        1        0        0        0
Mo      68.58154501      59.00872046      11.67730590      95.95000002       0.00000000       0.00000000       0.00000000      437        1        0        0        0
Mo      71.39223803      57.44014623      11.68027122      95.95000002       0.00000000       0.00000000       0.00000000      438        1        0        0        0
Mo      74.20448600      55.87466280      11.68196296      95.95000002       0.00000000       0.00000000       0.00000000      439        1        0        0        0
Mo      77.01834954      54.31501253      11.68037553      95.95000002       0.00000000       0.00000000       0.00000000      440        1        0        0        0
Mo      79.83388775      52.76377724      11.67346489      95.95000002       0.00000000       0.00000000       0.00000000      441        1        0        0        0
Mo      82.65115587      51.22300414      11.66030049      95.95000002       0.00000000       0.00000000       0.00000000      442        1        0        0        0
Mo      85.47009700      49.69362877      11.64198601      95.95000002       0.00000000       0.00000000       0.00000000      443        1        0        0        0
Mo      88.29033726      48.17495203      11.62186471      95.95000002       0.00000000       0.00000000       0.00000000      444        1        0        0        0
Mo      91.11095598      46.66450038      11.60483338      95.95000002       0.00000000       0.00000000       0.00000000      445        1        0        0        0
Mo      74.10657662      59.06009864      11.67807332      95.95000002       0.00000000       0.00000000       0.00000000      446        1        0        0        0
Mo      76.92014141      57.49816348      11.67307770      95.95000002       0.00000000       0.00000000       0.00000000      447        1        0        0        0
Mo      79.73592576      55.94411441      11.66364273      95.95000002       0.00000000       0.00000000       0.00000000      448        1        0        0        0
Mo      82.55376864      54.40016985      11.64856536      95.95000002       0.00000000       0.00000000       0.00000000      449        1        0        0        0
Mo      85.37346021      52.86763020      11.62828207      95.95000002       0.00000000       0.00000000       0.00000000      450        1        0        0        0
Mo      88.19464934      51.34636863      11.60524608      95.95000002       0.00000000       0.00000000       0.00000000      451        1        0        0        0
Mo      91.01664931      49.83457588      11.58362266      95.95000002       0.00000000       0.00000000       0.00000000      452        1        0        0        0
Mo      93.83821863      48.32901584      11.56826184      95.95000002       0.00000000       0.00000000       0.00000000      453        1        0        0        0
Mo      79.63498569      59.12652625      11.65992117      95.95000002       0.00000000       0.00000000       0.00000000      454        1        0        0        0
Mo      82.45143421      57.58000891      11.64097811      95.95000002       0.00000000       0.00000000       0.00000000      455        1        0        0        0
Mo      85.27027816      56.04481634      11.61696048      95.95000002       0.00000000       0.00000000       0.00000000      456        1        0        0        0
Mo      88.09110620      54.52122957      11.58999446      95.95000002       0.00000000       0.00000000       0.00000000      457        1        0        0        0
Mo      90.91333556      53.00797453      11.56372862      95.95000002       0.00000000       0.00000000       0.00000000      458        1        0        0        0
Mo      93.73596895      51.50231254      11.54261197      95.95000002       0.00000000       0.00000000       0.00000000      459        1        0        0        0
Mo      85.16476536      59.22478649      11.61250852      95.95000002       0.00000000       0.00000000       0.00000000      460        1        0        0        0
Mo      87.98349576      57.69911942      11.58041346      95.95000002       0.00000000       0.00000000       0.00000000      461        1        0        0        0
Mo      90.80442079      56.18439312      11.54883942      95.95000002       0.00000000       0.00000000       0.00000000      462        1        0        0        0
Mo      93.62669635      54.67830149      11.52205196      95.95000002       0.00000000       0.00000000       0.00000000      463        1        0        0        0
Mo      96.44900168      53.17759177      11.50388546      95.95000002       0.00000000       0.00000000       0.00000000      464        1        0        0        0
Mo      90.69392738      59.36343989      11.54274377      95.95000002       0.00000000       0.00000000       0.00000000      465        1        0        0        0
Mo      93.51420998      57.85663643      11.51000192      95.95000002       0.00000000       0.00000000       0.00000000      466        1        0        0        0
Mo      96.33572080      56.35634288      11.48576010      95.95000002       0.00000000       0.00000000       0.00000000      467        1        0        0        0
Mo      96.22130985      59.53672879      11.47860396      95.95000002       0.00000000       0.00000000       0.00000000      468        1        0        0        0
Mo      99.04140131      58.04075106      11.45916606      95.95000002       0.00000000       0.00000000       0.00000000      469        1        0        0        0
W        4.64035644       1.45776372      18.21592019      32.06000001       0.00000000       0.00000000       0.00000000      470        3        0        0        0
W        4.74905355       4.64220595      18.20515965      32.06000001       0.00000000       0.00000000       0.00000000      471        3        0        0        0
W        7.45619830       2.95548348      18.19443321      32.06000001       0.00000000       0.00000000       0.00000000      472        3        0        0        0
W       10.16413383       1.27409458      18.17270450      32.06000001       0.00000000       0.00000000       0.00000000      473        3        0        0        0
W        7.56137524       6.14009837      18.17849604      32.06000001       0.00000000       0.00000000       0.00000000      474        3        0        0        0
W       10.27002301       4.45748298      18.16255694      32.06000001       0.00000000       0.00000000       0.00000000      475        3        0        0        0
W       12.97933252       2.78172435      18.13744541      32.06000001       0.00000000       0.00000000       0.00000000      476        3        0        0        0
W       15.68969179       1.11428330      18.10656753      32.06000001       0.00000000       0.00000000       0.00000000      477        3        0        0        0
W        7.66037563       9.32687854      18.15327590      32.06000001       0.00000000       0.00000000       0.00000000      478        3        0        0        0
W       10.37021118       7.64331812      18.14272782      32.06000001       0.00000000       0.00000000       0.00000000      479        3        0        0        0
W       13.08033966       5.96642621      18.12282816      32.06000001       0.00000000       0.00000000       0.00000000      480        3        0        0        0
W       15.79119185       4.29792602      18.09700634      32.06000001       0.00000000       0.00000000       0.00000000      481        3        0        0        0
W       18.50304947       2.63891762      18.06949677      32.06000001       0.00000000       0.00000000       0.00000000      482        3        0        0        0
W       21.21610013       0.98961542      18.04406549      32.06000001       0.00000000       0.00000000       0.00000000      483        3        0        0        0
W       10.46283943      10.83238363      18.11656239      32.06000001       0.00000000       0.00000000       0.00000000      484        3        0        0        0
W       13.17411009       9.15438517      18.10118224      32.06000001       0.00000000       0.00000000       0.00000000      485        3        0        0        0
W       15.88606986       7.48463638      18.07959096      32.06000001       0.00000000       0.00000000       0.00000000      486        3        0        0        0
W       18.59901129       5.82449514      18.05625339      32.06000001       0.00000000       0.00000000       0.00000000      487        3        0        0        0
W       21.31295577       4.17435603      18.03510104      32.06000001       0.00000000       0.00000000       0.00000000      488        3        0        0        0
W       24.02771181       2.53358038      18.01846451      32.06000001       0.00000000       0.00000000       0.00000000      489        3        0        0        0
W       26.74297360       0.90063482      18.00689351      32.06000001       0.00000000       0.00000000       0.00000000      490        3        0        0        0
W       10.54665493      14.02552224      18.08837892      32.06000001       0.00000000       0.00000000       0.00000000      491        3        0        0        0
W       13.25911046      12.34649945      18.07693542      32.06000001       0.00000000       0.00000000       0.00000000      492        3        0        0        0
W       15.97232194      10.67526821      18.05862983      32.06000001       0.00000000       0.00000000       0.00000000      493        3        0        0        0
W       18.68678327       9.01354654      18.03819023      32.06000001       0.00000000       0.00000000       0.00000000      494        3        0        0        0
W       21.40249788       7.36200272      18.01996968      32.06000001       0.00000000       0.00000000       0.00000000      495        3        0        0        0
W       24.11910581       5.72019136      18.00660362      32.06000001       0.00000000       0.00000000       0.00000000      496        3        0        0        0
W       26.83605668       4.08669485      17.99869521      32.06000001       0.00000000       0.00000000       0.00000000      497        3        0        0        0
W       29.55277842       2.45943903      17.99541713      32.06000001       0.00000000       0.00000000       0.00000000      498        3        0        0        0
W       32.26878808       0.83604854      17.99540444      32.06000001       0.00000000       0.00000000       0.00000000      499        3        0        0        0
W       13.33476303      15.54344458      18.05426913      32.06000001       0.00000000       0.00000000       0.00000000      500        3        0        0        0
W       16.04902385      13.87058031      18.03873350      32.06000001       0.00000000       0.00000000       0.00000000      501        3        0        0        0
W       18.76489874      12.20682790      18.02012089      32.06000001       0.00000000       0.00000000       0.00000000      502        3        0        0        0
W       21.48256995      10.55323672      18.00326095      32.06000001       0.00000000       0.00000000       0.00000000      503        3        0        0        0
W       24.20165025       8.90964673      17.99133494      32.06000001       0.00000000       0.00000000       0.00000000      504        3        0        0        0
W       26.92141718       7.27483031      17.98529872      32.06000001       0.00000000       0.00000000       0.00000000      505        3        0        0        0
W       29.64104213       5.64681537      17.98442572      32.06000001       0.00000000       0.00000000       0.00000000      506        3        0        0        0
W       32.35976044       4.02326847      17.98733916      32.06000001       0.00000000       0.00000000       0.00000000      507        3        0        0        0
W       35.07694839       2.40173773      17.99277228      32.06000001       0.00000000       0.00000000       0.00000000      508        3        0        0        0
W       37.79212445       0.77972326      17.99982174      32.06000001       0.00000000       0.00000000       0.00000000      509        3        0        0        0
W       13.40153610      18.74536836      18.03569654      32.06000001       0.00000000       0.00000000       0.00000000      510        3        0        0        0
W       16.11643026      17.07090283      18.02305652      32.06000001       0.00000000       0.00000000       0.00000000      511        3        0        0        0
W       18.83322251      15.40478710      18.00590300      32.06000001       0.00000000       0.00000000       0.00000000      512        3        0        0        0
W       21.55245274      13.74855112      17.98935584      32.06000001       0.00000000       0.00000000       0.00000000      513        3        0        0        0
W       24.27389848      12.10242893      17.97724333      32.06000001       0.00000000       0.00000000       0.00000000      514        3        0        0        0
W       26.99679911      10.46547261      17.97110970      32.06000001       0.00000000       0.00000000       0.00000000      515        3        0        0        0
W       29.72014063       8.83587304      17.97056340      32.06000001       0.00000000       0.00000000       0.00000000      516        3        0        0        0
W       32.44289413       7.21137200      17.97436792      32.06000001       0.00000000       0.00000000       0.00000000      517        3        0        0        0
W       35.16414385       5.58955019      17.98140398      32.06000001       0.00000000       0.00000000       0.00000000      518        3        0        0        0
W       37.88312134       3.96791777      17.99103051      32.06000001       0.00000000       0.00000000       0.00000000      519        3        0        0        0
W       40.59921126       2.34391778      18.00298261      32.06000001       0.00000000       0.00000000       0.00000000      520        3        0        0        0
W       43.31198742       0.71498574      18.01714737      32.06000001       0.00000000       0.00000000       0.00000000      521        3        0        0        0
W       16.17584591      20.27602869      18.01247345      32.06000001       0.00000000       0.00000000       0.00000000      522        3        0        0        0
W       18.89287151      18.60741158      17.99717612      32.06000001       0.00000000       0.00000000       0.00000000      523        3        0        0        0
W       21.61288098      16.94806611      17.98074613      32.06000001       0.00000000       0.00000000       0.00000000      524        3        0        0        0
W       24.33600422      15.29872978      17.96758260      32.06000001       0.00000000       0.00000000       0.00000000      525        3        0        0        0
W       27.06162185      13.65884350      17.95996691      32.06000001       0.00000000       0.00000000       0.00000000      526        3        0        0        0
W       29.78866478      12.02684212      17.95803357      32.06000001       0.00000000       0.00000000       0.00000000      527        3        0        0        0
W       32.51590981      10.40057770      17.96078833      32.06000001       0.00000000       0.00000000       0.00000000      528        3        0        0        0
W       35.24218408       8.77767944      17.96726392      32.06000001       0.00000000       0.00000000       0.00000000      529        3        0        0        0
W       37.96642360       7.15568284      17.97711681      32.06000001       0.00000000       0.00000000       0.00000000      530        3        0        0        0
W       40.68769322       5.53202518      17.99057047      32.06000001       0.00000000       0.00000000       0.00000000      531        3        0        0        0
W       43.40522924       3.90407523      18.00797092      32.06000001       0.00000000       0.00000000       0.00000000      532        3        0        0        0
W       46.11854395       2.26929105      18.02928036      32.06000001       0.00000000       0.00000000       0.00000000      533        3        0        0        0
W       48.82753891       0.62555488      18.05376350      32.06000001       0.00000000       0.00000000       0.00000000      534        3        0        0        0
W       16.22927701      23.48529793      18.00595190      32.06000001       0.00000000       0.00000000       0.00000000      535        3        0        0        0
W       18.94585961      21.81426456      17.99336633      32.06000001       0.00000000       0.00000000       0.00000000      536        3        0        0        0
W       21.66573113      20.15153614      17.97760390      32.06000001       0.00000000       0.00000000       0.00000000      537        3        0        0        0
W       24.38950598      18.49843668      17.96337995      32.06000001       0.00000000       0.00000000       0.00000000      538        3        0        0        0
W       27.11688613      16.85490654      17.95375153      32.06000001       0.00000000       0.00000000       0.00000000      539        3        0        0        0
W       29.84691358      15.21972514      17.94954339      32.06000001       0.00000000       0.00000000       0.00000000      540        3        0        0        0
W       32.57829297      13.59091957      17.95009974      32.06000001       0.00000000       0.00000000       0.00000000      541        3        0        0        0
W       35.30966672      11.96617963      17.95454033      32.06000001       0.00000000       0.00000000       0.00000000      542        3        0        0        0
W       38.03973877      10.34307323      17.96265173      32.06000001       0.00000000       0.00000000       0.00000000      543        3        0        0        0
W       40.76728291       8.71905291      17.97507076      32.06000001       0.00000000       0.00000000       0.00000000      544        3        0        0        0
W       43.49118090       7.09146448      17.99283856      32.06000001       0.00000000       0.00000000       0.00000000      545        3        0        0        0
W       46.21052484       5.45766849      18.01659023      32.06000001       0.00000000       0.00000000       0.00000000      546        3        0        0        0
W       48.92480612       3.81535623      18.04576308      32.06000001       0.00000000       0.00000000       0.00000000      547        3        0        0        0
W       51.63407805       2.16295902      18.07836845      32.06000001       0.00000000       0.00000000       0.00000000      548        3        0        0        0
W       54.33896549       0.49997699      18.11157326      32.06000001       0.00000000       0.00000000       0.00000000      549        3        0        0        0
W       18.99462797      25.02463330      17.99273019      32.06000001       0.00000000       0.00000000       0.00000000      550        3        0        0        0
W       21.71350025      23.35846271      17.97857485      32.06000001       0.00000000       0.00000000       0.00000000      551        3        0        0        0
W       24.43681355      21.70122090      17.96387649      32.06000001       0.00000000       0.00000000       0.00000000      552        3        0        0        0
W       27.16473442      20.05344299      17.95238758      32.06000001       0.00000000       0.00000000       0.00000000      553        3        0        0        0
W       29.89657404      18.41435808      17.94576251      32.06000001       0.00000000       0.00000000       0.00000000      554        3        0        0        0
W       32.63111147      16.78225932      17.94383669      32.06000001       0.00000000       0.00000000       0.00000000      555        3        0        0        0
W       35.36690935      15.15493701      17.94579448      32.06000001       0.00000000       0.00000000       0.00000000      556        3        0        0        0
W       38.10252265      13.52998848      17.95131694      32.06000001       0.00000000       0.00000000       0.00000000      557        3        0        0        0
W       40.83653010      11.90489912      17.96111202      32.06000001       0.00000000       0.00000000       0.00000000      558        3        0        0        0
W       43.56752662      10.27702671      17.97671726      32.06000001       0.00000000       0.00000000       0.00000000      559        3        0        0        0
W       46.29420422       8.64369307      17.99965407      32.06000001       0.00000000       0.00000000       0.00000000      560        3        0        0        0
W       49.01554056       7.00245795      18.03024080      32.06000001       0.00000000       0.00000000       0.00000000      561        3        0        0        0
W       51.73107704       5.35152407      18.06675297      32.06000001       0.00000000       0.00000000       0.00000000      562        3        0        0        0
W       54.44110374       3.69008565      18.10567547      32.06000001       0.00000000       0.00000000       0.00000000      563        3        0        0        0
W       57.14658102       2.01858795      18.14282832      32.06000001       0.00000000       0.00000000       0.00000000      564        3        0        0        0
W       59.84880565       0.33879520      18.17440755      32.06000001       0.00000000       0.00000000       0.00000000      565        3        0        0        0
W       19.04167531      28.23766212      17.99360943      32.06000001       0.00000000       0.00000000       0.00000000      566        3        0        0        0
W       21.75885228      26.56821937      17.98204305      32.06000001       0.00000000       0.00000000       0.00000000      567        3        0        0        0
W       24.48067714      24.90665168      17.96771682      32.06000001       0.00000000       0.00000000       0.00000000      568        3        0        0        0
W       27.20787144      23.25415353      17.95485984      32.06000001       0.00000000       0.00000000       0.00000000      569        3        0        0        0
W       29.94016157      21.61051256      17.94604904      32.06000001       0.00000000       0.00000000       0.00000000      570        3        0        0        0
W       32.67653240      19.97438906      17.94183205      32.06000001       0.00000000       0.00000000       0.00000000      571        3        0        0        0
W       35.41558235      18.34374640      17.94157664      32.06000001       0.00000000       0.00000000       0.00000000      572        3        0        0        0
W       38.15579766      16.71622690      17.94472088      32.06000001       0.00000000       0.00000000       0.00000000      573        3        0        0        0
W       40.89565500      15.08935128      17.95165418      32.06000001       0.00000000       0.00000000       0.00000000      574        3        0        0        0
W       43.63358828      13.46052809      17.96390531      32.06000001       0.00000000       0.00000000       0.00000000      575        3        0        0        0
W       46.36800407      11.82709430      17.98356530      32.06000001       0.00000000       0.00000000       0.00000000      576        3        0        0        0
W       49.09742224      10.18654563      18.01203450      32.06000001       0.00000000       0.00000000       0.00000000      577        3        0        0        0
W       51.82077068       8.53691497      18.04867681      32.06000001       0.00000000       0.00000000       0.00000000      578        3        0        0        0
W       54.53773101       6.87711906      18.09035509      32.06000001       0.00000000       0.00000000       0.00000000      579        3        0        0        0
W       57.24889227       5.20720428      18.13228286      32.06000001       0.00000000       0.00000000       0.00000000      580        3        0        0        0
W       59.95549462       3.52849550      18.16957165      32.06000001       0.00000000       0.00000000       0.00000000      581        3        0        0        0
W       62.65897257       1.84335272      18.19853244      32.06000001       0.00000000       0.00000000       0.00000000      582        3        0        0        0
W       65.36078779       0.15457327      18.21700146      32.06000001       0.00000000       0.00000000       0.00000000      583        3        0        0        0
W       21.80439329      29.78008985      17.98708612      32.06000001       0.00000000       0.00000000       0.00000000      584        3        0        0        0
W       24.52387553      28.11423730      17.97401189      32.06000001       0.00000000       0.00000000       0.00000000      585        3        0        0        0
W       27.24916515      26.45671926      17.96037317      32.06000001       0.00000000       0.00000000       0.00000000      586        3        0        0        0
W       29.98052063      24.80796507      17.94964833      32.06000001       0.00000000       0.00000000       0.00000000      587        3        0        0        0
W       32.71727331      23.16711845      17.94333964      32.06000001       0.00000000       0.00000000       0.00000000      588        3        0        0        0
W       35.45815910      21.53240937      17.94126511      32.06000001       0.00000000       0.00000000       0.00000000      589        3        0        0        0
W       38.20166463      19.90158027      17.94269167      32.06000001       0.00000000       0.00000000       0.00000000      590        3        0        0        0
W       40.94621867      18.27219006      17.94745975      32.06000001       0.00000000       0.00000000       0.00000000      591        3        0        0        0
W       43.69020031      16.64171641      17.95656940      32.06000001       0.00000000       0.00000000       0.00000000      592        3        0        0        0
W       46.43188604      15.00757321      17.97204025      32.06000001       0.00000000       0.00000000       0.00000000      593        3        0        0        0
W       49.16949729      13.36726651      17.99595570      32.06000001       0.00000000       0.00000000       0.00000000      594        3        0        0        0
W       51.90143254      11.71871929      18.02900107      32.06000001       0.00000000       0.00000000       0.00000000      595        3        0        0        0
W       54.62666652      10.06062202      18.06934274      32.06000001       0.00000000       0.00000000       0.00000000      596        3        0        0        0
W       57.34510730       8.39264887      18.11273777      32.06000001       0.00000000       0.00000000       0.00000000      597        3        0        0        0
W       60.05762357       6.71560298      18.15383788      32.06000001       0.00000000       0.00000000       0.00000000      598        3        0        0        0
W       62.76562633       5.03138423      18.18794733      32.06000001       0.00000000       0.00000000       0.00000000      599        3        0        0        0
W       65.47065477       3.34255740      18.21211391      32.06000001       0.00000000       0.00000000       0.00000000      600        3        0        0        0
W       68.17423296       1.65182581      18.22494135      32.06000001       0.00000000       0.00000000       0.00000000      601        3        0        0        0
W       21.85262746      32.99322435      17.99387535      32.06000001       0.00000000       0.00000000       0.00000000      602        3        0        0        0
W       24.56912226      31.32337721      17.98287454      32.06000001       0.00000000       0.00000000       0.00000000      603        3        0        0        0
W       27.29148639      29.66076331      17.96906694      32.06000001       0.00000000       0.00000000       0.00000000      604        3        0        0        0
W       30.02058525      28.00649057      17.95661524      32.06000001       0.00000000       0.00000000       0.00000000      605        3        0        0        0
W       32.75623944      26.36029280      17.94815458      32.06000001       0.00000000       0.00000000       0.00000000      606        3        0        0        0
W       35.49745053      24.72078539      17.94430712      32.06000001       0.00000000       0.00000000       0.00000000      607        3        0        0        0
W       38.24276987      23.08589683      17.94444062      32.06000001       0.00000000       0.00000000       0.00000000      608        3        0        0        0
W       40.99059906      21.45326269      17.94787163      32.06000001       0.00000000       0.00000000       0.00000000      609        3        0        0        0
W       43.73929496      19.82043239      17.95477512      32.06000001       0.00000000       0.00000000       0.00000000      610        3        0        0        0
W       46.48711918      18.18493367      17.96648756      32.06000001       0.00000000       0.00000000       0.00000000      611        3        0        0        0
W       49.23218480      16.54435905      17.98504868      32.06000001       0.00000000       0.00000000       0.00000000      612        3        0        0        0
W       51.97256321      14.89660330      18.01204075      32.06000001       0.00000000       0.00000000       0.00000000      613        3        0        0        0
W       54.70662647      13.24017503      18.04722342      32.06000001       0.00000000       0.00000000       0.00000000      614        3        0        0        0
W       57.43349490      11.57443092      18.08786500      32.06000001       0.00000000       0.00000000       0.00000000      615        3        0        0        0
W       60.15331749       9.89967339      18.12932896      32.06000001       0.00000000       0.00000000       0.00000000      616        3        0        0        0
W       62.86716177       8.21720226      18.16654853      32.06000001       0.00000000       0.00000000       0.00000000      617        3        0        0        0
W       65.57657886       6.52917903      18.19554185      32.06000001       0.00000000       0.00000000       0.00000000      618        3        0        0        0
W       68.28322521       4.83821874      18.21400798      32.06000001       0.00000000       0.00000000       0.00000000      619        3        0        0        0
W        1.93492628       3.14696586      18.22091533      32.06000001       0.00000000       0.00000000       0.00000000      620        3        0        0        0
W       24.61903590      34.53326518      17.99535128      32.06000001       0.00000000       0.00000000       0.00000000      621        3        0        0        0
W       27.33768628      32.86575138      17.98210666      32.06000001       0.00000000       0.00000000       0.00000000      622        3        0        0        0
W       30.06333752      31.20578235      17.96814610      32.06000001       0.00000000       0.00000000       0.00000000      623        3        0        0        0
W       32.79642448      29.55374559      17.95721701      32.06000001       0.00000000       0.00000000       0.00000000      624        3        0        0        0
W       35.53638075      27.90877595      17.95110760      32.06000001       0.00000000       0.00000000       0.00000000      625        3        0        0        0
W       38.28193763      26.26910573      17.94971240      32.06000001       0.00000000       0.00000000       0.00000000      626        3        0        0        0
W       41.03149889      24.63251801      17.95207831      32.06000001       0.00000000       0.00000000       0.00000000      627        3        0        0        0
W       43.78337865      22.99665500      17.95754745      32.06000001       0.00000000       0.00000000       0.00000000      628        3        0        0        0
W       46.53583732      21.35916828      17.96644056      32.06000001       0.00000000       0.00000000       0.00000000      629        3        0        0        0
W       49.28700174      19.71778539      17.98010296      32.06000001       0.00000000       0.00000000       0.00000000      630        3        0        0        0
W       52.03484432      18.07045565      18.00025331      32.06000001       0.00000000       0.00000000       0.00000000      631        3        0        0        0
W       54.77737170      16.41558134      18.02783975      32.06000001       0.00000000       0.00000000       0.00000000      632        3        0        0        0
W       57.51302980      14.75223712      18.06196061      32.06000001       0.00000000       0.00000000       0.00000000      633        3        0        0        0
W       60.24112190      13.08029237      18.09963146      32.06000001       0.00000000       0.00000000       0.00000000      634        3        0        0        0
W       62.96199759      11.40044285      18.13655602      32.06000001       0.00000000       0.00000000       0.00000000      635        3        0        0        0
W       65.67690009       9.71424514      18.16834488      32.06000001       0.00000000       0.00000000       0.00000000      636        3        0        0        0
W       68.38754231       8.02401718      18.19157290      32.06000001       0.00000000       0.00000000       0.00000000      637        3        0        0        0
W       71.09566966       6.33246273      18.20416180      32.06000001       0.00000000       0.00000000       0.00000000      638        3        0        0        0
W       24.67601794      37.74284352      18.01280299      32.06000001       0.00000000       0.00000000       0.00000000      639        3        0        0        0
W       27.39049296      36.07089750      18.00110674      32.06000001       0.00000000       0.00000000       0.00000000      640        3        0        0        0
W       30.11176206      34.40535292      17.98616809      32.06000001       0.00000000       0.00000000       0.00000000      641        3        0        0        0
W       32.84091691      32.74723145      17.97249953      32.06000001       0.00000000       0.00000000       0.00000000      642        3        0        0        0
W       35.57799146      31.09628460      17.96323809      32.06000001       0.00000000       0.00000000       0.00000000      643        3        0        0        0
W       38.32208387      29.45119923      17.95932296      32.06000001       0.00000000       0.00000000       0.00000000      644        3        0        0        0
W       41.07170225      27.81001063      17.96000252      32.06000001       0.00000000       0.00000000       0.00000000      645        3        0        0        0
W       43.82512097      26.17050538      17.96403091      32.06000001       0.00000000       0.00000000       0.00000000      646        3        0        0        0
W       46.58055283      24.53046479      17.97069282      32.06000001       0.00000000       0.00000000       0.00000000      647        3        0        0        0
W       49.33614201      22.88776850      17.98029453      32.06000001       0.00000000       0.00000000       0.00000000      648        3        0        0        0
W       52.08989018      21.24047354      17.99403027      32.06000001       0.00000000       0.00000000       0.00000000      649        3        0        0        0
W       54.83969034      19.58696294      18.01328365      32.06000001       0.00000000       0.00000000       0.00000000      650        3        0        0        0
W       57.58357027      17.92609763      18.03862052      32.06000001       0.00000000       0.00000000       0.00000000      651        3        0        0        0
W       60.32010250      16.25734891      18.06900534      32.06000001       0.00000000       0.00000000       0.00000000      652        3        0        0        0
W       63.04877627      14.58087675      18.10176218      32.06000001       0.00000000       0.00000000       0.00000000      653        3        0        0        0
W       65.77014769      12.89758342      18.13316087      32.06000001       0.00000000       0.00000000       0.00000000      654        3        0        0        0
W       68.48566540      11.20923478      18.15924481      32.06000001       0.00000000       0.00000000       0.00000000      655        3        0        0        0
W       71.19720139       9.51836039      18.17668669      32.06000001       0.00000000       0.00000000       0.00000000      656        3        0        0        0
W        4.85283972       7.82778092      18.18336690      32.06000001       0.00000000       0.00000000       0.00000000      657        3        0        0        0
W       27.45224651      39.27520729      18.02706866      32.06000001       0.00000000       0.00000000       0.00000000      658        3        0        0        0
W       30.16860326      37.60450391      18.01224732      32.06000001       0.00000000       0.00000000       0.00000000      659        3        0        0        0
W       32.89274582      35.94037794      17.99608209      32.06000001       0.00000000       0.00000000       0.00000000      660        3        0        0        0
W       35.62539879      34.28319867      17.98286572      32.06000001       0.00000000       0.00000000       0.00000000      661        3        0        0        0
W       38.36623628      32.63222729      17.97496462      32.06000001       0.00000000       0.00000000       0.00000000      662        3        0        0        0
W       41.11407188      30.98589958      17.97247401      32.06000001       0.00000000       0.00000000       0.00000000      663        3        0        0        0
W       43.86722716      29.34223718      17.97406804      32.06000001       0.00000000       0.00000000       0.00000000      664        3        0        0        0
W       46.62385347      27.69917867      17.97824941      32.06000001       0.00000000       0.00000000       0.00000000      665        3        0        0        0
W       49.38205532      26.05475467      17.98425502      32.06000001       0.00000000       0.00000000       0.00000000      666        3        0        0        0
W       52.13986296      24.40715087      17.99239765      32.06000001       0.00000000       0.00000000       0.00000000      667        3        0        0        0
W       54.89518660      22.75478689      18.00383318      32.06000001       0.00000000       0.00000000       0.00000000      668        3        0        0        0
W       57.64589958      21.09640252      18.01987741      32.06000001       0.00000000       0.00000000       0.00000000      669        3        0        0        0
W       60.39010820      19.43113811      18.04111350      32.06000001       0.00000000       0.00000000       0.00000000      670        3        0        0        0
W       63.12654930      17.75865095      18.06672303      32.06000001       0.00000000       0.00000000       0.00000000      671        3        0        0        0
W       65.85493843      16.07923036      18.09436367      32.06000001       0.00000000       0.00000000       0.00000000      672        3        0        0        0
W       68.57609257      14.39397929      18.12050029      32.06000001       0.00000000       0.00000000       0.00000000      673        3        0        0        0
W       71.29169734      12.70495817      18.14110524      32.06000001       0.00000000       0.00000000       0.00000000      674        3        0        0        0
W       74.00376525      11.01495244      18.15269541      32.06000001       0.00000000       0.00000000       0.00000000      675        3        0        0        0
W       27.52453727      42.47771698      18.05933038      32.06000001       0.00000000       0.00000000       0.00000000      676        3        0        0        0
W       30.23594577      40.80247000      18.04626619      32.06000001       0.00000000       0.00000000       0.00000000      677        3        0        0        0
W       32.95448993      39.13272602      18.02871059      32.06000001       0.00000000       0.00000000       0.00000000      678        3        0        0        0
W       35.68151539      37.46938782      18.01147494      32.06000001       0.00000000       0.00000000       0.00000000      679        3        0        0        0
W       38.41740439      35.81231481      17.99832064      32.06000001       0.00000000       0.00000000       0.00000000      680        3        0        0        0
W       41.16151899      34.16047463      17.99075332      32.06000001       0.00000000       0.00000000       0.00000000      681        3        0        0        0
W       43.91243698      32.51225712      17.98811111      32.06000001       0.00000000       0.00000000       0.00000000      682        3        0        0        0
W       46.66832327      30.86582479      17.98865708      32.06000001       0.00000000       0.00000000       0.00000000      683        3        0        0        0
W       49.42721443      29.21936814      17.99081310      32.06000001       0.00000000       0.00000000       0.00000000      684        3        0        0        0
W       52.18710913      27.57120376      17.99394921      32.06000001       0.00000000       0.00000000       0.00000000      685        3        0        0        0
W       54.94593790      25.91980848      17.99860106      32.06000001       0.00000000       0.00000000       0.00000000      686        3        0        0        0
W       57.70156071      24.26386674      18.00615777      32.06000001       0.00000000       0.00000000       0.00000000      687        3        0        0        0
W       60.45188835      22.60229106      18.01814192      32.06000001       0.00000000       0.00000000       0.00000000      688        3        0        0        0
W       63.19516339      20.93429659      18.03529400      32.06000001       0.00000000       0.00000000       0.00000000      689        3        0        0        0
W       65.93035222      19.25957610      18.05685038      32.06000001       0.00000000       0.00000000       0.00000000      690        3        0        0        0
W       68.65747826      17.57855434      18.08031523      32.06000001       0.00000000       0.00000000       0.00000000      691        3        0        0        0
W       71.37769101      15.89264970      18.10179068      32.06000001       0.00000000       0.00000000       0.00000000      692        3        0        0        0
W       74.09292927      14.20430229      18.11690676      32.06000001       0.00000000       0.00000000       0.00000000      693        3        0        0        0
W        7.75159743      12.51655104      18.12224597      32.06000001       0.00000000       0.00000000       0.00000000      694        3        0        0        0
W       30.31480267      43.99870271      18.08572116      32.06000001       0.00000000       0.00000000       0.00000000      695        3        0        0        0
W       33.02778311      42.32392010      18.06865691      32.06000001       0.00000000       0.00000000       0.00000000      696        3        0        0        0
W       35.74857153      40.65478311      18.04847820      32.06000001       0.00000000       0.00000000       0.00000000      697        3        0        0        0
W       38.47822823      38.99168887      18.02978959      32.06000001       0.00000000       0.00000000       0.00000000      698        3        0        0        0
W       41.21682834      37.33418476      18.01562818      32.06000001       0.00000000       0.00000000       0.00000000      699        3        0        0        0
W       43.96346829      35.68115225      18.00669990      32.06000001       0.00000000       0.00000000       0.00000000      700        3        0        0        0
W       46.71653560      34.03108944      18.00183616      32.06000001       0.00000000       0.00000000       0.00000000      701        3        0        0        0
W       49.47406316      32.38238884      17.99919593      32.06000001       0.00000000       0.00000000       0.00000000      702        3        0        0        0
W       52.23398039      30.73349950      17.99742076      32.06000001       0.00000000       0.00000000       0.00000000      703        3        0        0        0
W       54.99419290      29.08296093      17.99628878      32.06000001       0.00000000       0.00000000       0.00000000      704        3        0        0        0
W       57.75257390      27.42942723      17.99679091      32.06000001       0.00000000       0.00000000       0.00000000      705        3        0        0        0
W       60.50699499      25.77166137      18.00068818      32.06000001       0.00000000       0.00000000       0.00000000      706        3        0        0        0
W       63.25546781      24.10854219      18.00966161      32.06000001       0.00000000       0.00000000       0.00000000      707        3        0        0        0
W       65.99644275      22.43921554      18.02430716      32.06000001       0.00000000       0.00000000       0.00000000      708        3        0        0        0
W       68.72921060      20.76341498      18.04337487      32.06000001       0.00000000       0.00000000       0.00000000      709        3        0        0        0
W       71.45420148      19.08183674      18.06365003      32.06000001       0.00000000       0.00000000       0.00000000      710        3        0        0        0
W       74.17294823      17.39635047      18.08059346      32.06000001       0.00000000       0.00000000       0.00000000      711        3        0        0        0
W       76.88761933      15.70982231      18.08972003      32.06000001       0.00000000       0.00000000       0.00000000      712        3        0        0        0
W       30.40489469      47.19308560      18.12622164      32.06000001       0.00000000       0.00000000       0.00000000      713        3        0        0        0
W       33.11295775      45.51393521      18.11177120      32.06000001       0.00000000       0.00000000       0.00000000      714        3        0        0        0
W       35.82764313      43.83953273      18.09070647      32.06000001       0.00000000       0.00000000       0.00000000      715        3        0        0        0
W       38.55047949      42.17073889      18.06757100      32.06000001       0.00000000       0.00000000       0.00000000      716        3        0        0        0
W       41.28226643      40.50765317      18.04650445      32.06000001       0.00000000       0.00000000       0.00000000      717        3        0        0        0
W       44.02280731      38.84970605      18.02984242      32.06000001       0.00000000       0.00000000       0.00000000      718        3        0        0        0
W       46.77097465      37.19583866      18.01776518      32.06000001       0.00000000       0.00000000       0.00000000      719        3        0        0        0
W       49.52500110      35.54473693      18.00898147      32.06000001       0.00000000       0.00000000       0.00000000      720        3        0        0        0
W       52.28280925      33.89500776      18.00190471      32.06000001       0.00000000       0.00000000       0.00000000      721        3        0        0        0
W       55.04225019      32.24525207      17.99567008      32.06000001       0.00000000       0.00000000       0.00000000      722        3        0        0        0
W       57.80119247      30.59409752      17.99061148      32.06000001       0.00000000       0.00000000       0.00000000      723        3        0        0        0
W       60.55752467      28.94018658      17.98817136      32.06000001       0.00000000       0.00000000       0.00000000      724        3        0        0        0
W       63.30919619      27.28214799      17.99028914      32.06000001       0.00000000       0.00000000       0.00000000      725        3        0        0        0
W       66.05438562      25.61868735      17.99842650      32.06000001       0.00000000       0.00000000       0.00000000      726        3        0        0        0
W       68.79183664      23.94889263      18.01250307      32.06000001       0.00000000       0.00000000       0.00000000      727        3        0        0        0
W       71.52126579      22.27269703      18.03027046      32.06000001       0.00000000       0.00000000       0.00000000      728        3        0        0        0
W       74.24358520      20.59125945      18.04756402      32.06000001       0.00000000       0.00000000       0.00000000      729        3        0        0        0
W       76.96070803      18.90701150      18.05943454      32.06000001       0.00000000       0.00000000       0.00000000      730        3        0        0        0
W       10.62126142      17.22325491      18.06199654      32.06000001       0.00000000       0.00000000       0.00000000      731        3        0        0        0
W       33.20891271      48.70306279      18.15273871      32.06000001       0.00000000       0.00000000       0.00000000      732        3        0        0        0
W       35.91836918      47.02404959      18.13324071      32.06000001       0.00000000       0.00000000       0.00000000      733        3        0        0        0
W       38.63466489      45.35004005      18.10790676      32.06000001       0.00000000       0.00000000       0.00000000      734        3        0        0        0
W       41.35913062      43.68164043      18.08113367      32.06000001       0.00000000       0.00000000       0.00000000      735        3        0        0        0
W       44.09232952      42.01884055      18.05661386      32.06000001       0.00000000       0.00000000       0.00000000      736        3        0        0        0
W       46.83382177      40.36109010      18.03624759      32.06000001       0.00000000       0.00000000       0.00000000      737        3        0        0        0
W       49.58229361      38.70745914      18.02007140      32.06000001       0.00000000       0.00000000       0.00000000      738        3        0        0        0
W       52.33586463      37.05677619      18.00700241      32.06000001       0.00000000       0.00000000       0.00000000      739        3        0        0        0
W       55.09240617      35.40771571      17.99591315      32.06000001       0.00000000       0.00000000       0.00000000      740        3        0        0        0
W       57.84976823      33.75886937      17.98646808      32.06000001       0.00000000       0.00000000       0.00000000      741        3        0        0        0
W       60.60586119      32.10876227      17.97943595      32.06000001       0.00000000       0.00000000       0.00000000      742        3        0        0        0
W       63.35864955      30.45581759      17.97643870      32.06000001       0.00000000       0.00000000       0.00000000      743        3        0        0        0
W       66.10621136      28.79840503      17.97920848      32.06000001       0.00000000       0.00000000       0.00000000      744        3        0        0        0
W       68.84695781      27.13508371      17.98851895      32.06000001       0.00000000       0.00000000       0.00000000      745        3        0        0        0
W       71.58001895      25.46506188      18.00318211      32.06000001       0.00000000       0.00000000       0.00000000      746        3        0        0        0
W       74.30562405      23.78871394      18.01979006      32.06000001       0.00000000       0.00000000       0.00000000      747        3        0        0        0
W       77.02518368      22.10784440      18.03347932      32.06000001       0.00000000       0.00000000       0.00000000      748        3        0        0        0
W       79.74092408      20.42550660      18.03957835      32.06000001       0.00000000       0.00000000       0.00000000      749        3        0        0        0
W       33.31333289      51.89158638      18.18682841      32.06000001       0.00000000       0.00000000       0.00000000      750        3        0        0        0
W       36.01895951      50.20872981      18.17102129      32.06000001       0.00000000       0.00000000       0.00000000      751        3        0        0        0
W       38.72984264      48.53017121      18.14628471      32.06000001       0.00000000       0.00000000       0.00000000      752        3        0        0        0
W       41.44745506      46.85690616      18.11627412      32.06000001       0.00000000       0.00000000       0.00000000      753        3        0        0        0
W       44.17294118      45.18947002      18.08528797      32.06000001       0.00000000       0.00000000       0.00000000      754        3        0        0        0
W       46.90664329      43.52787325      18.05683177      32.06000001       0.00000000       0.00000000       0.00000000      755        3        0        0        0
W       49.64791232      41.87163556      18.03268917      32.06000001       0.00000000       0.00000000       0.00000000      756        3        0        0        0
W       52.39530843      40.21987103      18.01297579      32.06000001       0.00000000       0.00000000       0.00000000      757        3        0        0        0
W       55.14692216      38.57136589      17.99689437      32.06000001       0.00000000       0.00000000       0.00000000      758        3        0        0        0
W       57.90067111      36.92467246      17.98370331      32.06000001       0.00000000       0.00000000       0.00000000      759        3        0        0        0
W       60.65449100      35.27818821      17.97340261      32.06000001       0.00000000       0.00000000       0.00000000      760        3        0        0        0
W       63.40638636      33.63015768      17.96691587      32.06000001       0.00000000       0.00000000       0.00000000      761        3        0        0        0
W       66.15442868      31.97869548      17.96570682      32.06000001       0.00000000       0.00000000       0.00000000      762        3        0        0        0
W       68.89686562      30.32195905      17.97093297      32.06000001       0.00000000       0.00000000       0.00000000      763        3        0        0        0
W       71.63241775      28.65854762      17.98234651      32.06000001       0.00000000       0.00000000       0.00000000      764        3        0        0        0
W       74.36068899      26.98806557      17.99754836      32.06000001       0.00000000       0.00000000       0.00000000      765        3        0        0        0
W       77.08245733      25.31157156      18.01222750      32.06000001       0.00000000       0.00000000       0.00000000      766        3        0        0        0
W       79.79958188      23.63162559      18.02144385      32.06000001       0.00000000       0.00000000       0.00000000      767        3        0        0        0
W       13.46078725      21.95183682      18.02163216      32.06000001       0.00000000       0.00000000       0.00000000      768        3        0        0        0
W       33.42324554      55.07960531      18.21103055      32.06000001       0.00000000       0.00000000       0.00000000      769        3        0        0        0
W       36.12665165      53.39366306      18.20027776      32.06000001       0.00000000       0.00000000       0.00000000      770        3        0        0        0
W       38.83377361      51.71137439      18.17867194      32.06000001       0.00000000       0.00000000       0.00000000      771        3        0        0        0
W       41.54591429      50.03393772      18.14855149      32.06000001       0.00000000       0.00000000       0.00000000      772        3        0        0        0
W       44.26436800      48.36229875      18.11377574      32.06000001       0.00000000       0.00000000       0.00000000      773        3        0        0        0
W       46.99009481      46.69704186      18.07881665      32.06000001       0.00000000       0.00000000       0.00000000      774        3        0        0        0
W       49.72324502      45.03820775      18.04721466      32.06000001       0.00000000       0.00000000       0.00000000      775        3        0        0        0
W       52.46303526      43.38524812      18.02068772      32.06000001       0.00000000       0.00000000       0.00000000      776        3        0        0        0
W       55.20799373      41.73710275      17.99934562      32.06000001       0.00000000       0.00000000       0.00000000      777        3        0        0        0
W       57.95628011      40.09230942      17.98252114      32.06000001       0.00000000       0.00000000       0.00000000      778        3        0        0        0
W       60.70594398      38.44913701      17.96964320      32.06000001       0.00000000       0.00000000       0.00000000      779        3        0        0        0
W       63.45505862      36.80566269      17.96080437      32.06000001       0.00000000       0.00000000       0.00000000      780        3        0        0        0
W       66.20174706      35.15981098      17.95682756      32.06000001       0.00000000       0.00000000       0.00000000      781        3        0        0        0
W       68.94420977      33.50945466      17.95877378      32.06000001       0.00000000       0.00000000       0.00000000      782        3        0        0        0
W       71.68091708      31.85272394      17.96701620      32.06000001       0.00000000       0.00000000       0.00000000      783        3        0        0        0
W       74.41097474      30.18854767      17.98022864      32.06000001       0.00000000       0.00000000       0.00000000      784        3        0        0        0
W       77.13450843      28.51720560      17.99502614      32.06000001       0.00000000       0.00000000       0.00000000      785        3        0        0        0
W       79.85282779      26.84058541      18.00671346      32.06000001       0.00000000       0.00000000       0.00000000      786        3        0        0        0
W       82.56814790      25.16196535      18.01097689      32.06000001       0.00000000       0.00000000       0.00000000      787        3        0        0        0
W       36.23831486      56.57875506      18.21889158      32.06000001       0.00000000       0.00000000       0.00000000      788        3        0        0        0
W       38.94342453      54.89352167      18.20213587      32.06000001       0.00000000       0.00000000       0.00000000      789        3        0        0        0
W       41.65194959      53.21275963      18.17481397      32.06000001       0.00000000       0.00000000       0.00000000      790        3        0        0        0
W       44.36499202      51.53761587      18.13965035      32.06000001       0.00000000       0.00000000       0.00000000      791        3        0        0        0
W       47.08366907      49.86910378      18.10102188      32.06000001       0.00000000       0.00000000       0.00000000      792        3        0        0        0
W       49.80877522      48.20781047      18.06369518      32.06000001       0.00000000       0.00000000       0.00000000      793        3        0        0        0
W       52.54033055      46.55359685      18.03106790      32.06000001       0.00000000       0.00000000       0.00000000      794        3        0        0        0
W       55.27750066      44.90559851      18.00452554      32.06000001       0.00000000       0.00000000       0.00000000      795        3        0        0        0
W       58.01887026      43.26237769      17.98395864      32.06000001       0.00000000       0.00000000       0.00000000      796        3        0        0        0
W       60.76274925      41.62210034      17.96863436      32.06000001       0.00000000       0.00000000       0.00000000      797        3        0        0        0
W       63.50737000      39.98269134      17.95796619      32.06000001       0.00000000       0.00000000       0.00000000      798        3        0        0        0
W       66.25096931      38.34192488      17.95198378      32.06000001       0.00000000       0.00000000       0.00000000      799        3        0        0        0
W       68.99180119      36.69749195      17.95129868      32.06000001       0.00000000       0.00000000       0.00000000      800        3        0        0        0
W       71.72822448      35.04719733      17.95650704      32.06000001       0.00000000       0.00000000       0.00000000      801        3        0        0        0
W       74.45899061      33.38942604      17.96720318      32.06000001       0.00000000       0.00000000       0.00000000      802        3        0        0        0
W       77.18364696      31.72372803      17.98114419      32.06000001       0.00000000       0.00000000       0.00000000      803        3        0        0        0
W       79.90285788      30.05122231      17.99433758      32.06000001       0.00000000       0.00000000       0.00000000      804        3        0        0        0
W       82.61840575      28.37462809      18.00223836      32.06000001       0.00000000       0.00000000       0.00000000      805        3        0        0        0
W       16.27903192      26.69776832      18.00169985      32.06000001       0.00000000       0.00000000       0.00000000      806        3        0        0        0
W       36.35090645      59.76393882      18.22588612      32.06000001       0.00000000       0.00000000       0.00000000      807        3        0        0        0
W       39.05556000      58.07642122      18.21486058      32.06000001       0.00000000       0.00000000       0.00000000      808        3        0        0        0
W       41.76229028      56.39310555      18.19233807      32.06000001       0.00000000       0.00000000       0.00000000      809        3        0        0        0
W       44.47193855      54.71526891      18.15995295      32.06000001       0.00000000       0.00000000       0.00000000      810        3        0        0        0
W       47.18542216      53.04412882      18.12120153      32.06000001       0.00000000       0.00000000       0.00000000      811        3        0        0        0
W       49.90371017      51.38068097      18.08105692      32.06000001       0.00000000       0.00000000       0.00000000      812        3        0        0        0
W       52.62746229      49.72523521      18.04416546      32.06000001       0.00000000       0.00000000       0.00000000      813        3        0        0        0
W       55.35659328      48.07719402      18.01328892      32.06000001       0.00000000       0.00000000       0.00000000      814        3        0        0        0
W       58.09027218      46.43519173      17.98920209      32.06000001       0.00000000       0.00000000       0.00000000      815        3        0        0        0
W       60.82721874      44.79733370      17.97141798      32.06000001       0.00000000       0.00000000       0.00000000      816        3        0        0        0
W       63.56595366      43.16142213      17.95901979      32.06000001       0.00000000       0.00000000       0.00000000      817        3        0        0        0
W       66.30492115      41.52510973      17.95135454      32.06000001       0.00000000       0.00000000       0.00000000      818        3        0        0        0
W       69.04252921      39.88597472      17.94842202      32.06000001       0.00000000       0.00000000       0.00000000      819        3        0        0        0
W       71.77717382      38.24163258      17.95070751      32.06000001       0.00000000       0.00000000       0.00000000      820        3        0        0        0
W       74.50741187      36.59007256      17.95842613      32.06000001       0.00000000       0.00000000       0.00000000      821        3        0        0        0
W       77.23233810      34.93021384      17.97048885      32.06000001       0.00000000       0.00000000       0.00000000      822        3        0        0        0
W       79.95198562      33.26240312      17.98395043      32.06000001       0.00000000       0.00000000       0.00000000      823        3        0        0        0
W       82.66754141      31.58864438      17.99456005      32.06000001       0.00000000       0.00000000       0.00000000      824        3        0        0        0
W       85.38115792      29.91237225      17.99834122      32.06000001       0.00000000       0.00000000       0.00000000      825        3        0        0        0
W       41.87362245      59.57475844      18.19917551      32.06000001       0.00000000       0.00000000       0.00000000      826        3        0        0        0
W       44.58172380      57.89491373      18.17167536      32.06000001       0.00000000       0.00000000       0.00000000      827        3        0        0        0
W       47.29215995      56.22182213      18.13599130      32.06000001       0.00000000       0.00000000       0.00000000      828        3        0        0        0
W       50.00571542      54.55667458      18.09651178      32.06000001       0.00000000       0.00000000       0.00000000      829        3        0        0        0
W       52.72322745      52.90012381      18.05823770      32.06000001       0.00000000       0.00000000       0.00000000      830        3        0        0        0
W       55.44517106      51.25188964      18.02495279      32.06000001       0.00000000       0.00000000       0.00000000      831        3        0        0        0
W       58.17135003      49.61075485      17.99839679      32.06000001       0.00000000       0.00000000       0.00000000      832        3        0        0        0
W       60.90100083      47.97482295      17.97859937      32.06000001       0.00000000       0.00000000       0.00000000      833        3        0        0        0
W       63.63304347      46.34181333      17.96465133      32.06000001       0.00000000       0.00000000       0.00000000      834        3        0        0        0
W       66.36623989      44.70928820      17.95550065      32.06000001       0.00000000       0.00000000       0.00000000      835        3        0        0        0
W       69.09925156      43.07475358      17.95059266      32.06000001       0.00000000       0.00000000       0.00000000      836        3        0        0        0
W       71.83065718      41.43573087      17.95010864      32.06000001       0.00000000       0.00000000       0.00000000      837        3        0        0        0
W       74.55901915      39.78996584      17.95456176      32.06000001       0.00000000       0.00000000       0.00000000      838        3        0        0        0
W       77.28315694      38.13587673      17.96384243      32.06000001       0.00000000       0.00000000       0.00000000      839        3        0        0        0
W       80.00257518      36.47309763      17.97623081      32.06000001       0.00000000       0.00000000       0.00000000      840        3        0        0        0
W       82.71781861      34.80285852      17.98823650      32.06000001       0.00000000       0.00000000       0.00000000      841        3        0        0        0
W       85.43053866      33.12799382      17.99561555      32.06000001       0.00000000       0.00000000       0.00000000      842        3        0        0        0
W       19.08941993      31.45240524      17.99527717      32.06000001       0.00000000       0.00000000       0.00000000      843        3        0        0        0
W       47.40021764      59.40180969      18.14202531      32.06000001       0.00000000       0.00000000       0.00000000      844        3        0        0        0
W       50.11127283      57.73540228      18.10611454      32.06000001       0.00000000       0.00000000       0.00000000      845        3        0        0        0
W       52.82482163      56.07795879      18.06964864      32.06000001       0.00000000       0.00000000       0.00000000      846        3        0        0        0
W       55.54146792      54.42944608      18.03671407      32.06000001       0.00000000       0.00000000       0.00000000      847        3        0        0        0
W       58.26143023      52.78884933      18.00969650      32.06000001       0.00000000       0.00000000       0.00000000      848        3        0        0        0
W       60.98444353      51.15435087      17.98917812      32.06000001       0.00000000       0.00000000       0.00000000      849        3        0        0        0
W       63.70987310      49.52364765      17.97447527      32.06000001       0.00000000       0.00000000       0.00000000      850        3        0        0        0
W       66.43686482      47.89424333      17.96441016      32.06000001       0.00000000       0.00000000       0.00000000      851        3        0        0        0
W       69.16442166      46.26360269      17.95805856      32.06000001       0.00000000       0.00000000       0.00000000      852        3        0        0        0
W       71.89141234      44.62920316      17.95525260      32.06000001       0.00000000       0.00000000       0.00000000      853        3        0        0        0
W       74.61659636      42.98866281      17.95654855      32.06000001       0.00000000       0.00000000       0.00000000      854        3        0        0        0
W       77.33875994      41.34005045      17.96253242      32.06000001       0.00000000       0.00000000       0.00000000      855        3        0        0        0
W       80.05706880      39.68239027      17.97269858      32.06000001       0.00000000       0.00000000       0.00000000      856        3        0        0        0
W       82.77150065      38.01615462      17.98466372      32.06000001       0.00000000       0.00000000       0.00000000      857        3        0        0        0
W       85.48310406      36.34346056      17.99449444      32.06000001       0.00000000       0.00000000       0.00000000      858        3        0        0        0
W       88.19388809      34.66779720      17.99820813      32.06000001       0.00000000       0.00000000       0.00000000      859        3        0        0        0
W       52.92838412      59.25835852      18.07422034      32.06000001       0.00000000       0.00000000       0.00000000      860        3        0        0        0
W       55.64213169      57.60952302      18.04431110      32.06000001       0.00000000       0.00000000       0.00000000      861        3        0        0        0
W       58.35804130      55.96918465      18.01933047      32.06000001       0.00000000       0.00000000       0.00000000      862        3        0        0        0
W       61.07609943      54.33564715      18.00011554      32.06000001       0.00000000       0.00000000       0.00000000      863        3        0        0        0
W       63.79603276      52.70666041      17.98620861      32.06000001       0.00000000       0.00000000       0.00000000      864        3        0        0        0
W       66.51735379      51.07972012      17.97647877      32.06000001       0.00000000       0.00000000       0.00000000      865        3        0        0        0
W       69.23942583      49.45227265      17.96982083      32.06000001       0.00000000       0.00000000       0.00000000      866        3        0        0        0
W       71.96147279      47.82178354      17.96575935      32.06000001       0.00000000       0.00000000       0.00000000      867        3        0        0        0
W       74.68256465      46.18580540      17.96470809      32.06000001       0.00000000       0.00000000       0.00000000      868        3        0        0        0
W       77.40167938      44.54218959      17.96762401      32.06000001       0.00000000       0.00000000       0.00000000      869        3        0        0        0
W       80.11791021      42.88949122      17.97500917      32.06000001       0.00000000       0.00000000       0.00000000      870        3        0        0        0
W       82.83085849      41.22749446      17.98575873      32.06000001       0.00000000       0.00000000       0.00000000      871        3        0        0        0
W       85.54101293      39.55757066      17.99676959      32.06000001       0.00000000       0.00000000       0.00000000      872        3        0        0        0
W       88.24986358      37.88263284      18.00381293      32.06000001       0.00000000       0.00000000       0.00000000      873        3        0        0        0
W       21.90592112      36.20656909      18.00350745      32.06000001       0.00000000       0.00000000       0.00000000      874        3        0        0        0
W       58.45724630      59.15152447      18.02304909      32.06000001       0.00000000       0.00000000       0.00000000      875        3        0        0        0
W       61.17270825      57.51851506      18.00717178      32.06000001       0.00000000       0.00000000       0.00000000      876        3        0        0        0
W       63.88917097      55.89067435      17.99595540      32.06000001       0.00000000       0.00000000       0.00000000      877        3        0        0        0
W       66.60637304      54.26554853      17.98830097      32.06000001       0.00000000       0.00000000       0.00000000      878        3        0        0        0
W       69.32395308      52.64059694      17.98303980      32.06000001       0.00000000       0.00000000       0.00000000      879        3        0        0        0
W       72.04146286      51.01329199      17.97946696      32.06000001       0.00000000       0.00000000       0.00000000      880        3        0        0        0
W       74.75832310      49.38116055      17.97773592      32.06000001       0.00000000       0.00000000       0.00000000      881        3        0        0        0
W       77.47382044      47.74191749      17.97883555      32.06000001       0.00000000       0.00000000       0.00000000      882        3        0        0        0
W       80.18721660      46.09379183      17.98389712      32.06000001       0.00000000       0.00000000       0.00000000      883        3        0        0        0
W       82.89800496      44.43599923      17.99299431      32.06000001       0.00000000       0.00000000       0.00000000      884        3        0        0        0
W       85.60629183      42.76920027      18.00420899      32.06000001       0.00000000       0.00000000       0.00000000      885        3        0        0        0
W       88.31306150      41.09565594      18.01374259      32.06000001       0.00000000       0.00000000       0.00000000      886        3        0        0        0
W       91.02011590      39.41889382      18.01737964      32.06000001       0.00000000       0.00000000       0.00000000      887        3        0        0        0
W       63.98528117      59.07565453      17.99969583      32.06000001       0.00000000       0.00000000       0.00000000      888        3        0        0        0
W       66.70065527      57.45171210      17.99565460      32.06000001       0.00000000       0.00000000       0.00000000      889        3        0        0        0
W       69.41568183      55.82857094      17.99353808      32.06000001       0.00000000       0.00000000       0.00000000      890        3        0        0        0
W       72.13009097      54.20371804      17.99247387      32.06000001       0.00000000       0.00000000       0.00000000      891        3        0        0        0
W       74.84358258      52.57467983      17.99230953      32.06000001       0.00000000       0.00000000       0.00000000      892        3        0        0        0
W       77.55576285      50.93909134      17.99377799      32.06000001       0.00000000       0.00000000       0.00000000      893        3        0        0        0
W       80.26617898      49.29495828      17.99815799      32.06000001       0.00000000       0.00000000       0.00000000      894        3        0        0        0
W       82.97445233      47.64106962      18.00631044      32.06000001       0.00000000       0.00000000       0.00000000      895        3        0        0        0
W       85.68055395      45.97746448      18.01752264      32.06000001       0.00000000       0.00000000       0.00000000      896        3        0        0        0
W       88.38511731      44.30574740      18.02895044      32.06000001       0.00000000       0.00000000       0.00000000      897        3        0        0        0
W       91.08953107      42.62897066      18.03631623      32.06000001       0.00000000       0.00000000       0.00000000      898        3        0        0        0
W       24.74203505      40.95092973      18.03596191      32.06000001       0.00000000       0.00000000       0.00000000      899        3        0        0        0
W       69.51056575      59.01631785      17.99735567      32.06000001       0.00000000       0.00000000       0.00000000      900        3        0        0        0
W       72.22411163      57.39321837      18.00029950      32.06000001       0.00000000       0.00000000       0.00000000      901        3        0        0        0
W       74.93605884      55.76652814      18.00380474      32.06000001       0.00000000       0.00000000       0.00000000      902        3        0        0        0
W       77.64622029      54.13383711      18.00817277      32.06000001       0.00000000       0.00000000       0.00000000      903        3        0        0        0
W       80.35440879      52.49299872      18.01437155      32.06000001       0.00000000       0.00000000       0.00000000      904        3        0        0        0
W       83.06048551      50.84250169      18.02345264      32.06000001       0.00000000       0.00000000       0.00000000      905        3        0        0        0
W       85.76449604      49.18189060      18.03553763      32.06000001       0.00000000       0.00000000       0.00000000      906        3        0        0        0
W       88.46693185      47.51216215      18.04888672      32.06000001       0.00000000       0.00000000       0.00000000      907        3        0        0        0
W       91.16889944      45.83584922      18.05982620      32.06000001       0.00000000       0.00000000       0.00000000      908        3        0        0        0
W       93.87202299      44.15649529      18.06412947      32.06000001       0.00000000       0.00000000       0.00000000      909        3        0        0        0
W       75.03178953      58.95696384      18.00797028      32.06000001       0.00000000       0.00000000       0.00000000      910        3        0        0        0
W       77.74203798      57.32646113      18.01712973      32.06000001       0.00000000       0.00000000       0.00000000      911        3        0        0        0
W       80.44965348      55.68821368      18.02767162      32.06000001       0.00000000       0.00000000       0.00000000      912        3        0        0        0
W       83.15469649      54.04049533      18.04021717      32.06000001       0.00000000       0.00000000       0.00000000      913        3        0        0        0
W       85.85738713      52.38249237      18.05503623      32.06000001       0.00000000       0.00000000       0.00000000      914        3        0        0        0
W       88.55823968      50.71468695      18.07117324      32.06000001       0.00000000       0.00000000       0.00000000      915        3        0        0        0
W       91.25823795      49.03909871      18.08584331      32.06000001       0.00000000       0.00000000       0.00000000      916        3        0        0        0
W       93.95879760      47.35895444      18.09500848      32.06000001       0.00000000       0.00000000       0.00000000      917        3        0        0        0
W       27.60789277      45.67779897      18.09525962      32.06000001       0.00000000       0.00000000       0.00000000      918        3        0        0        0
W       80.54812857      58.88098621      18.03341485      32.06000001       0.00000000       0.00000000       0.00000000      919        3        0        0        0
W       83.25402470      57.23547881      18.05161551      32.06000001       0.00000000       0.00000000       0.00000000      920        3        0        0        0
W       85.95688137      55.57965141      18.07140893      32.06000001       0.00000000       0.00000000       0.00000000      921        3        0        0        0
W       88.65731297      53.91358867      18.09189611      32.06000001       0.00000000       0.00000000       0.00000000      922        3        0        0        0
W       91.35628817      52.23884224      18.11094793      32.06000001       0.00000000       0.00000000       0.00000000      923        3        0        0        0
W       94.05512589      50.55828917      18.12512836      32.06000001       0.00000000       0.00000000       0.00000000      924        3        0        0        0
W       96.75534675      48.87533806      18.13088207      32.06000001       0.00000000       0.00000000       0.00000000      925        3        0        0        0
W       86.05939141      58.77381576      18.08007984      32.06000001       0.00000000       0.00000000       0.00000000      926        3        0        0        0
W       88.76108561      57.10932992      18.10655447      32.06000001       0.00000000       0.00000000       0.00000000      927        3        0        0        0
W       91.46047472      55.43550835      18.13102735      32.06000001       0.00000000       0.00000000       0.00000000      928        3        0        0        0
W       94.15883872      53.75486413      18.15055709      32.06000001       0.00000000       0.00000000       0.00000000      929        3        0        0        0
W       96.85762217      52.07061896      18.16194161      32.06000001       0.00000000       0.00000000       0.00000000      930        3        0        0        0
W       30.50464736      50.38585929      18.16284999      32.06000001       0.00000000       0.00000000       0.00000000      931        3        0        0        0
W       91.56735577      58.62947269      18.14237782      32.06000001       0.00000000       0.00000000       0.00000000      932        3        0        0        0
W       94.26681491      56.94906383      18.16777081      32.06000001       0.00000000       0.00000000       0.00000000      933        3        0        0        0
W       96.96559603      55.26399851      18.18490310      32.06000001       0.00000000       0.00000000       0.00000000      934        3        0        0        0
W       99.66517303      53.57732009      18.19159911      32.06000001       0.00000000       0.00000000       0.00000000      935        3        0        0        0
W       97.07601974      58.45567092      18.19746865      32.06000001       0.00000000       0.00000000       0.00000000      936        3        0        0        0
W       99.77596501      56.76763900      18.21003304      32.06000001       0.00000000       0.00000000       0.00000000      937        3        0        0        0
W      102.58925278      58.26711826      18.22391798      32.06000001       0.00000000       0.00000000       0.00000000      938        3        0        0        0
S        2.70024705       1.68588531      13.01752753     183.84000005       0.00000000       0.00000000       0.00000000      939        2        0        0        0
S        2.70944711       1.69035775       9.87577218     183.84000005       0.00000000       0.00000000       0.00000000      940        2        0        0        0
S        5.50994256       0.19427495      13.02906363     183.84000005       0.00000000       0.00000000       0.00000000      941        2        0        0        0
S        5.52920886       0.19195423       9.88737450     183.84000005       0.00000000       0.00000000       0.00000000      942        2        0        0        0
S       71.64110185       4.86683728      13.02901777     183.84000005       0.00000000       0.00000000       0.00000000      943        2        0        0        0
S       71.65072153       4.88336960       9.88732511     183.84000005       0.00000000       0.00000000       0.00000000      944        2        0        0        0
S        5.39615218       3.37698038      13.03420818     183.84000005       0.00000000       0.00000000       0.00000000      945        2        0        0        0
S        5.41585916       3.38663394       9.89249682     183.84000005       0.00000000       0.00000000       0.00000000      946        2        0        0        0
S        8.20444281       1.88237694      13.05141577     183.84000005       0.00000000       0.00000000       0.00000000      947        2        0        0        0
S        8.23332532       1.88537904       9.90978302     183.84000005       0.00000000       0.00000000       0.00000000      948        2        0        0        0
S       11.01249248       0.38099136      13.07896117     183.84000005       0.00000000       0.00000000       0.00000000      949        2        0        0        0
S       11.04803621       0.37778985       9.93747560     183.84000005       0.00000000       0.00000000       0.00000000      950        2        0        0        0
S        5.28700692       6.55844329      13.05157430     183.84000005       0.00000000       0.00000000       0.00000000      951        2        0        0        0
S        5.30661924       6.57939476       9.90992954     183.84000005       0.00000000       0.00000000       0.00000000      952        2        0        0        0
S        8.09439947       5.06532658      13.06258521     183.84000005       0.00000000       0.00000000       0.00000000      953        2        0        0        0
S        8.12343511       5.07966832       9.92091533     183.84000005       0.00000000       0.00000000       0.00000000      954        2        0        0        0
S       10.90207680       3.56562978      13.08425700     183.84000005       0.00000000       0.00000000       0.00000000      955        2        0        0        0
S       10.93838004       3.57375888       9.94265356     183.84000005       0.00000000       0.00000000       0.00000000      956        2        0        0        0
S       13.71061069       2.05718226      13.11342893     183.84000005       0.00000000       0.00000000       0.00000000      957        2        0        0        0
S       13.75021394       2.05965687       9.97196646     183.84000005       0.00000000       0.00000000       0.00000000      958        2        0        0        0
S       16.52039466       0.53813195      13.14559186     183.84000005       0.00000000       0.00000000       0.00000000      959        2        0        0        0
S       16.55840288       0.53566351      10.00438585     183.84000005       0.00000000       0.00000000       0.00000000      960        2        0        0        0
S        7.99055377       8.24670861      13.08487577     183.84000005       0.00000000       0.00000000       0.00000000      961        2        0        0        0
S        8.01872798       8.27053582       9.94324962     183.84000005       0.00000000       0.00000000       0.00000000      962        2        0        0        0
S       10.79728700       6.74834765      13.10079925     183.84000005       0.00000000       0.00000000       0.00000000      963        2        0        0        0
S       10.83334237       6.76614145       9.95916184     183.84000005       0.00000000       0.00000000       0.00000000      964        2        0        0        0
S       13.60511004       5.24133478      13.12476807     183.84000005       0.00000000       0.00000000       0.00000000      965        2        0        0        0
S       13.64539741       5.25377369       9.98323359     183.84000005       0.00000000       0.00000000       0.00000000      966        2        0        0        0
S       16.41452104       3.72361630      13.15229840     183.84000005       0.00000000       0.00000000       0.00000000      967        2        0        0        0
S       16.45418668       3.73144852      10.01099850     183.84000005       0.00000000       0.00000000       0.00000000      968        2        0        0        0
S       19.22546417       2.19415646      13.17887251     183.84000005       0.00000000       0.00000000       0.00000000      969        2        0        0        0
S       19.26007460       2.19797363      10.03792015     183.84000005       0.00000000       0.00000000       0.00000000      970        2        0        0        0
S       22.03726030       0.65328851      13.20151872     183.84000005       0.00000000       0.00000000       0.00000000      971        2        0        0        0
S       22.06420442       0.65340344      10.06093326     183.84000005       0.00000000       0.00000000       0.00000000      972        2        0        0        0
S        7.89491902      11.42678755      13.11557391     183.84000005       0.00000000       0.00000000       0.00000000      973        2        0        0        0
S        7.92065757      11.45668933       9.97408367     183.84000005       0.00000000       0.00000000       0.00000000      974        2        0        0        0
S       10.70055628       9.92939761      13.12596014     183.84000005       0.00000000       0.00000000       0.00000000      975        2        0        0        0
S       10.73463140       9.95349714       9.98439671     183.84000005       0.00000000       0.00000000       0.00000000      976        2        0        0        0
S       13.50728353       8.42384517      13.14503289     183.84000005       0.00000000       0.00000000       0.00000000      977        2        0        0        0
S       13.54661813       8.44288348      10.00354703     183.84000005       0.00000000       0.00000000       0.00000000      978        2        0        0        0
S       16.31558369       6.90759122      13.16844155     183.84000005       0.00000000       0.00000000       0.00000000      979        2        0        0        0
S       16.35546845       6.92262643      10.02718170     183.84000005       0.00000000       0.00000000       0.00000000      980        2        0        0        0
S       19.12553347       5.37930538      13.19135889     183.84000005       0.00000000       0.00000000       0.00000000      981        2        0        0        0
S       19.16130928       5.39118425      10.05042627     183.84000005       0.00000000       0.00000000       0.00000000      982        2        0        0        0
S       21.93665032       3.83917701      13.21032337     183.84000005       0.00000000       0.00000000       0.00000000      983        2        0        0        0
S       21.96528475       3.84821657      10.06973056     183.84000005       0.00000000       0.00000000       0.00000000      984        2        0        0        0
S       24.74817657       2.28871608      13.22416242     183.84000005       0.00000000       0.00000000       0.00000000      985        2        0        0        0
S       24.76889359       2.29472117      10.08385873     183.84000005       0.00000000       0.00000000       0.00000000      986        2        0        0        0
S       27.55951610       0.73022959      13.23375425     183.84000005       0.00000000       0.00000000       0.00000000      987        2        0        0        0
S       27.57332094       0.73280273      10.09367449     183.84000005       0.00000000       0.00000000       0.00000000      988        2        0        0        0
S       10.61379989      13.10863327      13.15553809     183.84000005       0.00000000       0.00000000       0.00000000      989        2        0        0        0
S       10.64361768      13.13481875      10.01421533     183.84000005       0.00000000       0.00000000       0.00000000      990        2        0        0        0
S       13.41944100      11.60458536      13.16993404     183.84000005       0.00000000       0.00000000       0.00000000      991        2        0        0        0
S       13.45547586      11.62579932      10.02865358     183.84000005       0.00000000       0.00000000       0.00000000      992        2        0        0        0
S       16.22639598      10.09022416      13.18974635     183.84000005       0.00000000       0.00000000       0.00000000      993        2        0        0        0
S       16.26436163      10.10779765      10.04867836     183.84000005       0.00000000       0.00000000       0.00000000      994        2        0        0        0
S       19.03476679       8.56364336      13.20996147     183.84000005       0.00000000       0.00000000       0.00000000      995        2        0        0        0
S       19.06989271       8.57894570      10.06920542     183.84000005       0.00000000       0.00000000       0.00000000      996        2        0        0        0
S       21.84416391       7.02465559      13.22647364     183.84000005       0.00000000       0.00000000       0.00000000      997        2        0        0        0
S       21.87300292       7.03848196      10.08603178     183.84000005       0.00000000       0.00000000       0.00000000      998        2        0        0        0
S       24.65394944       5.47465478      13.23744207     183.84000005       0.00000000       0.00000000       0.00000000      999        2        0        0        0
S       24.67529629       5.48701288      10.09725140     183.84000005       0.00000000       0.00000000       0.00000000     1000        2        0        0        0
S       27.46367737       3.91604382      13.24338962     183.84000005       0.00000000       0.00000000       0.00000000     1001        2        0        0        0
S       27.47829163       3.92633660      10.10336870     183.84000005       0.00000000       0.00000000       0.00000000     1002        2        0        0        0
S       30.27340864       2.35158878      13.24621643     183.84000005       0.00000000       0.00000000       0.00000000     1003        2        0        0        0
S       30.28289987       2.35904457      10.10630207     183.84000005       0.00000000       0.00000000       0.00000000     1004        2        0        0        0
S       33.08370441       0.78403759      13.24784257     183.84000005       0.00000000       0.00000000       0.00000000     1005        2        0        0        0
S       33.08934490       0.78809904      10.10800421     183.84000005       0.00000000       0.00000000       0.00000000     1006        2        0        0        0
S       10.53794549      16.28556548      13.18495496     183.84000005       0.00000000       0.00000000       0.00000000     1007        2        0        0        0
S       10.56141793      16.31004727      10.04403577     183.84000005       0.00000000       0.00000000       0.00000000     1008        2        0        0        0
S       13.34275899      14.78284266      13.19475956     183.84000005       0.00000000       0.00000000       0.00000000     1009        2        0        0        0
S       13.37306184      14.80226169      10.05382747     183.84000005       0.00000000       0.00000000       0.00000000     1010        2        0        0        0
S       16.14851199      13.27078685      13.21118177     183.84000005       0.00000000       0.00000000       0.00000000     1011        2        0        0        0
S       16.18218970      13.28649465      10.07041885     183.84000005       0.00000000       0.00000000       0.00000000     1012        2        0        0        0
S       18.95522685      11.74670279      13.22941083     183.84000005       0.00000000       0.00000000       0.00000000     1013        2        0        0        0
S       18.98764991      11.76054807      10.08893546     183.84000005       0.00000000       0.00000000       0.00000000     1014        2        0        0        0
S       21.76251874      10.20975800      13.24480455     183.84000005       0.00000000       0.00000000       0.00000000     1015        2        0        0        0
S       21.78988945      10.22322510      10.10462247     183.84000005       0.00000000       0.00000000       0.00000000     1016        2        0        0        0
S       24.56977239       8.66098050      13.25468182     183.84000005       0.00000000       0.00000000       0.00000000     1017        2        0        0        0
S       24.59039811       8.67468848      10.11472746     183.84000005       0.00000000       0.00000000       0.00000000     1018        2        0        0        0
S       27.37661077       7.10271192      13.25886276     183.84000005       0.00000000       0.00000000       0.00000000     1019        2        0        0        0
S       27.39090119       7.11638985      10.11904332     183.84000005       0.00000000       0.00000000       0.00000000     1020        2        0        0        0
S       30.18323513       5.53785749      13.25893506     183.84000005       0.00000000       0.00000000       0.00000000     1021        2        0        0        0
S       30.19270215       5.55067882      10.11916547     183.84000005       0.00000000       0.00000000       0.00000000     1022        2        0        0        0
S       32.99043689       3.96935217      13.25690858     183.84000005       0.00000000       0.00000000       0.00000000     1023        2        0        0        0
S       32.99642060       3.98036903      10.11713892     183.84000005       0.00000000       0.00000000       0.00000000     1024        2        0        0        0
S       35.79932113       2.39998714      13.25407486     183.84000005       0.00000000       0.00000000       0.00000000     1025        2        0        0        0
S       35.80212460       2.40842779      10.11429305     183.84000005       0.00000000       0.00000000       0.00000000     1026        2        0        0        0
S       38.61093154       0.83245064      13.25047975     183.84000005       0.00000000       0.00000000       0.00000000     1027        2        0        0        0
S       38.60958788       0.83785488      10.11067427     183.84000005       0.00000000       0.00000000       0.00000000     1028        2        0        0        0
S       13.27695354      17.95768683      13.21593730     183.84000005       0.00000000       0.00000000       0.00000000     1029        2        0        0        0
S       13.29978556      17.97296307      10.07540569     183.84000005       0.00000000       0.00000000       0.00000000     1030        2        0        0        0
S       16.08188341      16.44805776      13.22881152     183.84000005       0.00000000       0.00000000       0.00000000     1031        2        0        0        0
S       16.10938237      16.45922110      10.08838248     183.84000005       0.00000000       0.00000000       0.00000000     1032        2        0        0        0
S       18.88724077      14.92717584      13.24523149     183.84000005       0.00000000       0.00000000       0.00000000     1033        2        0        0        0
S       18.91526782      14.93629414      10.10504442     183.84000005       0.00000000       0.00000000       0.00000000     1034        2        0        0        0
S       21.69258571      13.39336613      13.26033177     183.84000005       0.00000000       0.00000000       0.00000000     1035        2        0        0        0
S       21.71714242      13.40252113      10.12042030     183.84000005       0.00000000       0.00000000       0.00000000     1036        2        0        0        0
S       24.49724313      11.84703208      13.27063424     183.84000005       0.00000000       0.00000000       0.00000000     1037        2        0        0        0
S       24.51610881      11.85756019      10.13094681     183.84000005       0.00000000       0.00000000       0.00000000     1038        2        0        0        0
S       27.30078781      10.29020681      13.27507543     183.84000005       0.00000000       0.00000000       0.00000000     1039        2        0        0        0
S       27.31389509      10.30244894      10.13552007     183.84000005       0.00000000       0.00000000       0.00000000     1040        2        0        0        0
S       30.10345344       8.72577170      13.27462844     183.84000005       0.00000000       0.00000000       0.00000000     1041        2        0        0        0
S       30.11209253       8.73927484      10.13510636     183.84000005       0.00000000       0.00000000       0.00000000     1042        2        0        0        0
S       32.90617956       7.15678301      13.27107369     183.84000005       0.00000000       0.00000000       0.00000000     1043        2        0        0        0
S       32.91172453       7.17070324      10.13150827     183.84000005       0.00000000       0.00000000       0.00000000     1044        2        0        0        0
S       35.71035177       5.58618598      13.26576475     183.84000005       0.00000000       0.00000000       0.00000000     1045        2        0        0        0
S       35.71323798       5.59961292      10.12611846     183.84000005       0.00000000       0.00000000       0.00000000     1046        2        0        0        0
S       38.51739424       4.01684368      13.25894949     183.84000005       0.00000000       0.00000000       0.00000000     1047        2        0        0        0
S       38.51672388       4.02893798      10.11920050     183.84000005       0.00000000       0.00000000       0.00000000     1048        2        0        0        0
S       41.32835564       2.45164936      13.24971263     183.84000005       0.00000000       0.00000000       0.00000000     1049        2        0        0        0
S       41.32215647       2.46163534      10.10982198     183.84000005       0.00000000       0.00000000       0.00000000     1050        2        0        0        0
S       44.14353149       0.89350411      13.23648354     183.84000005       0.00000000       0.00000000       0.00000000     1051        2        0        0        0
S       44.12961155       0.90060757      10.09639455     183.84000005       0.00000000       0.00000000       0.00000000     1052        2        0        0        0
S       13.22047423      21.12848404      13.23181153     183.84000005       0.00000000       0.00000000       0.00000000     1053        2        0        0        0
S       13.23519053      21.13916157      10.09163362     183.84000005       0.00000000       0.00000000       0.00000000     1054        2        0        0        0
S       16.02503055      19.62096698      13.24080246     183.84000005       0.00000000       0.00000000       0.00000000     1055        2        0        0        0
S       16.04537864      19.62705382      10.10065990     183.84000005       0.00000000       0.00000000       0.00000000     1056        2        0        0        0
S       18.82954473      18.10363894      13.25510721     183.84000005       0.00000000       0.00000000       0.00000000     1057        2        0        0        0
S       18.85223387      18.10710027      10.11515052     183.84000005       0.00000000       0.00000000       0.00000000     1058        2        0        0        0
S       21.63347058      16.57388240      13.27006162     183.84000005       0.00000000       0.00000000       0.00000000     1059        2        0        0        0
S       21.65452413      16.57713164      10.13036079     183.84000005       0.00000000       0.00000000       0.00000000     1060        2        0        0        0
S       24.43603583      15.03128625      13.28158434     183.84000005       0.00000000       0.00000000       0.00000000     1061        2        0        0        0
S       24.45270806      15.03623535      10.14211505     183.84000005       0.00000000       0.00000000       0.00000000     1062        2        0        0        0
S       27.23665505      13.47734162      13.28769959     183.84000005       0.00000000       0.00000000       0.00000000     1063        2        0        0        0
S       27.24826798      13.48493283      10.14838127     183.84000005       0.00000000       0.00000000       0.00000000     1064        2        0        0        0
S       30.03544151      11.91469719      13.28861327     183.84000005       0.00000000       0.00000000       0.00000000     1065        2        0        0        0
S       30.04291189      11.92497550      10.14934724     183.84000005       0.00000000       0.00000000       0.00000000     1066        2        0        0        0
S       32.83333596      10.34638247      13.28568908     183.84000005       0.00000000       0.00000000       0.00000000     1067        2        0        0        0
S       32.83798611      10.35887153      10.14638301     183.84000005       0.00000000       0.00000000       0.00000000     1068        2        0        0        0
S       35.63188614       8.77538983      13.28016842     183.84000005       0.00000000       0.00000000       0.00000000     1069        2        0        0        0
S       35.63431126       8.78944775      10.14075858     183.84000005       0.00000000       0.00000000       0.00000000     1070        2        0        0        0
S       38.43284478       7.20466748      13.27232027     183.84000005       0.00000000       0.00000000       0.00000000     1071        2        0        0        0
S       38.43232051       7.21962314      10.13276232     183.84000005       0.00000000       0.00000000       0.00000000     1072        2        0        0        0
S       41.23772531       5.63726307      13.26124353     183.84000005       0.00000000       0.00000000       0.00000000     1073        2        0        0        0
S       41.23229044       5.65234514      10.12147782     183.84000005       0.00000000       0.00000000       0.00000000     1074        2        0        0        0
S       44.04735178       4.07636769      13.24529797     183.84000005       0.00000000       0.00000000       0.00000000     1075        2        0        0        0
S       44.03456827       4.09052923      10.10524787     183.84000005       0.00000000       0.00000000       0.00000000     1076        2        0        0        0
S       46.86152238       2.52499356      13.22309866     183.84000005       0.00000000       0.00000000       0.00000000     1077        2        0        0        0
S       46.83971932       2.53684713      10.08269287     183.84000005       0.00000000       0.00000000       0.00000000     1078        2        0        0        0
S       49.67911730       0.98538257      13.19461375     183.84000005       0.00000000       0.00000000       0.00000000     1079        2        0        0        0
S       49.64851355       0.99341561      10.05382850     183.84000005       0.00000000       0.00000000       0.00000000     1080        2        0        0        0
S       15.97560801      22.78913992      13.24732284     183.84000005       0.00000000       0.00000000       0.00000000     1081        2        0        0        0
S       15.98873885      22.79118579      10.10737978     183.84000005       0.00000000       0.00000000       0.00000000     1082        2        0        0        0
S       18.77984694      21.27527176      13.25898808     183.84000005       0.00000000       0.00000000       0.00000000     1083        2        0        0        0
S       18.79699606      21.27398906      10.11916858     183.84000005       0.00000000       0.00000000       0.00000000     1084        2        0        0        0
S       21.58304586      19.75009359      13.27344528     183.84000005       0.00000000       0.00000000       0.00000000     1085        2        0        0        0
S       21.60053343      19.74795414      10.13385723     183.84000005       0.00000000       0.00000000       0.00000000     1086        2        0        0        0
S       24.38433488      18.21226286      13.28628055     183.84000005       0.00000000       0.00000000       0.00000000     1087        2        0        0        0
S       24.39895992      18.21153290      10.14693524     183.84000005       0.00000000       0.00000000       0.00000000     1088        2        0        0        0
S       27.18292591      16.66255721      13.29466217     183.84000005       0.00000000       0.00000000       0.00000000     1089        2        0        0        0
S       27.19327910      16.66461763      10.15549881     183.84000005       0.00000000       0.00000000       0.00000000     1090        2        0        0        0
S       29.97866113      15.10321200      13.29796095     183.84000005       0.00000000       0.00000000       0.00000000     1091        2        0        0        0
S       29.98510805      15.10849340      10.15888760     183.84000005       0.00000000       0.00000000       0.00000000     1092        2        0        0        0
S       32.77229815      13.53709619      13.29704459     183.84000005       0.00000000       0.00000000       0.00000000     1093        2        0        0        0
S       32.77598599      13.54544055      10.15796635     183.84000005       0.00000000       0.00000000       0.00000000     1094        2        0        0        0
S       35.56536000      11.96713376      13.29301347     183.84000005       0.00000000       0.00000000       0.00000000     1095        2        0        0        0
S       35.56703477      11.97822645      10.15385049     183.84000005       0.00000000       0.00000000       0.00000000     1096        2        0        0        0
S       38.35978210      10.39622085      13.28615842     183.84000005       0.00000000       0.00000000       0.00000000     1097        2        0        0        0
S       38.35899594      10.40980427      10.14684846     183.84000005       0.00000000       0.00000000       0.00000000     1098        2        0        0        0
S       41.15746095       8.82738192      13.27555216     183.84000005       0.00000000       0.00000000       0.00000000     1099        2        0        0        0
S       41.15243450       8.84317629      10.13601724     183.84000005       0.00000000       0.00000000       0.00000000     1100        2        0        0        0
S       43.95977587       7.26391877      13.25933335     183.84000005       0.00000000       0.00000000       0.00000000     1101        2        0        0        0
S       43.94798381       7.28131930      10.11946901     183.84000005       0.00000000       0.00000000       0.00000000     1102        2        0        0        0
S       46.76713597       5.70922295      13.23569788     183.84000005       0.00000000       0.00000000       0.00000000     1103        2        0        0        0
S       46.74654375       5.72698371      10.09539893     183.84000005       0.00000000       0.00000000       0.00000000     1104        2        0        0        0
S       49.57883643       4.16612310      13.20425069     183.84000005       0.00000000       0.00000000       0.00000000     1105        2        0        0        0
S       49.54925112       4.18236676      10.06346136     183.84000005       0.00000000       0.00000000       0.00000000     1106        2        0        0        0
S       52.39352217       2.63613819      13.16685881     183.84000005       0.00000000       0.00000000       0.00000000     1107        2        0        0        0
S       52.35718623       2.64880252      10.02564647     183.84000005       0.00000000       0.00000000       0.00000000     1108        2        0        0        0
S       55.20991924       1.11900926      13.12741992     183.84000005       0.00000000       0.00000000       0.00000000     1109        2        0        0        0
S       55.17092209       1.12644859       9.98598150     183.84000005       0.00000000       0.00000000       0.00000000     1110        2        0        0        0
S       15.93097624      25.95302744      13.24971160     183.84000005       0.00000000       0.00000000       0.00000000     1111        2        0        0        0
S       15.93738386      25.95268469      10.10988605     183.84000005       0.00000000       0.00000000       0.00000000     1112        2        0        0        0
S       18.73547485      24.44214394      13.25820980     183.84000005       0.00000000       0.00000000       0.00000000     1113        2        0        0        0
S       18.74728542      24.43779955      10.11843978     183.84000005       0.00000000       0.00000000       0.00000000     1114        2        0        0        0
S       21.53865104      22.92165785      13.27159001     183.84000005       0.00000000       0.00000000       0.00000000     1115        2        0        0        0
S       21.55279080      22.91564063      10.13201083     183.84000005       0.00000000       0.00000000       0.00000000     1116        2        0        0        0
S       24.33955541      21.38922360      13.28541229     183.84000005       0.00000000       0.00000000       0.00000000     1117        2        0        0        0
S       24.35253469      21.38401019      10.14608038     183.84000005       0.00000000       0.00000000       0.00000000     1118        2        0        0        0
S       27.13721726      19.84477692      13.29607020     183.84000005       0.00000000       0.00000000       0.00000000     1119        2        0        0        0
S       27.14683316      19.84207115      10.15695521     183.84000005       0.00000000       0.00000000       0.00000000     1120        2        0        0        0
S       29.93114092      18.29001031      13.30203133     183.84000005       0.00000000       0.00000000       0.00000000     1121        2        0        0        0
S       29.93701803      18.29048202      10.16305194     183.84000005       0.00000000       0.00000000       0.00000000     1122        2        0        0        0
S       32.72173030      16.72753722      13.30359208     183.84000005       0.00000000       0.00000000       0.00000000     1123        2        0        0        0
S       32.72466897      16.73115263      10.16465749     183.84000005       0.00000000       0.00000000       0.00000000     1124        2        0        0        0
S       35.51029227      15.16016696      13.30172731     183.84000005       0.00000000       0.00000000       0.00000000     1125        2        0        0        0
S       35.51112149      15.16672053      10.16275126     183.84000005       0.00000000       0.00000000       0.00000000     1126        2        0        0        0
S       38.29873149      13.59065988      13.29688042     183.84000005       0.00000000       0.00000000       0.00000000     1127        2        0        0        0
S       38.29735105      13.60015064      10.15778848     183.84000005       0.00000000       0.00000000       0.00000000     1128        2        0        0        0
S       41.08914833      12.02186040      13.28827893     183.84000005       0.00000000       0.00000000       0.00000000     1129        2        0        0        0
S       41.08414826      12.03453593      10.14898550     183.84000005       0.00000000       0.00000000       0.00000000     1130        2        0        0        0
S       43.88336553      10.45691163      13.27397646     183.84000005       0.00000000       0.00000000       0.00000000     1131        2        0        0        0
S       43.87237513      10.47297139      10.13436467     183.84000005       0.00000000       0.00000000       0.00000000     1132        2        0        0        0
S       46.68243566       8.89928496      13.25168380     183.84000005       0.00000000       0.00000000       0.00000000     1133        2        0        0        0
S       46.66321232       8.91835588      10.11162349     183.84000005       0.00000000       0.00000000       0.00000000     1134        2        0        0        0
S       49.48631933       7.35229706      13.22025457     183.84000005       0.00000000       0.00000000       0.00000000     1135        2        0        0        0
S       49.45821111       7.37304158      10.07963990     183.84000005       0.00000000       0.00000000       0.00000000     1136        2        0        0        0
S       52.29410301       5.81825126      13.18095878     183.84000005       0.00000000       0.00000000       0.00000000     1137        2        0        0        0
S       52.25896058       5.83848389      10.03980134     183.84000005       0.00000000       0.00000000       0.00000000     1138        2        0        0        0
S       55.10468389       4.29768719      13.13764925     183.84000005       0.00000000       0.00000000       0.00000000     1139        2        0        0        0
S       55.06652487       4.31499198       9.99614355     183.84000005       0.00000000       0.00000000       0.00000000     1140        2        0        0        0
S       57.91728519       2.78917954      13.09572625     183.84000005       0.00000000       0.00000000       0.00000000     1141        2        0        0        0
S       57.88089469       2.80163817       9.95411872     183.84000005       0.00000000       0.00000000       0.00000000     1142        2        0        0        0
S       60.73143031       1.28987651      13.06038763     183.84000005       0.00000000       0.00000000       0.00000000     1143        2        0        0        0
S       60.70082340       1.29641063       9.91876665     183.84000005       0.00000000       0.00000000       0.00000000     1144        2        0        0        0
S       18.69379406      27.60502060      13.25445298     183.84000005       0.00000000       0.00000000       0.00000000     1145        2        0        0        0
S       18.70046259      27.59920982      10.11467381     183.84000005       0.00000000       0.00000000       0.00000000     1146        2        0        0        0
S       21.49759406      26.08901319      13.26605853     183.84000005       0.00000000       0.00000000       0.00000000     1147        2        0        0        0
S       21.50845664      26.08058649      10.12641337     183.84000005       0.00000000       0.00000000       0.00000000     1148        2        0        0        0
S       24.29894358      24.56227198      13.28033621     183.84000005       0.00000000       0.00000000       0.00000000     1149        2        0        0        0
S       24.31050544      24.55384482      10.14092605     183.84000005       0.00000000       0.00000000       0.00000000     1150        2        0        0        0
S       27.09674618      23.02376181      13.29304278     183.84000005       0.00000000       0.00000000       0.00000000     1151        2        0        0        0
S       27.10605742      23.01739680      10.15387732     183.84000005       0.00000000       0.00000000       0.00000000     1152        2        0        0        0
S       29.89017482      21.47450262      13.30162554     183.84000005       0.00000000       0.00000000       0.00000000     1153        2        0        0        0
S       29.89595857      21.47113194      10.16264458     183.84000005       0.00000000       0.00000000       0.00000000     1154        2        0        0        0
S       32.67918842      19.91678459      13.30563574     183.84000005       0.00000000       0.00000000       0.00000000     1155        2        0        0        0
S       32.68168571      19.91639000      10.16674979     183.84000005       0.00000000       0.00000000       0.00000000     1156        2        0        0        0
S       35.46471834      18.35330172      13.30585255     183.84000005       0.00000000       0.00000000       0.00000000     1157        2        0        0        0
S       35.46470081      18.35553488      10.16697261     183.84000005       0.00000000       0.00000000       0.00000000     1158        2        0        0        0
S       38.24845769      16.78670228      13.30297573     183.84000005       0.00000000       0.00000000       0.00000000     1159        2        0        0        0
S       38.24616982      16.79146556      10.16402142     183.84000005       0.00000000       0.00000000       0.00000000     1160        2        0        0        0
S       41.03248297      15.21960306      13.29665657     183.84000005       0.00000000       0.00000000       0.00000000     1161        2        0        0        0
S       41.02703569      15.22731752      10.15754378     183.84000005       0.00000000       0.00000000       0.00000000     1162        2        0        0        0
S       43.81884198      13.65481935      13.28523463     183.84000005       0.00000000       0.00000000       0.00000000     1163        2        0        0        0
S       43.80829950      13.66630565      10.14584926     183.84000005       0.00000000       0.00000000       0.00000000     1164        2        0        0        0
S       46.60910305      12.09554859      13.26625513     183.84000005       0.00000000       0.00000000       0.00000000     1165        2        0        0        0
S       46.59130394      12.11151052      10.12646190     183.84000005       0.00000000       0.00000000       0.00000000     1166        2        0        0        0
S       49.40394872      10.54519944      13.23781300     183.84000005       0.00000000       0.00000000       0.00000000     1167        2        0        0        0
S       49.37788065      10.56552359      10.09748262     183.84000005       0.00000000       0.00000000       0.00000000     1168        2        0        0        0
S       52.20316540       9.00668923      13.20012690     183.84000005       0.00000000       0.00000000       0.00000000     1169        2        0        0        0
S       52.17010847       9.03003598      10.05919464     183.84000005       0.00000000       0.00000000       0.00000000     1170        2        0        0        0
S       55.00613419       7.48153041      13.15623094     183.84000005       0.00000000       0.00000000       0.00000000     1171        2        0        0        0
S       54.96968759       7.50554383      10.01481972     183.84000005       0.00000000       0.00000000       0.00000000     1172        2        0        0        0
S       57.81234841       5.96926988      13.11134480     183.84000005       0.00000000       0.00000000       0.00000000     1173        2        0        0        0
S       57.77721993       5.99129009       9.96972356     183.84000005       0.00000000       0.00000000       0.00000000     1174        2        0        0        0
S       60.62142587       4.46765743      13.07121706     183.84000005       0.00000000       0.00000000       0.00000000     1175        2        0        0        0
S       60.59181077       4.48549181       9.92955297     183.84000005       0.00000000       0.00000000       0.00000000     1176        2        0        0        0
S       63.43281545       2.97352277      13.04020212     183.84000005       0.00000000       0.00000000       0.00000000     1177        2        0        0        0
S       63.41141245       2.98575117       9.89850300     183.84000005       0.00000000       0.00000000       0.00000000     1178        2        0        0        0
S       66.24557664       1.48357452      13.02058133     183.84000005       0.00000000       0.00000000       0.00000000     1179        2        0        0        0
S       66.23369173       1.48939397       9.87883608     183.84000005       0.00000000       0.00000000       0.00000000     1180        2        0        0        0
S       18.65235882      30.76502664      13.24911475     183.84000005       0.00000000       0.00000000       0.00000000     1181        2        0        0        0
S       18.65378300      30.75886238      10.10929581     183.84000005       0.00000000       0.00000000       0.00000000     1182        2        0        0        0
S       21.45736588      29.25302402      13.25809002     183.84000005       0.00000000       0.00000000       0.00000000     1183        2        0        0        0
S       21.46455272      29.24313498      10.11833917     183.84000005       0.00000000       0.00000000       0.00000000     1184        2        0        0        0
S       24.25986954      27.73202050      13.27206921     183.84000005       0.00000000       0.00000000       0.00000000     1185        2        0        0        0
S       24.26971340      27.72104861      10.13252074     183.84000005       0.00000000       0.00000000       0.00000000     1186        2        0        0        0
S       27.05873261      26.19990366      13.28646459     183.84000005       0.00000000       0.00000000       0.00000000     1187        2        0        0        0
S       27.06774494      26.19036221      10.14717326     183.84000005       0.00000000       0.00000000       0.00000000     1188        2        0        0        0
S       29.85286641      24.65684617      13.29763827     183.84000005       0.00000000       0.00000000       0.00000000     1189        2        0        0        0
S       29.85878809      24.65014637      10.15857359     183.84000005       0.00000000       0.00000000       0.00000000     1190        2        0        0        0
S       32.64175980      23.10468816      13.30409729     183.84000005       0.00000000       0.00000000       0.00000000     1191        2        0        0        0
S       32.64403780      23.10098468      10.16517537     183.84000005       0.00000000       0.00000000       0.00000000     1192        2        0        0        0
S       35.42585684      21.54600529      13.30616390     183.84000005       0.00000000       0.00000000       0.00000000     1193        2        0        0        0
S       35.42500089      21.54475301      10.16729154     183.84000005       0.00000000       0.00000000       0.00000000     1194        2        0        0        0
S       38.20650196      19.98341192      13.30474214     183.84000005       0.00000000       0.00000000       0.00000000     1195        2        0        0        0
S       38.20301650      19.98414446      10.16583497     183.84000005       0.00000000       0.00000000       0.00000000     1196        2        0        0        0
S       40.98559163      18.41937654      13.30008791     183.84000005       0.00000000       0.00000000       0.00000000     1197        2        0        0        0
S       40.97917571      18.42224719      10.16106453     183.84000005       0.00000000       0.00000000       0.00000000     1198        2        0        0        0
S       43.76517150      16.85638271      13.29121096     183.84000005       0.00000000       0.00000000       0.00000000     1199        2        0        0        0
S       43.75455230      16.86230851      10.15197120     183.84000005       0.00000000       0.00000000       0.00000000     1200        2        0        0        0
S       46.54708737      15.29716940      13.27603457     183.84000005       0.00000000       0.00000000       0.00000000     1201        2        0        0        0
S       46.53052931      15.30754129      10.13645493     183.84000005       0.00000000       0.00000000       0.00000000     1202        2        0        0        0
S       49.33262268      13.74482103      13.25234938     183.84000005       0.00000000       0.00000000       0.00000000     1203        2        0        0        0
S       49.30902655      13.76078382      10.11230029     183.84000005       0.00000000       0.00000000       0.00000000     1204        2        0        0        0
S       52.12233209      12.20241023      13.21933291     183.84000005       0.00000000       0.00000000       0.00000000     1205        2        0        0        0
S       52.09240350      12.22406306      10.07871279     183.84000005       0.00000000       0.00000000       0.00000000     1206        2        0        0        0
S       54.91629698      10.67220424      13.17869280     183.84000005       0.00000000       0.00000000       0.00000000     1207        2        0        0        0
S       54.88291744      10.69822131      10.03752608     183.84000005       0.00000000       0.00000000       0.00000000     1208        2        0        0        0
S       57.71455407       9.15487432      13.13459726     183.84000005       0.00000000       0.00000000       0.00000000     1209        2        0        0        0
S       57.68192265       9.18278871       9.99309065     183.84000005       0.00000000       0.00000000       0.00000000     1210        2        0        0        0
S       60.51710190       7.64926568      13.09244575     183.84000005       0.00000000       0.00000000       0.00000000     1211        2        0        0        0
S       60.48926240       7.67618283       9.95083528     183.84000005       0.00000000       0.00000000       0.00000000     1212        2        0        0        0
S       63.32348645       6.15282859      13.05716044     183.84000005       0.00000000       0.00000000       0.00000000     1213        2        0        0        0
S       63.30330415       6.17616349       9.91552170     183.84000005       0.00000000       0.00000000       0.00000000     1214        2        0        0        0
S       66.13267941       4.66232606      13.03197652     183.84000005       0.00000000       0.00000000       0.00000000     1215        2        0        0        0
S       66.12170406       4.68021371       9.89028742     183.84000005       0.00000000       0.00000000       0.00000000     1216        2        0        0        0
S       68.94329675       3.17438288      13.01852887     183.84000005       0.00000000       0.00000000       0.00000000     1217        2        0        0        0
S       68.94225211       3.18575326       9.87678795     183.84000005       0.00000000       0.00000000       0.00000000     1218        2        0        0        0
S       21.41558241      32.41472314      13.24837167     183.84000005       0.00000000       0.00000000       0.00000000     1219        2        0        0        0
S       21.41811532      32.40377786      10.10849353     183.84000005       0.00000000       0.00000000       0.00000000     1220        2        0        0        0
S       24.21984915      30.89926415      13.26094574     183.84000005       0.00000000       0.00000000       0.00000000     1221        2        0        0        0
S       24.22695287      30.88576233      10.12121377     183.84000005       0.00000000       0.00000000       0.00000000     1222        2        0        0        0
S       27.02050726      29.37383671      13.27638268     183.84000005       0.00000000       0.00000000       0.00000000     1223        2        0        0        0
S       27.02855373      29.36072687      10.13689840     183.84000005       0.00000000       0.00000000       0.00000000     1224        2        0        0        0
S       29.81633768      27.83757489      13.29010021     183.84000005       0.00000000       0.00000000       0.00000000     1225        2        0        0        0
S       29.82217293      27.82701538      10.15087044     183.84000005       0.00000000       0.00000000       0.00000000     1226        2        0        0        0
S       32.60640751      26.29165606      13.29927981     183.84000005       0.00000000       0.00000000       0.00000000     1227        2        0        0        0
S       32.60848993      26.28436220      10.16024083     183.84000005       0.00000000       0.00000000       0.00000000     1228        2        0        0        0
S       35.39060501      24.73843537      13.30335108     183.84000005       0.00000000       0.00000000       0.00000000     1229        2        0        0        0
S       35.38891198      24.73393776      10.16440544     183.84000005       0.00000000       0.00000000       0.00000000     1230        2        0        0        0
S       38.16980365      23.18055195      13.30311757     183.84000005       0.00000000       0.00000000       0.00000000     1231        2        0        0        0
S       38.16492806      23.17801626      10.16417181     183.84000005       0.00000000       0.00000000       0.00000000     1232        2        0        0        0
S       40.94561517      21.62045656      13.29940808     183.84000005       0.00000000       0.00000000       0.00000000     1233        2        0        0        0
S       40.93781461      21.61949830      10.16038140     183.84000005       0.00000000       0.00000000       0.00000000     1234        2        0        0        0
S       43.71996921      20.06042688      13.29212390     183.84000005       0.00000000       0.00000000       0.00000000     1235        2        0        0        0
S       43.70874583      20.06155397      10.15293167     183.84000005       0.00000000       0.00000000       0.00000000     1236        2        0        0        0
S       46.49477526      18.50277558      13.28003609     183.84000005       0.00000000       0.00000000       0.00000000     1237        2        0        0        0
S       46.47909112      18.50739576      10.14057710     183.84000005       0.00000000       0.00000000       0.00000000     1238        2        0        0        0
S       49.27168340      16.95006372      13.26129104     183.84000005       0.00000000       0.00000000       0.00000000     1239        2        0        0        0
S       49.25070026      16.96001262      10.12145290     183.84000005       0.00000000       0.00000000       0.00000000     1240        2        0        0        0
S       52.05189883      15.40507373      13.23454559     183.84000005       0.00000000       0.00000000       0.00000000     1241        2        0        0        0
S       52.02595775      15.42176203      10.09422502     183.84000005       0.00000000       0.00000000       0.00000000     1242        2        0        0        0
S       54.83624971      13.87034253      13.20019819     183.84000005       0.00000000       0.00000000       0.00000000     1243        2        0        0        0
S       54.80741196      13.89394304      10.05936090     183.84000005       0.00000000       0.00000000       0.00000000     1244        2        0        0        0
S       57.62544652      12.34741085      13.16086543     183.84000005       0.00000000       0.00000000       0.00000000     1245        2        0        0        0
S       57.59704770      12.37656992      10.01961057     183.84000005       0.00000000       0.00000000       0.00000000     1246        2        0        0        0
S       60.42010679      10.83632977      13.12070051     183.84000005       0.00000000       0.00000000       0.00000000     1247        2        0        0        0
S       60.39558359      10.86845887       9.97923275     183.84000005       0.00000000       0.00000000       0.00000000     1248        2        0        0        0
S       63.22024903       9.33569620      13.08416863     183.84000005       0.00000000       0.00000000       0.00000000     1249        2        0        0        0
S       63.20225043       9.36758291       9.94265948     183.84000005       0.00000000       0.00000000       0.00000000     1250        2        0        0        0
S       66.02488139       7.84286533      13.05510512     183.84000005       0.00000000       0.00000000       0.00000000     1251        2        0        0        0
S       66.01514958       7.87148037       9.91356824     183.84000005       0.00000000       0.00000000       0.00000000     1252        2        0        0        0
S       68.83237757       6.35442481      13.03619761     183.84000005       0.00000000       0.00000000       0.00000000     1253        2        0        0        0
S       68.83200109       6.37756998       9.89458304     183.84000005       0.00000000       0.00000000       0.00000000     1254        2        0        0        0
S       21.36984721      35.57525291      13.23711743     183.84000005       0.00000000       0.00000000       0.00000000     1255        2        0        0        0
S       21.36632848      35.56329029      10.09709432     183.84000005       0.00000000       0.00000000       0.00000000     1256        2        0        0        0
S       24.17639227      34.06480468      13.24677637     183.84000005       0.00000000       0.00000000       0.00000000     1257        2        0        0        0
S       24.17906504      34.04849363      10.10681830     183.84000005       0.00000000       0.00000000       0.00000000     1258        2        0        0        0
S       26.97943083      32.54615559      13.26207043     183.84000005       0.00000000       0.00000000       0.00000000     1259        2        0        0        0
S       26.98509270      32.52857740      10.12231712     183.84000005       0.00000000       0.00000000       0.00000000     1260        2        0        0        0
S       29.77771904      31.01721604      13.27796725     183.84000005       0.00000000       0.00000000       0.00000000     1261        2        0        0        0
S       29.78265264      31.00138603      10.13847797     183.84000005       0.00000000       0.00000000       0.00000000     1262        2        0        0        0
S       32.57003502      29.47822728      13.29027233     183.84000005       0.00000000       0.00000000       0.00000000     1263        2        0        0        0
S       32.57166808      29.46587118      10.15101757     183.84000005       0.00000000       0.00000000       0.00000000     1264        2        0        0        0
S       35.35571299      27.93109768      13.29704906     183.84000005       0.00000000       0.00000000       0.00000000     1265        2        0        0        0
S       35.35321227      27.92235384      10.15794395     183.84000005       0.00000000       0.00000000       0.00000000     1266        2        0        0        0
S       38.13505396      26.37843106      13.29847001     183.84000005       0.00000000       0.00000000       0.00000000     1267        2        0        0        0
S       38.12881762      26.37244732      10.15940997     183.84000005       0.00000000       0.00000000       0.00000000     1268        2        0        0        0
S       40.90927296      24.82276484      13.29562125     183.84000005       0.00000000       0.00000000       0.00000000     1269        2        0        0        0
S       40.89997073      24.81866026      10.15651119     183.84000005       0.00000000       0.00000000       0.00000000     1270        2        0        0        0
S       43.68011916      23.26633736      13.28926009     183.84000005       0.00000000       0.00000000       0.00000000     1271        2        0        0        0
S       43.66801525      23.26394776      10.15002332     183.84000005       0.00000000       0.00000000       0.00000000     1272        2        0        0        0
S       46.44948357      21.71120536      13.27922657     183.84000005       0.00000000       0.00000000       0.00000000     1273        2        0        0        0
S       46.43435731      21.71139245      10.13978928     183.84000005       0.00000000       0.00000000       0.00000000     1274        2        0        0        0
S       49.21918257      20.15945715      13.26454258     183.84000005       0.00000000       0.00000000       0.00000000     1275        2        0        0        0
S       49.20073049      20.16396265      10.12481964     183.84000005       0.00000000       0.00000000       0.00000000     1276        2        0        0        0
S       51.99085405      18.61338351      13.24405766     183.84000005       0.00000000       0.00000000       0.00000000     1277        2        0        0        0
S       51.96935950      18.62421855      10.10396502     183.84000005       0.00000000       0.00000000       0.00000000     1278        2        0        0        0
S       54.76595067      17.07533314      13.21740191     183.84000005       0.00000000       0.00000000       0.00000000     1279        2        0        0        0
S       54.74278730      17.09390004      10.07688986     183.84000005       0.00000000       0.00000000       0.00000000     1280        2        0        0        0
S       57.54584729      15.54723497      13.18568153     183.84000005       0.00000000       0.00000000       0.00000000     1281        2        0        0        0
S       57.52333955      15.57361709      10.04477622     183.84000005       0.00000000       0.00000000       0.00000000     1282        2        0        0        0
S       60.33180822      14.03005910      13.15138849     183.84000005       0.00000000       0.00000000       0.00000000     1283        2        0        0        0
S       60.31245801      14.06281144      10.01019074     183.84000005       0.00000000       0.00000000       0.00000000     1284        2        0        0        0
S       63.12456030      12.52361594      13.11765781     183.84000005       0.00000000       0.00000000       0.00000000     1285        2        0        0        0
S       63.11035460      12.55995176       9.97633031     183.84000005       0.00000000       0.00000000       0.00000000     1286        2        0        0        0
S       65.92362659      11.02641671      13.08781982     183.84000005       0.00000000       0.00000000       0.00000000     1287        2        0        0        0
S       65.91607610      11.06278706       9.94647264     183.84000005       0.00000000       0.00000000       0.00000000     1288        2        0        0        0
S       68.72729852       9.53559872      13.06519995     183.84000005       0.00000000       0.00000000       0.00000000     1289        2        0        0        0
S       68.72778020       9.56867992       9.92379289     183.84000005       0.00000000       0.00000000       0.00000000     1290        2        0        0        0
S       71.53352246       8.04749483      13.05255349     183.84000005       0.00000000       0.00000000       0.00000000     1291        2        0        0        0
S       71.54324428       8.07501025       9.91102051     183.84000005       0.00000000       0.00000000       0.00000000     1292        2        0        0        0
S       24.12692329      37.22944056      13.22927663     183.84000005       0.00000000       0.00000000       0.00000000     1293        2        0        0        0
S       24.12318720      37.21024299      10.08905815     183.84000005       0.00000000       0.00000000       0.00000000     1294        2        0        0        0
S       26.93277618      35.71726418      13.24259199     183.84000005       0.00000000       0.00000000       0.00000000     1295        2        0        0        0
S       26.93408704      35.69459321      10.10249706     183.84000005       0.00000000       0.00000000       0.00000000     1296        2        0        0        0
S       29.73406626      34.19600232      13.25959205     183.84000005       0.00000000       0.00000000       0.00000000     1297        2        0        0        0
S       29.73673083      34.17342972      10.11973812     183.84000005       0.00000000       0.00000000       0.00000000     1298        2        0        0        0
S       32.52944280      32.66467268      13.27510958     183.84000005       0.00000000       0.00000000       0.00000000     1299        2        0        0        0
S       32.53007373      32.64516572      10.13551923     183.84000005       0.00000000       0.00000000       0.00000000     1300        2        0        0        0
S       35.31778654      31.12438410      13.28558816     183.84000005       0.00000000       0.00000000       0.00000000     1301        2        0        0        0
S       35.31456563      31.10930204      10.14620890     183.84000005       0.00000000       0.00000000       0.00000000     1302        2        0        0        0
S       38.09877223      29.57748398      13.28992720     183.84000005       0.00000000       0.00000000       0.00000000     1303        2        0        0        0
S       38.09155644      29.56660083      10.15066261     183.84000005       0.00000000       0.00000000       0.00000000     1304        2        0        0        0
S       40.87309382      28.02659076      13.28887231     183.84000005       0.00000000       0.00000000       0.00000000     1305        2        0        0        0
S       40.86267132      28.01892016      10.14961185     183.84000005       0.00000000       0.00000000       0.00000000     1306        2        0        0        0
S       43.64223406      26.47404440      13.28371065     183.84000005       0.00000000       0.00000000       0.00000000     1307        2        0        0        0
S       43.62947214      26.46881074      10.14436413     183.84000005       0.00000000       0.00000000       0.00000000     1308        2        0        0        0
S       46.40803172      24.92184600      13.27528541     183.84000005       0.00000000       0.00000000       0.00000000     1309        2        0        0        0
S       46.39348765      24.91909986      10.13579120     183.84000005       0.00000000       0.00000000       0.00000000     1310        2        0        0        0
S       49.17239047      23.37180906      13.26369487     183.84000005       0.00000000       0.00000000       0.00000000     1311        2        0        0        0
S       49.15640200      23.37258944      10.12399936     183.84000005       0.00000000       0.00000000       0.00000000     1312        2        0        0        0
S       51.93719164      21.82578446      13.24851353     183.84000005       0.00000000       0.00000000       0.00000000     1313        2        0        0        0
S       51.92023603      21.83184705      10.10856293     183.84000005       0.00000000       0.00000000       0.00000000     1314        2        0        0        0
S       54.70431032      20.28572660      13.22932378     183.84000005       0.00000000       0.00000000       0.00000000     1315        2        0        0        0
S       54.68733523      20.29890217      10.08907658     183.84000005       0.00000000       0.00000000       0.00000000     1316        2        0        0        0
S       57.47564465      18.75350366      13.20627261     183.84000005       0.00000000       0.00000000       0.00000000     1317        2        0        0        0
S       57.46005708      18.77493137      10.06572134     183.84000005       0.00000000       0.00000000       0.00000000     1318        2        0        0        0
S       60.25303431      17.23055543      13.18029030     183.84000005       0.00000000       0.00000000       0.00000000     1319        2        0        0        0
S       60.24028118      17.26010561      10.03946422     183.84000005       0.00000000       0.00000000       0.00000000     1320        2        0        0        0
S       63.03786312      15.71758276      13.15290789     183.84000005       0.00000000       0.00000000       0.00000000     1321        2        0        0        0
S       63.02901877      15.75364004      10.01186867     183.84000005       0.00000000       0.00000000       0.00000000     1322        2        0        0        0
S       65.83043765      14.21430830      13.12613186     183.84000005       0.00000000       0.00000000       0.00000000     1323        2        0        0        0
S       65.82635220      14.25387108       9.98498625     183.84000005       0.00000000       0.00000000       0.00000000     1324        2        0        0        0
S       68.62951842      12.71903396      13.10278318     183.84000005       0.00000000       0.00000000       0.00000000     1325        2        0        0        0
S       68.63140756      12.75836479       9.96157906     183.84000005       0.00000000       0.00000000       0.00000000     1326        2        0        0        0
S       71.43280342      11.22858193      13.08634343     183.84000005       0.00000000       0.00000000       0.00000000     1327        2        0        0        0
S       71.44235827      11.26434595       9.94501378     183.84000005       0.00000000       0.00000000       0.00000000     1328        2        0        0        0
S       74.23812965       9.73905583      13.07986076     183.84000005       0.00000000       0.00000000       0.00000000     1329        2        0        0        0
S       74.25683337       9.76918737       9.93835634     183.84000005       0.00000000       0.00000000       0.00000000     1330        2        0        0        0
S       24.06889759      40.39405175      13.20851451     183.84000005       0.00000000       0.00000000       0.00000000     1331        2        0        0        0
S       24.05714044      40.37239901      10.06802782     183.84000005       0.00000000       0.00000000       0.00000000     1332        2        0        0        0
S       26.87782361      38.88744122      13.21763750     183.84000005       0.00000000       0.00000000       0.00000000     1333        2        0        0        0
S       26.87280230      38.86009381      10.07715976     183.84000005       0.00000000       0.00000000       0.00000000     1334        2        0        0        0
S       29.68243145      37.37374872      13.23377072     183.84000005       0.00000000       0.00000000       0.00000000     1335        2        0        0        0
S       29.68119595      37.34408015      10.09345744     183.84000005       0.00000000       0.00000000       0.00000000     1336        2        0        0        0
S       32.48139511      35.85066536      13.25169711     183.84000005       0.00000000       0.00000000       0.00000000     1337        2        0        0        0
S       32.48026892      35.82257184      10.11164644     183.84000005       0.00000000       0.00000000       0.00000000     1338        2        0        0        0
S       35.27333115      34.31811057      13.26652402     183.84000005       0.00000000       0.00000000       0.00000000     1339        2        0        0        0
S       35.26957457      34.29448856      10.12673619     183.84000005       0.00000000       0.00000000       0.00000000     1340        2        0        0        0
S       38.05734253      32.77775995      13.27544038     183.84000005       0.00000000       0.00000000       0.00000000     1341        2        0        0        0
S       38.04995831      32.75973957      10.13584876     183.84000005       0.00000000       0.00000000       0.00000000     1342        2        0        0        0
S       40.83348980      31.23211511      13.27806344     183.84000005       0.00000000       0.00000000       0.00000000     1343        2        0        0        0
S       40.82296635      31.21931696      10.13856645     183.84000005       0.00000000       0.00000000       0.00000000     1344        2        0        0        0
S       43.60283887      29.68366158      13.27555599     183.84000005       0.00000000       0.00000000       0.00000000     1345        2        0        0        0
S       43.59032477      29.67510827      10.13604855     183.84000005       0.00000000       0.00000000       0.00000000     1346        2        0        0        0
S       46.36710899      28.13451650      13.26940448     183.84000005       0.00000000       0.00000000       0.00000000     1347        2        0        0        0
S       46.35374189      28.12951298      10.12981152     183.84000005       0.00000000       0.00000000       0.00000000     1348        2        0        0        0
S       49.12826801      26.58644148      13.26067885     183.84000005       0.00000000       0.00000000       0.00000000     1349        2        0        0        0
S       49.11495690      26.58505510      10.12095865     183.84000005       0.00000000       0.00000000       0.00000000     1350        2        0        0        0
S       51.88834889      25.04103691      13.24986585     183.84000005       0.00000000       0.00000000       0.00000000     1351        2        0        0        0
S       51.87586557      25.04415336      10.10999193     183.84000005       0.00000000       0.00000000       0.00000000     1352        2        0        0        0
S       54.64946729      23.49989477      13.23702773     183.84000005       0.00000000       0.00000000       0.00000000     1353        2        0        0        0
S       54.63858221      23.50892387      10.09697680     183.84000005       0.00000000       0.00000000       0.00000000     1354        2        0        0        0
S       57.41385175      21.96461726      13.22206519     183.84000005       0.00000000       0.00000000       0.00000000     1355        2        0        0        0
S       57.40531492      21.98094529      10.08181742     183.84000005       0.00000000       0.00000000       0.00000000     1356        2        0        0        0
S       60.18375886      20.43670646      13.20491182     183.84000005       0.00000000       0.00000000       0.00000000     1357        2        0        0        0
S       60.17807576      20.46107476      10.06446010     183.84000005       0.00000000       0.00000000       0.00000000     1358        2        0        0        0
S       62.96111419      18.91736116      13.18567628     183.84000005       0.00000000       0.00000000       0.00000000     1359        2        0        0        0
S       62.95840006      18.94936363      10.04501782     183.84000005       0.00000000       0.00000000       0.00000000     1360        2        0        0        0
S       65.74692069      17.40718135      13.16491287     183.84000005       0.00000000       0.00000000       0.00000000     1361        2        0        0        0
S       65.74718737      17.44501353      10.02406490     183.84000005       0.00000000       0.00000000       0.00000000     1362        2        0        0        0
S       68.54072610      15.90572002      13.14418523     183.84000005       0.00000000       0.00000000       0.00000000     1363        2        0        0        0
S       68.54460075      15.94625818      10.00319659     183.84000005       0.00000000       0.00000000       0.00000000     1364        2        0        0        0
S       71.34055777      14.41094579      13.12657267     183.84000005       0.00000000       0.00000000       0.00000000     1365        2        0        0        0
S       71.34975351      14.45050052       9.98545035     183.84000005       0.00000000       0.00000000       0.00000000     1366        2        0        0        0
S       74.14382756      12.91933867      13.11601575     183.84000005       0.00000000       0.00000000       0.00000000     1367        2        0        0        0
S       74.16058730      12.95486781       9.97470686     183.84000005       0.00000000       0.00000000       0.00000000     1368        2        0        0        0
S       26.81218356      42.05711057      13.18813095     183.84000005       0.00000000       0.00000000       0.00000000     1369        2        0        0        0
S       26.79955093      42.02674885      10.04729231     183.84000005       0.00000000       0.00000000       0.00000000     1370        2        0        0        0
S       29.62019068      40.55011845      13.20087468     183.84000005       0.00000000       0.00000000       0.00000000     1371        2        0        0        0
S       29.61367285      40.51491967      10.06007467     183.84000005       0.00000000       0.00000000       0.00000000     1372        2        0        0        0
S       32.42296616      39.03531768      13.21926952     183.84000005       0.00000000       0.00000000       0.00000000     1373        2        0        0        0
S       32.41931912      38.99920870      10.07866262     183.84000005       0.00000000       0.00000000       0.00000000     1374        2        0        0        0
S       35.21907278      37.51126068      13.23798539     183.84000005       0.00000000       0.00000000       0.00000000     1375        2        0        0        0
S       35.21503924      37.47832514      10.09765995     183.84000005       0.00000000       0.00000000       0.00000000     1376        2        0        0        0
S       38.00722799      35.97847912      13.25265733     183.84000005       0.00000000       0.00000000       0.00000000     1377        2        0        0        0
S       38.00085391      35.95155340      10.11260541     183.84000005       0.00000000       0.00000000       0.00000000     1378        2        0        0        0
S       40.78686604      34.43891092      13.26118382     183.84000005       0.00000000       0.00000000       0.00000000     1379        2        0        0        0
S       40.77788833      34.41900323      10.12133729     183.84000005       0.00000000       0.00000000       0.00000000     1380        2        0        0        0
S       43.55846445      32.89501262      13.26371115     183.84000005       0.00000000       0.00000000       0.00000000     1381        2        0        0        0
S       43.54782507      32.88168159      10.12397168     183.84000005       0.00000000       0.00000000       0.00000000     1382        2        0        0        0
S       46.32344056      31.34907736      13.26165873     183.84000005       0.00000000       0.00000000       0.00000000     1383        2        0        0        0
S       46.31250227      31.34131342      10.12193727     183.84000005       0.00000000       0.00000000       0.00000000     1384        2        0        0        0
S       49.08375485      29.80300170      13.25666663     183.84000005       0.00000000       0.00000000       0.00000000     1385        2        0        0        0
S       49.07378440      29.79999213      10.11690684     183.84000005       0.00000000       0.00000000       0.00000000     1386        2        0        0        0
S       51.84155894      28.25835342      13.25001570     183.84000005       0.00000000       0.00000000       0.00000000     1387        2        0        0        0
S       51.83356986      28.25988053      10.11018982     183.84000005       0.00000000       0.00000000       0.00000000     1388        2        0        0        0
S       54.59910418      26.71652697      13.24244597     183.84000005       0.00000000       0.00000000       0.00000000     1389        2        0        0        0
S       54.59383453      26.72302325      10.10254044     183.84000005       0.00000000       0.00000000       0.00000000     1390        2        0        0        0
S       57.35878352      25.17887376      13.23414289     183.84000005       0.00000000       0.00000000       0.00000000     1391        2        0        0        0
S       57.35661487      25.19120959      10.09414061     183.84000005       0.00000000       0.00000000       0.00000000     1392        2        0        0        0
S       60.12308339      23.64676253      13.22475485     183.84000005       0.00000000       0.00000000       0.00000000     1393        2        0        0        0
S       60.12388114      23.66582444      10.08463371     183.84000005       0.00000000       0.00000000       0.00000000     1394        2        0        0        0
S       62.89430314      22.12155146      13.21353636     183.84000005       0.00000000       0.00000000       0.00000000     1395        2        0        0        0
S       62.89739552      22.14770407      10.07327301     183.84000005       0.00000000       0.00000000       0.00000000     1396        2        0        0        0
S       65.67400347      20.60439387      13.19984813     183.84000005       0.00000000       0.00000000       0.00000000     1397        2        0        0        0
S       65.67860039      20.63698132      10.05940968     183.84000005       0.00000000       0.00000000       0.00000000     1398        2        0        0        0
S       68.46245987      19.09580356      13.18395502     183.84000005       0.00000000       0.00000000       0.00000000     1399        2        0        0        0
S       68.46844201      19.13285314      10.04332255     183.84000005       0.00000000       0.00000000       0.00000000     1400        2        0        0        0
S       71.25839765      17.59504238      13.16782454     183.84000005       0.00000000       0.00000000       0.00000000     1401        2        0        0        0
S       71.26703812      17.63341278      10.02700983     183.84000005       0.00000000       0.00000000       0.00000000     1402        2        0        0        0
S       74.05935419      16.09962478      13.15523110     183.84000005       0.00000000       0.00000000       0.00000000     1403        2        0        0        0
S       74.07319116      16.13589376      10.01422869     183.84000005       0.00000000       0.00000000       0.00000000     1404        2        0        0        0
S       76.86284821      14.60562121      13.15035327     183.84000005       0.00000000       0.00000000       0.00000000     1405        2        0        0        0
S       76.88435249      14.63730106      10.00915134     183.84000005       0.00000000       0.00000000       0.00000000     1406        2        0        0        0
S       26.73425958      45.22699189      13.15616474     183.84000005       0.00000000       0.00000000       0.00000000     1407        2        0        0        0
S       26.71402989      45.19606587      10.01504623     183.84000005       0.00000000       0.00000000       0.00000000     1408        2        0        0        0
S       29.54554579      43.72514754      13.16329424     183.84000005       0.00000000       0.00000000       0.00000000     1409        2        0        0        0
S       29.53316279      43.68767151      10.02209532     183.84000005       0.00000000       0.00000000       0.00000000     1410        2        0        0        0
S       32.35206877      42.21776463      13.17948504     183.84000005       0.00000000       0.00000000       0.00000000     1411        2        0        0        0
S       32.34538974      42.17669215      10.03834683     183.84000005       0.00000000       0.00000000       0.00000000     1412        2        0        0        0
S       35.15253901      40.70232992      13.20023347     183.84000005       0.00000000       0.00000000       0.00000000     1413        2        0        0        0
S       35.14845481      40.66190819      10.05930723     183.84000005       0.00000000       0.00000000       0.00000000     1414        2        0        0        0
S       37.94553166      39.17800746      13.22045917     183.84000005       0.00000000       0.00000000       0.00000000     1415        2        0        0        0
S       37.94139209      39.14237193      10.07983811     183.84000005       0.00000000       0.00000000       0.00000000     1416        2        0        0        0
S       40.73001743      37.64564618      13.23637835     183.84000005       0.00000000       0.00000000       0.00000000     1417        2        0        0        0
S       40.72454637      37.61752981      10.09606826     183.84000005       0.00000000       0.00000000       0.00000000     1418        2        0        0        0
S       43.50584172      36.10721458      13.24642156     183.84000005       0.00000000       0.00000000       0.00000000     1419        2        0        0        0
S       43.49921580      36.08748692      10.10636247     183.84000005       0.00000000       0.00000000       0.00000000     1420        2        0        0        0
S       46.27389531      34.56500534      13.25100284     183.84000005       0.00000000       0.00000000       0.00000000     1421        2        0        0        0
S       46.26717881      34.55308831      10.11110528     183.84000005       0.00000000       0.00000000       0.00000000     1422        2        0        0        0
S       49.03591250      33.02109411      13.25159670     183.84000005       0.00000000       0.00000000       0.00000000     1423        2        0        0        0
S       49.03038204      33.01577597      10.11178247     183.84000005       0.00000000       0.00000000       0.00000000     1424        2        0        0        0
S       51.79406979      31.47719625      13.24986149     183.84000005       0.00000000       0.00000000       0.00000000     1425        2        0        0        0
S       51.79082052      31.47732805      10.11007739     183.84000005       0.00000000       0.00000000       0.00000000     1426        2        0        0        0
S       54.55070218      29.93471668      13.24712130     183.84000005       0.00000000       0.00000000       0.00000000     1427        2        0        0        0
S       54.55047804      29.93961704      10.10733708     183.84000005       0.00000000       0.00000000       0.00000000     1428        2        0        0        0
S       57.30826029      28.39490798      13.24408531     183.84000005       0.00000000       0.00000000       0.00000000     1429        2        0        0        0
S       57.31131133      28.40449160      10.10428532     183.84000005       0.00000000       0.00000000       0.00000000     1430        2        0        0        0
S       60.06930831      26.85901834      13.24067536     183.84000005       0.00000000       0.00000000       0.00000000     1431        2        0        0        0
S       60.07521944      26.87368625      10.10084178     183.84000005       0.00000000       0.00000000       0.00000000     1432        2        0        0        0
S       62.83634005      25.32839385      13.23600259     183.84000005       0.00000000       0.00000000       0.00000000     1433        2        0        0        0
S       62.84400675      25.34867329      10.09610736     183.84000005       0.00000000       0.00000000       0.00000000     1434        2        0        0        0
S       65.61132064      23.80447166      13.22877574     183.84000005       0.00000000       0.00000000       0.00000000     1435        2        0        0        0
S       65.61936382      23.83044967      10.08877390     183.84000005       0.00000000       0.00000000       0.00000000     1436        2        0        0        0
S       68.39512525      22.28844910      13.21822532     183.84000005       0.00000000       0.00000000       0.00000000     1437        2        0        0        0
S       68.40273576      22.31921902      10.07806006     183.84000005       0.00000000       0.00000000       0.00000000     1438        2        0        0        0
S       71.18719387      20.78066948      13.20514355     183.84000005       0.00000000       0.00000000       0.00000000     1439        2        0        0        0
S       71.19499435      20.81407318      10.06477554     183.84000005       0.00000000       0.00000000       0.00000000     1440        2        0        0        0
S       73.98559933      19.27990386      13.19242806     183.84000005       0.00000000       0.00000000       0.00000000     1441        2        0        0        0
S       73.99590506      19.31286268      10.05185707     183.84000005       0.00000000       0.00000000       0.00000000     1442        2        0        0        0
S       76.78776125      17.78301928      13.18445410     183.84000005       0.00000000       0.00000000       0.00000000     1443        2        0        0        0
S       76.80366586      17.81258133      10.04368618     183.84000005       0.00000000       0.00000000       0.00000000     1444        2        0        0        0
S       29.45795400      46.89942842      13.12480276     183.84000005       0.00000000       0.00000000       0.00000000     1445        2        0        0        0
S       29.44029387      46.86357791       9.98338793     183.84000005       0.00000000       0.00000000       0.00000000     1446        2        0        0        0
S       32.26794333      45.39786341      13.13634394     183.84000005       0.00000000       0.00000000       0.00000000     1447        2        0        0        0
S       32.25824640      45.35649106       9.99486917     183.84000005       0.00000000       0.00000000       0.00000000     1448        2        0        0        0
S       35.07261107      43.89018444      13.15633106     183.84000005       0.00000000       0.00000000       0.00000000     1449        2        0        0        0
S       35.06859200      43.84658986      10.01492707     183.84000005       0.00000000       0.00000000       0.00000000     1450        2        0        0        0
S       37.87063909      42.37449438      13.18024205     183.84000005       0.00000000       0.00000000       0.00000000     1451        2        0        0        0
S       37.86954192      42.33301767      10.03906367     183.84000005       0.00000000       0.00000000       0.00000000     1452        2        0        0        0
S       40.66078801      40.85030901      13.20336254     183.84000005       0.00000000       0.00000000       0.00000000     1453        2        0        0        0
S       40.66045640      40.81496155      10.06253097     183.84000005       0.00000000       0.00000000       0.00000000     1454        2        0        0        0
S       43.44239617      39.31855851      13.22234077     183.84000005       0.00000000       0.00000000       0.00000000     1455        2        0        0        0
S       43.44186923      39.29182734      10.08188563     183.84000005       0.00000000       0.00000000       0.00000000     1456        2        0        0        0
S       46.21573243      37.78107306      13.23584699     183.84000005       0.00000000       0.00000000       0.00000000     1457        2        0        0        0
S       46.21518446      37.76355691      10.09571135     183.84000005       0.00000000       0.00000000       0.00000000     1458        2        0        0        0
S       48.98203392      36.23990739      13.24427363     183.84000005       0.00000000       0.00000000       0.00000000     1459        2        0        0        0
S       48.98226850      36.23075693      10.10436558     183.84000005       0.00000000       0.00000000       0.00000000     1460        2        0        0        0
S       51.74325691      34.69694776      13.24895521     183.84000005       0.00000000       0.00000000       0.00000000     1461        2        0        0        0
S       51.74518915      34.69464081      10.10919145     183.84000005       0.00000000       0.00000000       0.00000000     1462        2        0        0        0
S       54.50170903      33.15378291      13.25142842     183.84000005       0.00000000       0.00000000       0.00000000     1463        2        0        0        0
S       54.50604801      33.15681318      10.11175118     183.84000005       0.00000000       0.00000000       0.00000000     1464        2        0        0        0
S       57.25983279      31.61176767      13.25289680     183.84000005       0.00000000       0.00000000       0.00000000     1465        2        0        0        0
S       57.26685732      31.61908805      10.11327613     183.84000005       0.00000000       0.00000000       0.00000000     1466        2        0        0        0
S       60.02016437      30.07218391      13.25384164     183.84000005       0.00000000       0.00000000       0.00000000     1467        2        0        0        0
S       60.02950440      30.08339190      10.11426200     183.84000005       0.00000000       0.00000000       0.00000000     1468        2        0        0        0
S       62.78524419      28.53638688      13.25379434     183.84000005       0.00000000       0.00000000       0.00000000     1469        2        0        0        0
S       62.79576866      28.55164356      10.11422868     183.84000005       0.00000000       0.00000000       0.00000000     1470        2        0        0        0
S       65.55729183      27.00593851      13.25146704     183.84000005       0.00000000       0.00000000       0.00000000     1471        2        0        0        0
S       65.56738123      27.02555103      10.11186338     183.84000005       0.00000000       0.00000000       0.00000000     1472        2        0        0        0
S       68.33766736      25.48246956      13.24551980     183.84000005       0.00000000       0.00000000       0.00000000     1473        2        0        0        0
S       68.34600859      25.50624576      10.10580695     183.84000005       0.00000000       0.00000000       0.00000000     1474        2        0        0        0
S       71.12643980      23.96715393      13.23575930     183.84000005       0.00000000       0.00000000       0.00000000     1475        2        0        0        0
S       71.13300481      23.99386626      10.09586562     183.84000005       0.00000000       0.00000000       0.00000000     1476        2        0        0        0
S       73.92232346      22.45991456      13.22404007     183.84000005       0.00000000       0.00000000       0.00000000     1477        2        0        0        0
S       73.92891020      22.48720777      10.08393317     183.84000005       0.00000000       0.00000000       0.00000000     1478        2        0        0        0
S       76.72306206      20.95872834      13.21421972     183.84000005       0.00000000       0.00000000       0.00000000     1479        2        0        0        0
S       76.73284777      20.98372077      10.07391385     183.84000005       0.00000000       0.00000000       0.00000000     1480        2        0        0        0
S       79.52632546      19.45964477      13.21069987     183.84000005       0.00000000       0.00000000       0.00000000     1481        2        0        0        0
S       79.54225957      19.48009768      10.07023169     183.84000005       0.00000000       0.00000000       0.00000000     1482        2        0        0        0
S       29.35840889      50.07363589      13.08948789     183.84000005       0.00000000       0.00000000       0.00000000     1483        2        0        0        0
S       29.33713089      50.04307570       9.94802941     183.84000005       0.00000000       0.00000000       0.00000000     1484        2        0        0        0
S       32.17139413      48.57623714      13.09499236     183.84000005       0.00000000       0.00000000       0.00000000     1485        2        0        0        0
S       32.15935679      48.53931235       9.95341125     183.84000005       0.00000000       0.00000000       0.00000000     1486        2        0        0        0
S       34.97979437      47.07473622      13.11148412     183.84000005       0.00000000       0.00000000       0.00000000     1487        2        0        0        0
S       34.97589458      47.03334514       9.96986885     183.84000005       0.00000000       0.00000000       0.00000000     1488        2        0        0        0
S       37.78255675      45.56683546      13.13603956     183.84000005       0.00000000       0.00000000       0.00000000     1489        2        0        0        0
S       37.78459842      45.52438737       9.99451012     183.84000005       0.00000000       0.00000000       0.00000000     1490        2        0        0        0
S       40.57851627      44.05102112      13.16426639     183.84000005       0.00000000       0.00000000       0.00000000     1491        2        0        0        0
S       40.58398238      44.01172454      10.02299422     183.84000005       0.00000000       0.00000000       0.00000000     1492        2        0        0        0
S       43.36674822      42.52693640      13.19167235     183.84000005       0.00000000       0.00000000       0.00000000     1493        2        0        0        0
S       43.37358610      42.49445905      10.05080446     183.84000005       0.00000000       0.00000000       0.00000000     1494        2        0        0        0
S       46.14698246      40.99541314      13.21504495     183.84000005       0.00000000       0.00000000       0.00000000     1495        2        0        0        0
S       46.15407326      40.97180817      10.07461216     183.84000005       0.00000000       0.00000000       0.00000000     1496        2        0        0        0
S       48.91981434      39.45802899      13.23299538     183.84000005       0.00000000       0.00000000       0.00000000     1497        2        0        0        0
S       48.92695942      39.44352020      10.09293003     183.84000005       0.00000000       0.00000000       0.00000000     1498        2        0        0        0
S       51.68667764      37.91662041      13.24572424     183.84000005       0.00000000       0.00000000       0.00000000     1499        2        0        0        0
S       51.69425139      37.91009582      10.10592899     183.84000005       0.00000000       0.00000000       0.00000000     1500        2        0        0        0
S       54.44960258      36.37298409      13.25438823     183.84000005       0.00000000       0.00000000       0.00000000     1501        2        0        0        0
S       54.45815599      36.37274453      10.11478436     183.84000005       0.00000000       0.00000000       0.00000000     1502        2        0        0        0
S       57.21090446      34.82874964      13.26040386     183.84000005       0.00000000       0.00000000       0.00000000     1503        2        0        0        0
S       57.22082380      34.83316349      10.12093858     183.84000005       0.00000000       0.00000000       0.00000000     1504        2        0        0        0
S       59.97302516      33.28543011      13.26481855     183.84000005       0.00000000       0.00000000       0.00000000     1505        2        0        0        0
S       59.98421088      33.29336519      10.12546232     183.84000005       0.00000000       0.00000000       0.00000000     1506        2        0        0        0
S       62.73844769      31.74453032      13.26784821     183.84000005       0.00000000       0.00000000       0.00000000     1507        2        0        0        0
S       62.75007937      31.75553288      10.12856779     183.84000005       0.00000000       0.00000000       0.00000000     1508        2        0        0        0
S       65.50949954      30.20772364      13.26871303     183.84000005       0.00000000       0.00000000       0.00000000     1509        2        0        0        0
S       65.52009934      30.22187350      10.12944994     183.84000005       0.00000000       0.00000000       0.00000000     1510        2        0        0        0
S       68.28791317      28.67690012      13.26606216     183.84000005       0.00000000       0.00000000       0.00000000     1511        2        0        0        0
S       68.29595592      28.69428738      10.12673477     183.84000005       0.00000000       0.00000000       0.00000000     1512        2        0        0        0
S       71.07432229      27.15382048      13.25907638     183.84000005       0.00000000       0.00000000       0.00000000     1513        2        0        0        0
S       71.07924319      27.17387780      10.11959996     183.84000005       0.00000000       0.00000000       0.00000000     1514        2        0        0        0
S       73.86806385      25.63936399      13.24865436     183.84000005       0.00000000       0.00000000       0.00000000     1515        2        0        0        0
S       73.87104494      25.66047372      10.10896739     183.84000005       0.00000000       0.00000000       0.00000000     1516        2        0        0        0
S       76.66738941      24.13265095      13.23784308     183.84000005       0.00000000       0.00000000       0.00000000     1517        2        0        0        0
S       76.67131619      24.15233577      10.09793994     183.84000005       0.00000000       0.00000000       0.00000000     1518        2        0        0        0
S       79.47005717      22.63061972      13.23102311     183.84000005       0.00000000       0.00000000       0.00000000     1519        2        0        0        0
S       79.47835780      22.64642804      10.09094554     183.84000005       0.00000000       0.00000000       0.00000000     1520        2        0        0        0
S       32.06472971      51.75368521      13.06017309     183.84000005       0.00000000       0.00000000       0.00000000     1521        2        0        0        0
S       32.05147124      51.72491467       9.91856684     183.84000005       0.00000000       0.00000000       0.00000000     1522        2        0        0        0
S       34.87612557      50.25679750      13.07138726     183.84000005       0.00000000       0.00000000       0.00000000     1523        2        0        0        0
S       34.87243118      50.22229637       9.92972725     183.84000005       0.00000000       0.00000000       0.00000000     1524        2        0        0        0
S       37.68287145      48.75517444      13.09342814     183.84000005       0.00000000       0.00000000       0.00000000     1525        2        0        0        0
S       37.68750111      48.71696475       9.95179664     183.84000005       0.00000000       0.00000000       0.00000000     1526        2        0        0        0
S       40.48409275      47.24691378      13.12332168     183.84000005       0.00000000       0.00000000       0.00000000     1527        2        0        0        0
S       40.49482016      47.20831248       9.98182564     183.84000005       0.00000000       0.00000000       0.00000000     1528        2        0        0        0
S       43.27891841      45.73066138      13.15664035     183.84000005       0.00000000       0.00000000       0.00000000     1529        2        0        0        0
S       43.29305118      45.69552467      10.01544931     183.84000005       0.00000000       0.00000000       0.00000000     1530        2        0        0        0
S       46.06675332      44.20601251      13.18880652     183.84000005       0.00000000       0.00000000       0.00000000     1531        2        0        0        0
S       46.08188212      44.17746257      10.04805986     183.84000005       0.00000000       0.00000000       0.00000000     1532        2        0        0        0
S       48.84759704      42.67358281      13.21649420     183.84000005       0.00000000       0.00000000       0.00000000     1533        2        0        0        0
S       48.86216401      42.65316235      10.07620308     183.84000005       0.00000000       0.00000000       0.00000000     1534        2        0        0        0
S       51.62217418      41.13473441      13.23819916     183.84000005       0.00000000       0.00000000       0.00000000     1535        2        0        0        0
S       51.63561810      41.12239380      10.09829281     183.84000005       0.00000000       0.00000000       0.00000000     1536        2        0        0        0
S       54.39192588      39.59127040      13.25406311     183.84000005       0.00000000       0.00000000       0.00000000     1537        2        0        0        0
S       54.40442512      39.58587247      10.11446304     183.84000005       0.00000000       0.00000000       0.00000000     1538        2        0        0        0
S       57.15880669      38.04512488      13.26524231     183.84000005       0.00000000       0.00000000       0.00000000     1539        2        0        0        0
S       57.17082974      38.04508655      10.12587969     183.84000005       0.00000000       0.00000000       0.00000000     1540        2        0        0        0
S       59.92504863      36.49818386      13.27310373     183.84000005       0.00000000       0.00000000       0.00000000     1541        2        0        0        0
S       59.93687523      36.50204335      10.13392085     183.84000005       0.00000000       0.00000000       0.00000000     1542        2        0        0        0
S       62.69301347      34.95226638      13.27851092     183.84000005       0.00000000       0.00000000       0.00000000     1543        2        0        0        0
S       62.70433730      34.95906546      10.13945700     183.84000005       0.00000000       0.00000000       0.00000000     1544        2        0        0        0
S       65.46501988      33.40924815      13.28139869     183.84000005       0.00000000       0.00000000       0.00000000     1545        2        0        0        0
S       65.47480777      33.41864635      10.14240983     183.84000005       0.00000000       0.00000000       0.00000000     1546        2        0        0        0
S       68.24303125      31.87121289      13.28084458     183.84000005       0.00000000       0.00000000       0.00000000     1547        2        0        0        0
S       68.24987221      31.88322071      10.14183169     183.84000005       0.00000000       0.00000000       0.00000000     1548        2        0        0        0
S       71.02817808      30.34032058      13.27585260     183.84000005       0.00000000       0.00000000       0.00000000     1549        2        0        0        0
S       71.03117508      30.35469232      10.13671879     183.84000005       0.00000000       0.00000000       0.00000000     1550        2        0        0        0
S       73.82040945      28.81819946      13.26659720     183.84000005       0.00000000       0.00000000       0.00000000     1551        2        0        0        0
S       73.82013777      28.83386365      10.12726215     183.84000005       0.00000000       0.00000000       0.00000000     1552        2        0        0        0
S       76.61853827      27.30501439      13.25527378     183.84000005       0.00000000       0.00000000       0.00000000     1553        2        0        0        0
S       76.61737787      27.31996044      10.11570095     183.84000005       0.00000000       0.00000000       0.00000000     1554        2        0        0        0
S       79.42064953      25.79876025      13.24583816     183.84000005       0.00000000       0.00000000       0.00000000     1555        2        0        0        0
S       79.42207778      25.81058145      10.10605697     183.84000005       0.00000000       0.00000000       0.00000000     1556        2        0        0        0
S       82.22473219      24.29526613      13.24248046     183.84000005       0.00000000       0.00000000       0.00000000     1557        2        0        0        0
S       82.23168849      24.30224260      10.10256332     183.84000005       0.00000000       0.00000000       0.00000000     1558        2        0        0        0
S       31.95129283      54.93081953      13.03514518     183.84000005       0.00000000       0.00000000       0.00000000     1559        2        0        0        0
S       31.93792770      54.91255502       9.89348702     183.84000005       0.00000000       0.00000000       0.00000000     1560        2        0        0        0
S       34.76461004      53.43740434      13.04035372     183.84000005       0.00000000       0.00000000       0.00000000     1561        2        0        0        0
S       34.76132238      53.41282819       9.89865659     183.84000005       0.00000000       0.00000000       0.00000000     1562        2        0        0        0
S       37.57429697      51.94055760      13.05767169     183.84000005       0.00000000       0.00000000       0.00000000     1563        2        0        0        0
S       37.58070818      51.91059485       9.91602122     183.84000005       0.00000000       0.00000000       0.00000000     1564        2        0        0        0
S       40.37966837      50.43837733      13.08563965     183.84000005       0.00000000       0.00000000       0.00000000     1565        2        0        0        0
S       40.39429264      50.40501915       9.94410999     183.84000005       0.00000000       0.00000000       0.00000000     1566        2        0        0        0
S       43.18019331      48.92912666      13.12103613     183.84000005       0.00000000       0.00000000       0.00000000     1567        2        0        0        0
S       43.20033976      48.89541554       9.97970302     183.84000005       0.00000000       0.00000000       0.00000000     1568        2        0        0        0
S       45.97530240      47.41142463      13.15905523     183.84000005       0.00000000       0.00000000       0.00000000     1569        2        0        0        0
S       45.99765195      47.38068761      10.01805255     183.84000005       0.00000000       0.00000000       0.00000000     1570        2        0        0        0
S       48.76457994      45.88471453      13.19483439     183.84000005       0.00000000       0.00000000       0.00000000     1571        2        0        0        0
S       48.78620112      45.85948345      10.05427767     183.84000005       0.00000000       0.00000000       0.00000000     1572        2        0        0        0
S       51.54804978      44.34948772      13.22504804     183.84000005       0.00000000       0.00000000       0.00000000     1573        2        0        0        0
S       51.56718000      44.33094881      10.08494822     183.84000005       0.00000000       0.00000000       0.00000000     1574        2        0        0        0
S       54.32635830      42.80719444      13.24843680     183.84000005       0.00000000       0.00000000       0.00000000     1575        2        0        0        0
S       54.34254248      42.79528988      10.10874066     183.84000005       0.00000000       0.00000000       0.00000000     1576        2        0        0        0
S       57.10082155      41.25989683      13.26541410     183.84000005       0.00000000       0.00000000       0.00000000     1577        2        0        0        0
S       57.11447475      41.25373257      10.12605432     183.84000005       0.00000000       0.00000000       0.00000000     1578        2        0        0        0
S       59.87325489      39.70984184      13.27725192     183.84000005       0.00000000       0.00000000       0.00000000     1579        2        0        0        0
S       59.88501892      39.70820367      10.13815343     183.84000005       0.00000000       0.00000000       0.00000000     1580        2        0        0        0
S       62.64577829      38.15924354      13.28519866     183.84000005       0.00000000       0.00000000       0.00000000     1581        2        0        0        0
S       62.65593516      38.16106981      10.14628968     183.84000005       0.00000000       0.00000000       0.00000000     1582        2        0        0        0
S       65.42061745      36.61029310      13.28982636     183.84000005       0.00000000       0.00000000       0.00000000     1583        2        0        0        0
S       65.42874606      36.61495950      10.15103012     183.84000005       0.00000000       0.00000000       0.00000000     1584        2        0        0        0
S       68.19983790      35.06529988      13.29080278     183.84000005       0.00000000       0.00000000       0.00000000     1585        2        0        0        0
S       68.20490126      35.07259418      10.15202518     183.84000005       0.00000000       0.00000000       0.00000000     1586        2        0        0        0
S       70.98494749      33.52671026      13.28730949     183.84000005       0.00000000       0.00000000       0.00000000     1587        2        0        0        0
S       70.98595511      33.53643046      10.14844063     183.84000005       0.00000000       0.00000000       0.00000000     1588        2        0        0        0
S       73.77647892      31.99671912      13.27909778     183.84000005       0.00000000       0.00000000       0.00000000     1589        2        0        0        0
S       73.77348489      32.00809268      10.14003845     183.84000005       0.00000000       0.00000000       0.00000000     1590        2        0        0        0
S       76.57383800      30.47640457      13.26759378     183.84000005       0.00000000       0.00000000       0.00000000     1591        2        0        0        0
S       76.56860592      30.48776989      10.12828152     183.84000005       0.00000000       0.00000000       0.00000000     1592        2        0        0        0
S       79.37554915      28.96483891      13.25615901     183.84000005       0.00000000       0.00000000       0.00000000     1593        2        0        0        0
S       79.37129666      28.97390982      10.11659608     183.84000005       0.00000000       0.00000000       0.00000000     1594        2        0        0        0
S       82.17973751      27.45874777      13.24910678     183.84000005       0.00000000       0.00000000       0.00000000     1595        2        0        0        0
S       82.17988348      27.46347590      10.10936239     183.84000005       0.00000000       0.00000000       0.00000000     1596        2        0        0        0
S       34.64862906      56.61732492      13.02066723     183.84000005       0.00000000       0.00000000       0.00000000     1597        2        0        0        0
S       34.64602007      56.60421964       9.87892251     183.84000005       0.00000000       0.00000000       0.00000000     1598        2        0        0        0
S       37.46000037      55.12411327      13.03219997     183.84000005       0.00000000       0.00000000       0.00000000     1599        2        0        0        0
S       37.46759975      55.10472820       9.89050793     183.84000005       0.00000000       0.00000000       0.00000000     1600        2        0        0        0
S       40.26817991      53.62652444      13.05570513     183.84000005       0.00000000       0.00000000       0.00000000     1601        2        0        0        0
S       40.28521914      53.60180333       9.91415978     183.84000005       0.00000000       0.00000000       0.00000000     1602        2        0        0        0
S       43.07290500      52.12281126      13.08931680     183.84000005       0.00000000       0.00000000       0.00000000     1603        2        0        0        0
S       43.09720593      52.09458046       9.94796392     183.84000005       0.00000000       0.00000000       0.00000000     1604        2        0        0        0
S       45.87398835      50.61119499      13.12915577     183.84000005       0.00000000       0.00000000       0.00000000     1605        2        0        0        0
S       45.90194197      50.58208909       9.98801999     183.84000005       0.00000000       0.00000000       0.00000000     1606        2        0        0        0
S       48.67098220      49.09017217      13.16984808     183.84000005       0.00000000       0.00000000       0.00000000     1607        2        0        0        0
S       48.69858402      49.06296723      10.02904153     183.84000005       0.00000000       0.00000000       0.00000000     1608        2        0        0        0
S       51.46337574      47.55920332      13.20655055     183.84000005       0.00000000       0.00000000       0.00000000     1609        2        0        0        0
S       51.48762290      47.53599596      10.06619636     183.84000005       0.00000000       0.00000000       0.00000000     1610        2        0        0        0
S       54.25100541      46.01908978      13.23655474     183.84000005       0.00000000       0.00000000       0.00000000     1611        2        0        0        0
S       54.27060973      46.00093741      10.09666871     183.84000005       0.00000000       0.00000000       0.00000000     1612        2        0        0        0
S       57.03436062      44.47171405      13.25929707     183.84000005       0.00000000       0.00000000       0.00000000     1613        2        0        0        0
S       57.04948814      44.45874454      10.11982107     183.84000005       0.00000000       0.00000000       0.00000000     1614        2        0        0        0
S       59.81461600      42.91950214      13.27557713     183.84000005       0.00000000       0.00000000       0.00000000     1615        2        0        0        0
S       59.82614615      42.91124373      10.13643633     183.84000005       0.00000000       0.00000000       0.00000000     1616        2        0        0        0
S       62.59345938      41.36499846      13.28666275     183.84000005       0.00000000       0.00000000       0.00000000     1617        2        0        0        0
S       62.60222058      41.36078419      10.14777933     183.84000005       0.00000000       0.00000000       0.00000000     1618        2        0        0        0
S       65.37288914      39.81073330      13.29349754     183.84000005       0.00000000       0.00000000       0.00000000     1619        2        0        0        0
S       65.37910864      39.81003107      10.15478637     183.84000005       0.00000000       0.00000000       0.00000000     1620        2        0        0        0
S       68.15495255      38.25928324      13.29623715     183.84000005       0.00000000       0.00000000       0.00000000     1621        2        0        0        0
S       68.15810117      38.26181226      10.15759710     183.84000005       0.00000000       0.00000000       0.00000000     1622        2        0        0        0
S       70.94139500      36.71334249      13.29435110     183.84000005       0.00000000       0.00000000       0.00000000     1623        2        0        0        0
S       70.94059046      36.71887142      10.15566086     183.84000005       0.00000000       0.00000000       0.00000000     1624        2        0        0        0
S       73.73323496      35.17552672      13.28740163     183.84000005       0.00000000       0.00000000       0.00000000     1625        2        0        0        0
S       73.72814594      35.18341430      10.14854206     183.84000005       0.00000000       0.00000000       0.00000000     1626        2        0        0        0
S       76.53047323      33.64768891      13.27617879     183.84000005       0.00000000       0.00000000       0.00000000     1627        2        0        0        0
S       76.52221178      33.65648025      10.13706283     183.84000005       0.00000000       0.00000000       0.00000000     1628        2        0        0        0
S       79.33213874      32.12995569      13.26338709     183.84000005       0.00000000       0.00000000       0.00000000     1629        2        0        0        0
S       79.32344946      32.13743577      10.12398632     183.84000005       0.00000000       0.00000000       0.00000000     1630        2        0        0        0
S       82.13664636      30.62009964      13.25318400     183.84000005       0.00000000       0.00000000       0.00000000     1631        2        0        0        0
S       82.13107168      30.62394045      10.11355069     183.84000005       0.00000000       0.00000000       0.00000000     1632        2        0        0        0
S       84.94225356      29.11366102      13.24961029     183.84000005       0.00000000       0.00000000       0.00000000     1633        2        0        0        0
S       84.94256775      29.11248116      10.10984262     183.84000005       0.00000000       0.00000000       0.00000000     1634        2        0        0        0
S       34.53157335      59.79698346      13.01328534     183.84000005       0.00000000       0.00000000       0.00000000     1635        2        0        0        0
S       34.52978030      59.79603728       9.87151477     183.84000005       0.00000000       0.00000000       0.00000000     1636        2        0        0        0
S       37.34322961      58.30654310      13.01861656     183.84000005       0.00000000       0.00000000       0.00000000     1637        2        0        0        0
S       37.35173256      58.29885643       9.87687591     183.84000005       0.00000000       0.00000000       0.00000000     1638        2        0        0        0
S       40.15282711      56.81238307      13.03638510     183.84000005       0.00000000       0.00000000       0.00000000     1639        2        0        0        0
S       40.17125482      56.79834732       9.89477079     183.84000005       0.00000000       0.00000000       0.00000000     1640        2        0        0        0
S       42.96012698      55.31273210      13.06553312     183.84000005       0.00000000       0.00000000       0.00000000     1641        2        0        0        0
S       42.98688948      55.29322577       9.92412646     183.84000005       0.00000000       0.00000000       0.00000000     1642        2        0        0        0
S       45.76528962      53.80578298      13.10333254     183.84000005       0.00000000       0.00000000       0.00000000     1643        2        0        0        0
S       45.79705061      53.78237847       9.96212966     183.84000005       0.00000000       0.00000000       0.00000000     1644        2        0        0        0
S       48.56825757      52.28961562      13.14500338     183.84000005       0.00000000       0.00000000       0.00000000     1645        2        0        0        0
S       48.60049089      52.26453332      10.00401928     183.84000005       0.00000000       0.00000000       0.00000000     1646        2        0        0        0
S       51.36840608      50.76284530      13.18503437     183.84000005       0.00000000       0.00000000       0.00000000     1647        2        0        0        0
S       51.39704786      50.73842596      10.04441381     183.84000005       0.00000000       0.00000000       0.00000000     1648        2        0        0        0
S       54.16492913      49.22551548      13.21948667     183.84000005       0.00000000       0.00000000       0.00000000     1649        2        0        0        0
S       54.18776391      49.20355403      10.07933947     183.84000005       0.00000000       0.00000000       0.00000000     1650        2        0        0        0
S       56.95747427      47.67910011      13.24682851     183.84000005       0.00000000       0.00000000       0.00000000     1651        2        0        0        0
S       56.97423659      47.66062456      10.10713611     183.84000005       0.00000000       0.00000000       0.00000000     1652        2        0        0        0
S       59.74643443      46.12593946      13.26726484     183.84000005       0.00000000       0.00000000       0.00000000     1653        2        0        0        0
S       59.75805796      46.11136137      10.12795832     183.84000005       0.00000000       0.00000000       0.00000000     1654        2        0        0        0
S       62.53289006      44.56872019      13.28182031     183.84000005       0.00000000       0.00000000       0.00000000     1655        2        0        0        0
S       62.54061498      44.55810120      10.14282603     183.84000005       0.00000000       0.00000000       0.00000000     1656        2        0        0        0
S       65.31843498      43.01020676      13.29150663     183.84000005       0.00000000       0.00000000       0.00000000     1657        2        0        0        0
S       65.32307167      43.00350563      10.15274496     183.84000005       0.00000000       0.00000000       0.00000000     1658        2        0        0        0
S       68.10493633      41.45320520      13.29672082     183.84000005       0.00000000       0.00000000       0.00000000     1659        2        0        0        0
S       68.10648247      41.45041085      10.15809306     183.84000005       0.00000000       0.00000000       0.00000000     1660        2        0        0        0
S       70.89420507      39.90061042      13.29711228     183.84000005       0.00000000       0.00000000       0.00000000     1661        2        0        0        0
S       70.89200237      39.90165205      10.15849448     183.84000005       0.00000000       0.00000000       0.00000000     1662        2        0        0        0
S       73.68758933      38.35534935      13.29210679     183.84000005       0.00000000       0.00000000       0.00000000     1663        2        0        0        0
S       73.68106684      38.35975693      10.15336441     183.84000005       0.00000000       0.00000000       0.00000000     1664        2        0        0        0
S       76.48560651      36.81990092      13.28194417     183.84000005       0.00000000       0.00000000       0.00000000     1665        2        0        0        0
S       76.47525878      36.82640270      10.14296599     183.84000005       0.00000000       0.00000000       0.00000000     1666        2        0        0        0
S       79.28781703      35.29538864      13.26862616     183.84000005       0.00000000       0.00000000       0.00000000     1667        2        0        0        0
S       79.27577203      35.30181609      10.12935136     183.84000005       0.00000000       0.00000000       0.00000000     1668        2        0        0        0
S       82.09302262      33.78072869      13.25595520     183.84000005       0.00000000       0.00000000       0.00000000     1669        2        0        0        0
S       82.08265961      33.78448529      10.11640016     183.84000005       0.00000000       0.00000000       0.00000000     1670        2        0        0        0
S       84.89962768      32.27238259      13.24839803     183.84000005       0.00000000       0.00000000       0.00000000     1671        2        0        0        0
S       84.89430860      32.27140944      10.10865294     183.84000005       0.00000000       0.00000000       0.00000000     1672        2        0        0        0
S       42.84518998      58.49981016      13.05245082     183.84000005       0.00000000       0.00000000       0.00000000     1673        2        0        0        0
S       42.87332070      58.49111305       9.91092558     183.84000005       0.00000000       0.00000000       0.00000000     1674        2        0        0        0
S       45.65255530      56.99614437      13.08566755     183.84000005       0.00000000       0.00000000       0.00000000     1675        2        0        0        0
S       45.68666616      56.98184258       9.94434345     183.84000005       0.00000000       0.00000000       0.00000000     1676        2        0        0        0
S       48.45923531      55.48356819      13.12479523     183.84000005       0.00000000       0.00000000       0.00000000     1677        2        0        0        0
S       48.49483373      55.46499392       9.98366853     183.84000005       0.00000000       0.00000000       0.00000000     1678        2        0        0        0
S       51.26496472      53.96030766      13.16459698     183.84000005       0.00000000       0.00000000       0.00000000     1679        2        0        0        0
S       51.29733689      53.93933349      10.02375653     183.84000005       0.00000000       0.00000000       0.00000000     1680        2        0        0        0
S       54.06875226      52.42577354      13.20053280     183.84000005       0.00000000       0.00000000       0.00000000     1681        2        0        0        0
S       54.09477773      52.40430735      10.06010747     183.84000005       0.00000000       0.00000000       0.00000000     1682        2        0        0        0
S       56.86958481      50.88095268      13.23026324     183.84000005       0.00000000       0.00000000       0.00000000     1683        2        0        0        0
S       56.88840717      50.86048066      10.09028964     183.84000005       0.00000000       0.00000000       0.00000000     1684        2        0        0        0
S       59.66707979      49.32792554      13.25345998     183.84000005       0.00000000       0.00000000       0.00000000     1685        2        0        0        0
S       59.67950119      49.30948149      10.11389424     183.84000005       0.00000000       0.00000000       0.00000000     1686        2        0        0        0
S       62.46162496      47.76931648      13.27088313     183.84000005       0.00000000       0.00000000       0.00000000     1687        2        0        0        0
S       62.46912170      47.75364759      10.13166300     183.84000005       0.00000000       0.00000000       0.00000000     1688        2        0        0        0
S       65.25427466      46.20794414      13.28347270     183.84000005       0.00000000       0.00000000       0.00000000     1689        2        0        0        0
S       65.25810315      46.19566353      10.14452836     183.84000005       0.00000000       0.00000000       0.00000000     1690        2        0        0        0
S       68.04654493      44.64671133      13.29165482     183.84000005       0.00000000       0.00000000       0.00000000     1691        2        0        0        0
S       68.04716643      44.63836008      10.15290181     183.84000005       0.00000000       0.00000000       0.00000000     1692        2        0        0        0
S       70.84011065      43.08860945      13.29507411     183.84000005       0.00000000       0.00000000       0.00000000     1693        2        0        0        0
S       70.83712812      43.08457277      10.15640358     183.84000005       0.00000000       0.00000000       0.00000000     1694        2        0        0        0
S       73.63643173      41.53673426      13.29293437     183.84000005       0.00000000       0.00000000       0.00000000     1695        2        0        0        0
S       73.62914544      41.53695578      10.15420929     183.84000005       0.00000000       0.00000000       0.00000000     1696        2        0        0        0
S       76.43637698      39.99401734      13.28490011     183.84000005       0.00000000       0.00000000       0.00000000     1697        2        0        0        0
S       76.42474481      39.99759649      10.14598920     183.84000005       0.00000000       0.00000000       0.00000000     1698        2        0        0        0
S       79.23997444      38.46245786      13.27217119     183.84000005       0.00000000       0.00000000       0.00000000     1699        2        0        0        0
S       79.22543596      38.46742229      10.13298252     183.84000005       0.00000000       0.00000000       0.00000000     1700        2        0        0        0
S       82.04644964      36.94215306      13.25796694     183.84000005       0.00000000       0.00000000       0.00000000     1701        2        0        0        0
S       82.03199151      36.94574610      10.11847242     183.84000005       0.00000000       0.00000000       0.00000000     1702        2        0        0        0
S       84.85448378      35.43070884      13.24684935     183.84000005       0.00000000       0.00000000       0.00000000     1703        2        0        0        0
S       84.84373677      35.43023511      10.10711022     183.84000005       0.00000000       0.00000000       0.00000000     1704        2        0        0        0
S       87.66255067      33.92347974      13.24305844     183.84000005       0.00000000       0.00000000       0.00000000     1705        2        0        0        0
S       87.65825498      33.91747475      10.10318466     183.84000005       0.00000000       0.00000000       0.00000000     1706        2        0        0        0
S       48.34769265      58.67310748      13.11344745     183.84000005       0.00000000       0.00000000       0.00000000     1707        2        0        0        0
S       48.38566826      58.66441319       9.97214423     183.84000005       0.00000000       0.00000000       0.00000000     1708        2        0        0        0
S       51.15648585      57.15236537      13.15013486     183.84000005       0.00000000       0.00000000       0.00000000     1709        2        0        0        0
S       51.19198803      57.13932068      10.00910356     183.84000005       0.00000000       0.00000000       0.00000000     1710        2        0        0        0
S       53.96503708      55.62014112      13.18453268     183.84000005       0.00000000       0.00000000       0.00000000     1711        2        0        0        0
S       53.99426859      55.60416893      10.04387674     183.84000005       0.00000000       0.00000000       0.00000000     1712        2        0        0        0
S       56.77212940      54.07701372      13.21392311     183.84000005       0.00000000       0.00000000       0.00000000     1713        2        0        0        0
S       56.79354550      54.05946763      10.07367498     183.84000005       0.00000000       0.00000000       0.00000000     1714        2        0        0        0
S       59.57680879      52.52475437      13.23760654     183.84000005       0.00000000       0.00000000       0.00000000     1715        2        0        0        0
S       59.59088959      52.50680255      10.09774554     183.84000005       0.00000000       0.00000000       0.00000000     1716        2        0        0        0
S       62.37881781      50.96581893      13.25619049     183.84000005       0.00000000       0.00000000       0.00000000     1717        2        0        0        0
S       62.38709697      50.94852372      10.11667508     183.84000005       0.00000000       0.00000000       0.00000000     1718        2        0        0        0
S       65.17863992      49.40294630      13.27061044     183.84000005       0.00000000       0.00000000       0.00000000     1719        2        0        0        0
S       65.18266526      49.38736942      10.13138961     183.84000005       0.00000000       0.00000000       0.00000000     1720        2        0        0        0
S       67.97733802      47.83898407      13.28130861     183.84000005       0.00000000       0.00000000       0.00000000     1721        2        0        0        0
S       67.97792294      47.82620577      10.14231864     183.84000005       0.00000000       0.00000000       0.00000000     1722        2        0        0        0
S       70.77628460      46.27687345      13.28785336     183.84000005       0.00000000       0.00000000       0.00000000     1723        2        0        0        0
S       70.77326938      46.26787867      10.14900758     183.84000005       0.00000000       0.00000000       0.00000000     1724        2        0        0        0
S       73.57682374      44.71970113      13.28914663     183.84000005       0.00000000       0.00000000       0.00000000     1725        2        0        0        0
S       73.56944914      44.71508559      10.15032377     183.84000005       0.00000000       0.00000000       0.00000000     1726        2        0        0        0
S       76.37993083      43.17061358      13.28421525     183.84000005       0.00000000       0.00000000       0.00000000     1727        2        0        0        0
S       76.36771054      43.17014715      10.14527818     183.84000005       0.00000000       0.00000000       0.00000000     1728        2        0        0        0
S       79.18594075      41.63226234      13.27332216     183.84000005       0.00000000       0.00000000       0.00000000     1729        2        0        0        0
S       79.16961761      41.63451622      10.13415487     183.84000005       0.00000000       0.00000000       0.00000000     1730        2        0        0        0
S       81.99444875      40.10584570      13.25880441     183.84000005       0.00000000       0.00000000       0.00000000     1731        2        0        0        0
S       81.97644022      40.10823438      10.11933902     183.84000005       0.00000000       0.00000000       0.00000000     1732        2        0        0        0
S       84.80445566      38.59024619      13.24491216     183.84000005       0.00000000       0.00000000       0.00000000     1733        2        0        0        0
S       84.78836021      38.58968190      10.10516180     183.84000005       0.00000000       0.00000000       0.00000000     1734        2        0        0        0
S       87.61461429      37.08184759      13.23652748     183.84000005       0.00000000       0.00000000       0.00000000     1735        2        0        0        0
S       87.60392444      37.07588315      10.09658235     183.84000005       0.00000000       0.00000000       0.00000000     1736        2        0        0        0
S       53.85797618      58.80978772      13.17637287     183.84000005       0.00000000       0.00000000       0.00000000     1737        2        0        0        0
S       53.89021242      58.80319516      10.03553360     183.84000005       0.00000000       0.00000000       0.00000000     1738        2        0        0        0
S       56.66866575      57.26802210      13.20299223     183.84000005       0.00000000       0.00000000       0.00000000     1739        2        0        0        0
S       56.69298104      57.25809274      10.06253632     183.84000005       0.00000000       0.00000000       0.00000000     1740        2        0        0        0
S       59.47819532      55.71664116      13.22466238     183.84000005       0.00000000       0.00000000       0.00000000     1741        2        0        0        0
S       59.49462576      55.70414408      10.08455431     183.84000005       0.00000000       0.00000000       0.00000000     1742        2        0        0        0
S       62.28590364      54.15792921      13.24203257     183.84000005       0.00000000       0.00000000       0.00000000     1743        2        0        0        0
S       62.29586002      54.14373141      10.10223239     183.84000005       0.00000000       0.00000000       0.00000000     1744        2        0        0        0
S       65.09180456      52.59450478      13.25619343     183.84000005       0.00000000       0.00000000       0.00000000     1745        2        0        0        0
S       65.09696899      52.57966625      10.11666708     183.84000005       0.00000000       0.00000000       0.00000000     1746        2        0        0        0
S       67.89653013      51.02909108      13.26775210     183.84000005       0.00000000       0.00000000       0.00000000     1747        2        0        0        0
S       67.89795324      51.01489049      10.12846269     183.84000005       0.00000000       0.00000000       0.00000000     1748        2        0        0        0
S       70.70108332      49.46447782      13.27632069     183.84000005       0.00000000       0.00000000       0.00000000     1749        2        0        0        0
S       70.69878891      49.45230681      10.13721124     183.84000005       0.00000000       0.00000000       0.00000000     1750        2        0        0        0
S       73.50654441      47.90358824      13.28058883     183.84000005       0.00000000       0.00000000       0.00000000     1751        2        0        0        0
S       73.49974294      47.89467474      10.14156691     183.84000005       0.00000000       0.00000000       0.00000000     1752        2        0        0        0
S       76.31376946      46.34953003      13.27899201     183.84000005       0.00000000       0.00000000       0.00000000     1753        2        0        0        0
S       76.30161335      46.34447023      10.13992770     183.84000005       0.00000000       0.00000000       0.00000000     1754        2        0        0        0
S       79.12315492      44.80528123      13.27080071     183.84000005       0.00000000       0.00000000       0.00000000     1755        2        0        0        0
S       79.10572793      44.80352910      10.13156809     183.84000005       0.00000000       0.00000000       0.00000000     1756        2        0        0        0
S       81.93451497      43.27288495      13.25720434     183.84000005       0.00000000       0.00000000       0.00000000     1757        2        0        0        0
S       81.91354714      43.27251231      10.11770972     183.84000005       0.00000000       0.00000000       0.00000000     1758        2        0        0        0
S       84.74711840      41.75246508      13.24166188     183.84000005       0.00000000       0.00000000       0.00000000     1759        2        0        0        0
S       84.72590227      41.75049887      10.10186974     183.84000005       0.00000000       0.00000000       0.00000000     1760        2        0        0        0
S       87.55984217      40.24165569      13.22910860     183.84000005       0.00000000       0.00000000       0.00000000     1761        2        0        0        0
S       87.54227145      40.23502700      10.08906988     183.84000005       0.00000000       0.00000000       0.00000000     1762        2        0        0        0
S       90.37139994      38.73586406      13.22423998     183.84000005       0.00000000       0.00000000       0.00000000     1763        2        0        0        0
S       90.36045640      38.72273831      10.08405167     183.84000005       0.00000000       0.00000000       0.00000000     1764        2        0        0        0
S       59.37580040      58.90477478      13.21940022     183.84000005       0.00000000       0.00000000       0.00000000     1765        2        0        0        0
S       59.39469334      58.90132797      10.07913642     183.84000005       0.00000000       0.00000000       0.00000000     1766        2        0        0        0
S       62.18664698      57.34631010      13.23336436     183.84000005       0.00000000       0.00000000       0.00000000     1767        2        0        0        0
S       62.19869454      57.33954053      10.09336750     183.84000005       0.00000000       0.00000000       0.00000000     1768        2        0        0        0
S       64.99647211      55.78270540      13.24485669     183.84000005       0.00000000       0.00000000       0.00000000     1769        2        0        0        0
S       65.00335292      55.77316773      10.10508451     183.84000005       0.00000000       0.00000000       0.00000000     1770        2        0        0        0
S       67.80563746      54.21657492      13.25486046     183.84000005       0.00000000       0.00000000       0.00000000     1771        2        0        0        0
S       67.80852005      54.20523938      10.11528769     183.84000005       0.00000000       0.00000000       0.00000000     1772        2        0        0        0
S       70.61485821      52.65055422      13.26325814     183.84000005       0.00000000       0.00000000       0.00000000     1773        2        0        0        0
S       70.61387928      52.63875832      10.12385826     183.84000005       0.00000000       0.00000000       0.00000000     1774        2        0        0        0
S       73.42492331      51.08735827      13.26877428     183.84000005       0.00000000       0.00000000       0.00000000     1775        2        0        0        0
S       73.41926803      51.07658751      10.12949000     183.84000005       0.00000000       0.00000000       0.00000000     1776        2        0        0        0
S       76.23645499      49.52988718      13.26949311     183.84000005       0.00000000       0.00000000       0.00000000     1777        2        0        0        0
S       76.22497886      49.52136089      10.13022009     183.84000005       0.00000000       0.00000000       0.00000000     1778        2        0        0        0
S       79.04971135      47.98112229      13.26385187     183.84000005       0.00000000       0.00000000       0.00000000     1779        2        0        0        0
S       79.03190484      47.97523090      10.12446728     183.84000005       0.00000000       0.00000000       0.00000000     1780        2        0        0        0
S       81.86449822      46.44355921      13.25183018     183.84000005       0.00000000       0.00000000       0.00000000     1781        2        0        0        0
S       81.84136050      46.43938708      10.11222944     183.84000005       0.00000000       0.00000000       0.00000000     1782        2        0        0        0
S       84.68020565      44.91829744      13.23572108     183.84000005       0.00000000       0.00000000       0.00000000     1783        2        0        0        0
S       84.65450561      44.91358263      10.09583712     183.84000005       0.00000000       0.00000000       0.00000000     1784        2        0        0        0
S       87.49589445      43.40422700      13.21988017     183.84000005       0.00000000       0.00000000       0.00000000     1785        2        0        0        0
S       87.47156943      43.39594058      10.07971994     183.84000005       0.00000000       0.00000000       0.00000000     1786        2        0        0        0
S       90.31040419      41.89785558      13.20948731     183.84000005       0.00000000       0.00000000       0.00000000     1787        2        0        0        0
S       90.29129195      41.88335275      10.06912022     183.84000005       0.00000000       0.00000000       0.00000000     1788        2        0        0        0
S       64.89740827      58.96858287      13.24091656     183.84000005       0.00000000       0.00000000       0.00000000     1789        2        0        0        0
S       64.90594471      58.96751068      10.10100816     183.84000005       0.00000000       0.00000000       0.00000000     1790        2        0        0        0
S       67.70851391      57.40186638      13.24715800     183.84000005       0.00000000       0.00000000       0.00000000     1791        2        0        0        0
S       67.71299865      57.39737330      10.10739374     183.84000005       0.00000000       0.00000000       0.00000000     1792        2        0        0        0
S       70.52032530      55.83489818      13.25287277     183.84000005       0.00000000       0.00000000       0.00000000     1793        2        0        0        0
S       70.52093660      55.82773350      10.11323659     183.84000005       0.00000000       0.00000000       0.00000000     1794        2        0        0        0
S       73.33348567      54.27024792      13.25711778     183.84000005       0.00000000       0.00000000       0.00000000     1795        2        0        0        0
S       73.32934936      54.26158155      10.11757614     183.84000005       0.00000000       0.00000000       0.00000000     1796        2        0        0        0
S       76.14840483      52.71059732      13.25797832     183.84000005       0.00000000       0.00000000       0.00000000     1797        2        0        0        0
S       76.13811969      52.70172464      10.11846070     183.84000005       0.00000000       0.00000000       0.00000000     1798        2        0        0        0
S       78.96512316      51.15874589      13.25343186     183.84000005       0.00000000       0.00000000       0.00000000     1799        2        0        0        0
S       78.94766495      51.15060952      10.11383262     183.84000005       0.00000000       0.00000000       0.00000000     1800        2        0        0        0
S       81.78327510      49.61727207      13.24249645     183.84000005       0.00000000       0.00000000       0.00000000     1801        2        0        0        0
S       81.75894498      49.60991483      10.10271523     183.84000005       0.00000000       0.00000000       0.00000000     1802        2        0        0        0
S       84.60217234      48.08782442      13.22623408     183.84000005       0.00000000       0.00000000       0.00000000     1803        2        0        0        0
S       84.57310016      48.08004224      10.08619474     183.84000005       0.00000000       0.00000000       0.00000000     1804        2        0        0        0
S       87.42093327      46.57029077      13.20798415     183.84000005       0.00000000       0.00000000       0.00000000     1805        2        0        0        0
S       87.39080128      46.55977369      10.06766192     183.84000005       0.00000000       0.00000000       0.00000000     1806        2        0        0        0
S       90.23851221      45.06232081      13.19263834     183.84000005       0.00000000       0.00000000       0.00000000     1807        2        0        0        0
S       90.21158444      45.04638924      10.05207981     183.84000005       0.00000000       0.00000000       0.00000000     1808        2        0        0        0
S       93.05380514      43.55962878      13.18510160     183.84000005       0.00000000       0.00000000       0.00000000     1809        2        0        0        0
S       93.03347718      43.53643985      10.04436424     183.84000005       0.00000000       0.00000000       0.00000000     1810        2        0        0        0
S       70.42222586      59.01827607      13.24921896     183.84000005       0.00000000       0.00000000       0.00000000     1811        2        0        0        0
S       70.42423499      59.01882394      10.10944772     183.84000005       0.00000000       0.00000000       0.00000000     1812        2        0        0        0
S       73.23600607      57.45233346      13.24993747     183.84000005       0.00000000       0.00000000       0.00000000     1813        2        0        0        0
S       73.23343623      57.44973609      10.11021229     183.84000005       0.00000000       0.00000000       0.00000000     1814        2        0        0        0
S       76.05229328      55.89106404      13.24841889     183.84000005       0.00000000       0.00000000       0.00000000     1815        2        0        0        0
S       76.04349613      55.88605348      10.10868788     183.84000005       0.00000000       0.00000000       0.00000000     1816        2        0        0        0
S       78.87097954      54.33710308      13.24261936     183.84000005       0.00000000       0.00000000       0.00000000     1817        2        0        0        0
S       78.85448064      54.33048273      10.10279974     183.84000005       0.00000000       0.00000000       0.00000000     1818        2        0        0        0
S       81.69147916      52.79292070      13.23107816     183.84000005       0.00000000       0.00000000       0.00000000     1819        2        0        0        0
S       81.66696651      52.78514387      10.09108199     183.84000005       0.00000000       0.00000000       0.00000000     1820        2        0        0        0
S       84.51290510      51.26031868      13.21395154     183.84000005       0.00000000       0.00000000       0.00000000     1821        2        0        0        0
S       84.48187382      51.25107082      10.07370890     183.84000005       0.00000000       0.00000000       0.00000000     1822        2        0        0        0
S       87.33428055      49.73975192      13.19352176     183.84000005       0.00000000       0.00000000       0.00000000     1823        2        0        0        0
S       87.29999153      49.72775554      10.05300564     183.84000005       0.00000000       0.00000000       0.00000000     1824        2        0        0        0
S       90.15460734      48.22978287      13.17392240     183.84000005       0.00000000       0.00000000       0.00000000     1825        2        0        0        0
S       90.12137468      48.21304527      10.03317096     183.84000005       0.00000000       0.00000000       0.00000000     1826        2        0        0        0
S       92.97282281      46.72703735      13.16013174     183.84000005       0.00000000       0.00000000       0.00000000     1827        2        0        0        0
S       92.94480959      46.70363071      10.01918246     183.84000005       0.00000000       0.00000000       0.00000000     1828        2        0        0        0
S       75.95274489      59.07168958      13.24497130     183.84000005       0.00000000       0.00000000       0.00000000     1829        2        0        0        0
S       75.94540258      59.07389971      10.10510425     183.84000005       0.00000000       0.00000000       0.00000000     1830        2        0        0        0
S       78.77102693      57.51584204      13.23577791     183.84000005       0.00000000       0.00000000       0.00000000     1831        2        0        0        0
S       78.75581890      57.51490794      10.09578449     183.84000005       0.00000000       0.00000000       0.00000000     1832        2        0        0        0
S       81.59192514      55.96958863      13.22143892     183.84000005       0.00000000       0.00000000       0.00000000     1833        2        0        0        0
S       81.56802174      55.96559723      10.08124458     183.84000005       0.00000000       0.00000000       0.00000000     1834        2        0        0        0
S       84.41432848      54.43469869      13.20176422     183.84000005       0.00000000       0.00000000       0.00000000     1835        2        0        0        0
S       84.38269609      54.42755097      10.06131529     183.84000005       0.00000000       0.00000000       0.00000000     1836        2        0        0        0
S       87.23708626      52.91180831      13.17838350     183.84000005       0.00000000       0.00000000       0.00000000     1837        2        0        0        0
S       87.20056523      52.90097681      10.03767429     183.84000005       0.00000000       0.00000000       0.00000000     1838        2        0        0        0
S       90.05917168      51.39999814      13.15468901     183.84000005       0.00000000       0.00000000       0.00000000     1839        2        0        0        0
S       90.02191334      51.38441768      10.01377520     183.84000005       0.00000000       0.00000000       0.00000000     1840        2        0        0        0
S       92.87959310      49.89662558      13.13523553     183.84000005       0.00000000       0.00000000       0.00000000     1841        2        0        0        0
S       92.84605412      49.87495700       9.99415864     183.84000005       0.00000000       0.00000000       0.00000000     1842        2        0        0        0
S       95.69737286      48.39780286      13.12441158     183.84000005       0.00000000       0.00000000       0.00000000     1843        2        0        0        0
S       95.67103391      48.36904424       9.98315305     183.84000005       0.00000000       0.00000000       0.00000000     1844        2        0        0        0
S       81.48918641      59.14728113      13.21796608     183.84000005       0.00000000       0.00000000       0.00000000     1845        2        0        0        0
S       81.46627849      59.15074073      10.07761606     183.84000005       0.00000000       0.00000000       0.00000000     1846        2        0        0        0
S       84.31038137      57.61030906      13.19406256     183.84000005       0.00000000       0.00000000       0.00000000     1847        2        0        0        0
S       84.27905501      57.60946208      10.05341995     183.84000005       0.00000000       0.00000000       0.00000000     1848        2        0        0        0
S       87.13261983      56.08552807      13.16635095     183.84000005       0.00000000       0.00000000       0.00000000     1849        2        0        0        0
S       87.09544149      56.07984320      10.02544797     183.84000005       0.00000000       0.00000000       0.00000000     1850        2        0        0        0
S       89.95480723      54.57219546      13.13795411     183.84000005       0.00000000       0.00000000       0.00000000     1851        2        0        0        0
S       89.91576646      54.56114048       9.99688979     183.84000005       0.00000000       0.00000000       0.00000000     1852        2        0        0        0
S       92.77605040      53.06807904      13.11304651     183.84000005       0.00000000       0.00000000       0.00000000     1853        2        0        0        0
S       92.73960840      53.05102257       9.97189102     183.84000005       0.00000000       0.00000000       0.00000000     1854        2        0        0        0
S       95.59546074      51.56979193      13.09588004     183.84000005       0.00000000       0.00000000       0.00000000     1855        2        0        0        0
S       95.56544616      51.54612563       9.95459126     183.84000005       0.00000000       0.00000000       0.00000000     1856        2        0        0        0
S       87.02551606      59.26071382      13.16169811     183.84000005       0.00000000       0.00000000       0.00000000     1857        2        0        0        0
S       86.98854119      59.26367424      10.02059888     183.84000005       0.00000000       0.00000000       0.00000000     1858        2        0        0        0
S       89.84580995      57.74582424      13.12778114     183.84000005       0.00000000       0.00000000       0.00000000     1859        2        0        0        0
S       89.80645487      57.74292930       9.98652469     183.84000005       0.00000000       0.00000000       0.00000000     1860        2        0        0        0
S       92.66603890      56.24088845      13.09712966     183.84000005       0.00000000       0.00000000       0.00000000     1861        2        0        0        0
S       92.62875249      56.23174119       9.95583854     183.84000005       0.00000000       0.00000000       0.00000000     1862        2        0        0        0
S       95.48549597      54.74278859      13.07388313     183.84000005       0.00000000       0.00000000       0.00000000     1863        2        0        0        0
S       95.45411973      54.72717253       9.93253047     183.84000005       0.00000000       0.00000000       0.00000000     1864        2        0        0        0
S       98.30330909      53.24811058      13.06105601     183.84000005       0.00000000       0.00000000       0.00000000     1865        2        0        0        0
S       98.28040729      53.22587271       9.91957320     183.84000005       0.00000000       0.00000000       0.00000000     1866        2        0        0        0
S       92.55407732      59.41506558      13.09078329     183.84000005       0.00000000       0.00000000       0.00000000     1867        2        0        0        0
S       92.51701414      59.41636527       9.94930722     183.84000005       0.00000000       0.00000000       0.00000000     1868        2        0        0        0
S       95.37174757      57.91675389      13.06140906     183.84000005       0.00000000       0.00000000       0.00000000     1869        2        0        0        0
S       95.34046238      57.91160020       9.91991841     183.84000005       0.00000000       0.00000000       0.00000000     1870        2        0        0        0
S       98.18907314      56.42303658      13.04234240     183.84000005       0.00000000       0.00000000       0.00000000     1871        2        0        0        0
S       98.16608572      56.41133765       9.90077463     183.84000005       0.00000000       0.00000000       0.00000000     1872        2        0        0        0
S       98.07339614      59.59873616      13.03513582     183.84000005       0.00000000       0.00000000       0.00000000     1873        2        0        0        0
S       98.05108596      59.59886994       9.89347297     183.84000005       0.00000000       0.00000000       0.00000000     1874        2        0        0        0
S      100.88850417      58.10807646      13.02167580     183.84000005       0.00000000       0.00000000       0.00000000     1875        2        0        0        0
S      100.87575723      58.10159403       9.87995614     183.84000005       0.00000000       0.00000000       0.00000000     1876        2        0        0        0
S        2.80432433       1.52450944      19.80212656     183.84000005       0.00000000       0.00000000       0.00000000     1877        2        0        0        0
S        2.79621514       1.51917666      16.64188446     183.84000005       0.00000000       0.00000000       0.00000000     1878        2        0        0        0
S        2.91321493       4.71581671      19.79122479     183.84000005       0.00000000       0.00000000       0.00000000     1879        2        0        0        0
S        2.90585465       4.69898969      16.63101507     183.84000005       0.00000000       0.00000000       0.00000000     1880        2        0        0        0
S        5.62481720       3.02347900      19.78630742     183.84000005       0.00000000       0.00000000       0.00000000     1881        2        0        0        0
S        5.60744671       3.01199881      16.62605369     183.84000005       0.00000000       0.00000000       0.00000000     1882        2        0        0        0
S        8.33668875       1.33529704      19.76979275     183.84000005       0.00000000       0.00000000       0.00000000     1883        2        0        0        0
S        8.31013331       1.32928560      16.60954449     183.84000005       0.00000000       0.00000000       0.00000000     1884        2        0        0        0
S        5.73039151       6.21421228      19.77001253     183.84000005       0.00000000       0.00000000       0.00000000     1885        2        0        0        0
S        5.71407409       6.19203278      16.60977621     183.84000005       0.00000000       0.00000000       0.00000000     1886        2        0        0        0
S        8.44319652       4.52483665      19.75944369     183.84000005       0.00000000       0.00000000       0.00000000     1887        2        0        0        0
S        8.41755223       4.50793066      16.59912316     183.84000005       0.00000000       0.00000000       0.00000000     1888        2        0        0        0
S       11.15556322       2.84113488      19.73832501     183.84000005       0.00000000       0.00000000       0.00000000     1889        2        0        0        0
S       11.12256100       2.82945588      16.57796742     183.84000005       0.00000000       0.00000000       0.00000000     1890        2        0        0        0
S       13.86714382       1.16482951      19.70911641     183.84000005       0.00000000       0.00000000       0.00000000     1891        2        0        0        0
S       13.83022087       1.15806416      16.54879826     183.84000005       0.00000000       0.00000000       0.00000000     1892        2        0        0        0
S        5.82962546       9.40554590      19.74386117     183.84000005       0.00000000       0.00000000       0.00000000     1893        2        0        0        0
S        5.81517336       9.37489959      16.58367671     183.84000005       0.00000000       0.00000000       0.00000000     1894        2        0        0        0
S        8.54389752       7.71562509      19.73890300     183.84000005       0.00000000       0.00000000       0.00000000     1895        2        0        0        0
S        8.51984321       7.68975886      16.57856261     183.84000005       0.00000000       0.00000000       0.00000000     1896        2        0        0        0
S       11.25733666       6.03099326      19.72328360     183.84000005       0.00000000       0.00000000       0.00000000     1897        2        0        0        0
S       11.22549981       6.00991704      16.56283815     183.84000005       0.00000000       0.00000000       0.00000000     1898        2        0        0        0
S       13.96959054       4.35363384      19.69938952     183.84000005       0.00000000       0.00000000       0.00000000     1899        2        0        0        0
S       13.93345102       4.33717449      16.53893265     183.84000005       0.00000000       0.00000000       0.00000000     1900        2        0        0        0
S       16.68050354       2.68505341      19.67097817     183.84000005       0.00000000       0.00000000       0.00000000     1901        2        0        0        0
S       16.64446392       2.67310145      16.51068605     183.84000005       0.00000000       0.00000000       0.00000000     1902        2        0        0        0
S       19.39054215       1.02616127      19.64223339     183.84000005       0.00000000       0.00000000       0.00000000     1903        2        0        0        0
S       19.35861994       1.01865451      16.48228408     183.84000005       0.00000000       0.00000000       0.00000000     1904        2        0        0        0
S        8.63661464      10.90758128      19.71111981     183.84000005       0.00000000       0.00000000       0.00000000     1905        2        0        0        0
S        8.61553042      10.87618125      16.55082095     183.84000005       0.00000000       0.00000000       0.00000000     1906        2        0        0        0
S       11.35155666       9.22237013      19.70043242     183.84000005       0.00000000       0.00000000       0.00000000     1907        2        0        0        0
S       11.32200630       9.19513849      16.53999441     183.84000005       0.00000000       0.00000000       0.00000000     1908        2        0        0        0
S       14.06519202       7.54418600      19.68118462     183.84000005       0.00000000       0.00000000       0.00000000     1909        2        0        0        0
S       14.03063569       7.52084559      16.52071747     183.84000005       0.00000000       0.00000000       0.00000000     1910        2        0        0        0
S       16.77732955       5.87478674      19.65726393     183.84000005       0.00000000       0.00000000       0.00000000     1911        2        0        0        0
S       16.74237444       5.85518578      16.49693726     183.84000005       0.00000000       0.00000000       0.00000000     1912        2        0        0        0
S       19.48826673       4.21513766      19.63298405     183.84000005       0.00000000       0.00000000       0.00000000     1913        2        0        0        0
S       19.45722860       4.19943062      16.47295842     183.84000005       0.00000000       0.00000000       0.00000000     1914        2        0        0        0
S       22.19872803       2.56528603      19.61175286     183.84000005       0.00000000       0.00000000       0.00000000     1915        2        0        0        0
S       22.17439155       2.55380992      16.45208830     183.84000005       0.00000000       0.00000000       0.00000000     1916        2        0        0        0
S       24.90949870       0.92436497      19.59531917     183.84000005       0.00000000       0.00000000       0.00000000     1917        2        0        0        0
S       24.89270174       0.91742801      16.43598060     183.84000005       0.00000000       0.00000000       0.00000000     1918        2        0        0        0
S        8.71977967      14.10106190      19.68021065     183.84000005       0.00000000       0.00000000       0.00000000     1919        2        0        0        0
S        8.70335732      14.06835061      16.52007286     183.84000005       0.00000000       0.00000000       0.00000000     1920        2        0        0        0
S       11.43633578      12.41560558      19.67389794     183.84000005       0.00000000       0.00000000       0.00000000     1921        2        0        0        0
S       11.41068920      12.38644192      16.51361102     183.84000005       0.00000000       0.00000000       0.00000000     1922        2        0        0        0
S       14.15166063      10.73657038      19.65852709     183.84000005       0.00000000       0.00000000       0.00000000     1923        2        0        0        0
S       14.11997332      10.71061753      16.49820994     183.84000005       0.00000000       0.00000000       0.00000000     1924        2        0        0        0
S       16.86562580       9.06621323      19.63803203     183.84000005       0.00000000       0.00000000       0.00000000     1925        2        0        0        0
S       16.83262962       9.04302030      16.47784768     183.84000005       0.00000000       0.00000000       0.00000000     1926        2        0        0        0
S       19.57847093       7.40575394      19.61706549     183.84000005       0.00000000       0.00000000       0.00000000     1927        2        0        0        0
S       19.54880628       7.38522911      16.45714540     183.84000005       0.00000000       0.00000000       0.00000000     1928        2        0        0        0
S       22.29077328       5.75532773      19.59935168     183.84000005       0.00000000       0.00000000       0.00000000     1929        2        0        0        0
S       22.26755426       5.73780341      16.43973498     183.84000005       0.00000000       0.00000000       0.00000000     1930        2        0        0        0
S       25.00312636       4.11407609      19.58675463     183.84000005       0.00000000       0.00000000       0.00000000     1931        2        0        0        0
S       24.98739135       4.10011729      16.42740439     183.84000005       0.00000000       0.00000000       0.00000000     1932        2        0        0        0
S       27.71582435       2.48037218      19.57932698     183.84000005       0.00000000       0.00000000       0.00000000     1933        2        0        0        0
S       27.70697073       2.47050898      16.42017163     183.84000005       0.00000000       0.00000000       0.00000000     1934        2        0        0        0
S       30.42878024       0.85211437      19.57603161     183.84000005       0.00000000       0.00000000       0.00000000     1935        2        0        0        0
S       30.42544770       0.84668294      16.41699897     183.84000005       0.00000000       0.00000000       0.00000000     1936        2        0        0        0
S       11.51091666      15.61153564      19.64789169     183.84000005       0.00000000       0.00000000       0.00000000     1937        2        0        0        0
S       11.49075345      15.58427795      16.48788438     183.84000005       0.00000000       0.00000000       0.00000000     1938        2        0        0        0
S       14.22785234      13.93158236      19.63595989     183.84000005       0.00000000       0.00000000       0.00000000     1939        2        0        0        0
S       14.20048967      13.90718093      16.47591437     183.84000005       0.00000000       0.00000000       0.00000000     1940        2        0        0        0
S       16.94374933      12.25985558      19.61802310     183.84000005       0.00000000       0.00000000       0.00000000     1941        2        0        0        0
S       16.91378998      12.23758436      16.45810049     183.84000005       0.00000000       0.00000000       0.00000000     1942        2        0        0        0
S       19.65888801      10.59806944      19.59901068     183.84000005       0.00000000       0.00000000       0.00000000     1943        2        0        0        0
S       19.63123649      10.57734660      16.43933111     183.84000005       0.00000000       0.00000000       0.00000000     1944        2        0        0        0
S       22.37380499       8.94662510      19.58316205     183.84000005       0.00000000       0.00000000       0.00000000     1945        2        0        0        0
S       22.35195713       8.92736325      16.42374832     183.84000005       0.00000000       0.00000000       0.00000000     1946        2        0        0        0
S       25.08898374       7.30476619      19.57275785     183.84000005       0.00000000       0.00000000       0.00000000     1947        2        0        0        0
S       25.07426603       7.28734421      16.41355947     183.84000005       0.00000000       0.00000000       0.00000000     1948        2        0        0        0
S       27.80453051       5.67087067      19.56801766     183.84000005       0.00000000       0.00000000       0.00000000     1949        2        0        0        0
S       27.79647982       5.65589090      16.40895079     183.84000005       0.00000000       0.00000000       0.00000000     1950        2        0        0        0
S       30.52008350       4.04280422      19.56787500     183.84000005       0.00000000       0.00000000       0.00000000     1951        2        0        0        0
S       30.51743535       4.03086665      16.40886090     183.84000005       0.00000000       0.00000000       0.00000000     1952        2        0        0        0
S       33.23500101       2.41821042      19.57092397     183.84000005       0.00000000       0.00000000       0.00000000     1953        2        0        0        0
S       33.23652386       2.40985704      16.41191250     183.84000005       0.00000000       0.00000000       0.00000000     1954        2        0        0        0
S       35.94859819       0.79462831      19.57596834     183.84000005       0.00000000       0.00000000       0.00000000     1955        2        0        0        0
S       35.95348117       0.79042695      16.41693585     183.84000005       0.00000000       0.00000000       0.00000000     1956        2        0        0        0
S       11.57588934      18.81103865      19.62530529     183.84000005       0.00000000       0.00000000       0.00000000     1957        2        0        0        0
S       11.56222272      18.78800916      16.46561694     183.84000005       0.00000000       0.00000000       0.00000000     1958        2        0        0        0
S       14.29402561      17.13027719      19.61685933     183.84000005       0.00000000       0.00000000       0.00000000     1959        2        0        0        0
S       14.27218392      17.11009908      16.45711392     183.84000005       0.00000000       0.00000000       0.00000000     1960        2        0        0        0
S       17.01152815      15.45677819      19.60124413     183.84000005       0.00000000       0.00000000       0.00000000     1961        2        0        0        0
S       16.98559108      15.43868763      16.44159971     183.84000005       0.00000000       0.00000000       0.00000000     1962        2        0        0        0
S       19.72877828      13.79293985      19.58333728     183.84000005       0.00000000       0.00000000       0.00000000     1963        2        0        0        0
S       19.70372234      13.77589784      16.42392068     183.84000005       0.00000000       0.00000000       0.00000000     1964        2        0        0        0
S       22.44637150      12.13965165      19.56788436     183.84000005       0.00000000       0.00000000       0.00000000     1965        2        0        0        0
S       22.42609141      12.12295854      16.40872263     183.84000005       0.00000000       0.00000000       0.00000000     1966        2        0        0        0
S       25.16479238      10.49641371      19.55778977     183.84000005       0.00000000       0.00000000       0.00000000     1967        2        0        0        0
S       25.15101703      10.47994382      16.39883029     183.84000005       0.00000000       0.00000000       0.00000000     1968        2        0        0        0
S       27.88406104       8.86170097      19.55371144     183.84000005       0.00000000       0.00000000       0.00000000     1969        2        0        0        0
S       27.87655966       8.84577654      16.39485862     183.84000005       0.00000000       0.00000000       0.00000000     1970        2        0        0        0
S       30.60361241       7.23338852      19.55477314     183.84000005       0.00000000       0.00000000       0.00000000     1971        2        0        0        0
S       30.60122652       7.21853373      16.39592853     183.84000005       0.00000000       0.00000000       0.00000000     1972        2        0        0        0
S       33.32248221       5.60910252      19.55965172     183.84000005       0.00000000       0.00000000       0.00000000     1973        2        0        0        0
S       33.32413290       5.59591105      16.40074687     183.84000005       0.00000000       0.00000000       0.00000000     1974        2        0        0        0
S       36.03961844       3.98635478      19.56729802     183.84000005       0.00000000       0.00000000       0.00000000     1975        2        0        0        0
S       36.04479294       3.97554634      16.40830050     183.84000005       0.00000000       0.00000000       0.00000000     1976        2        0        0        0
S       38.75411470       2.36254834      19.57709218     183.84000005       0.00000000       0.00000000       0.00000000     1977        2        0        0        0
S       38.76288352       2.35508899      16.41798996     183.84000005       0.00000000       0.00000000       0.00000000     1978        2        0        0        0
S       41.46534689       0.73505350      19.58872557     183.84000005       0.00000000       0.00000000       0.00000000     1979        2        0        0        0
S       41.47814735       0.73212033      16.42951166     183.84000005       0.00000000       0.00000000       0.00000000     1980        2        0        0        0
S       14.35168205      20.33338451      19.60249515     183.84000005       0.00000000       0.00000000       0.00000000     1981        2        0        0        0
S       14.33598151      20.31811505      16.44301598     183.84000005       0.00000000       0.00000000       0.00000000     1982        2        0        0        0
S       17.07018340      18.65797083      19.58962117     183.84000005       0.00000000       0.00000000       0.00000000     1983        2        0        0        0
S       17.04891577      18.64519620      16.43020822     183.84000005       0.00000000       0.00000000       0.00000000     1984        2        0        0        0
S       19.78895476      16.99144929      19.57278632     183.84000005       0.00000000       0.00000000       0.00000000     1985        2        0        0        0
S       19.76685492      16.97992729      16.41358129     183.84000005       0.00000000       0.00000000       0.00000000     1986        2        0        0        0
S       22.50870900      15.33539000      19.55701037     183.84000005       0.00000000       0.00000000       0.00000000     1987        2        0        0        0
S       22.49000380      15.32387751      16.39806051     183.84000005       0.00000000       0.00000000       0.00000000     1988        2        0        0        0
S       25.23003866      13.68974452      19.54588811     183.84000005       0.00000000       0.00000000       0.00000000     1989        2        0        0        0
S       25.21698085      13.67751490      16.38715125     183.84000005       0.00000000       0.00000000       0.00000000     1990        2        0        0        0
S       27.95301738      12.05321688      19.54071954     183.84000005       0.00000000       0.00000000       0.00000000     1991        2        0        0        0
S       27.94575660      12.04013569      16.38210398     183.84000005       0.00000000       0.00000000       0.00000000     1992        2        0        0        0
S       30.67701257      10.42376535      19.54100355     183.84000005       0.00000000       0.00000000       0.00000000     1993        2        0        0        0
S       30.67454063      10.41006952      16.38240128     183.84000005       0.00000000       0.00000000       0.00000000     1994        2        0        0        0
S       33.40084251       8.79904457      19.54559161     183.84000005       0.00000000       0.00000000       0.00000000     1995        2        0        0        0
S       33.40215126       8.78512360      16.38691349     183.84000005       0.00000000       0.00000000       0.00000000     1996        2        0        0        0
S       36.12309820       7.17659707      19.55363260     183.84000005       0.00000000       0.00000000       0.00000000     1997        2        0        0        0
S       36.12786957       7.16296821      16.39481953     183.84000005       0.00000000       0.00000000       0.00000000     1998        2        0        0        0
S       38.84246286       5.55382246      19.56486974     183.84000005       0.00000000       0.00000000       0.00000000     1999        2        0        0        0
S       38.85114522       5.54129395      16.40588273     183.84000005       0.00000000       0.00000000       0.00000000     2000        2        0        0        0
S       41.55795726       3.92795479      19.57941423     183.84000005       0.00000000       0.00000000       0.00000000     2001        2        0        0        0
S       41.57140946       3.91778102      16.42022351     183.84000005       0.00000000       0.00000000       0.00000000     2002        2        0        0        0
S       44.26911255       2.29623267      19.59733271     183.84000005       0.00000000       0.00000000       0.00000000     2003        2        0        0        0
S       44.28807855       2.29002346      16.43792692     183.84000005       0.00000000       0.00000000       0.00000000     2004        2        0        0        0
S       46.97605171       0.65625511      19.61831428     183.84000005       0.00000000       0.00000000       0.00000000     2005        2        0        0        0
S       47.00069355       0.65554722      16.45870768     183.84000005       0.00000000       0.00000000       0.00000000     2006        2        0        0        0
S       14.40307112      23.54090605      19.59221684     183.84000005       0.00000000       0.00000000       0.00000000     2007        2        0        0        0
S       14.39349466      23.52972141      16.43295287     183.84000005       0.00000000       0.00000000       0.00000000     2008        2        0        0        0
S       17.12187221      21.86381935      19.58284224     183.84000005       0.00000000       0.00000000       0.00000000     2009        2        0        0        0
S       17.10552162      21.85564668      16.42359550     183.84000005       0.00000000       0.00000000       0.00000000     2010        2        0        0        0
S       19.84138630      20.19430289      19.56773212     183.84000005       0.00000000       0.00000000       0.00000000     2011        2        0        0        0
S       19.82237233      20.18802520      16.40865812     183.84000005       0.00000000       0.00000000       0.00000000     2012        2        0        0        0
S       22.56245078      18.53472023      19.55177133     183.84000005       0.00000000       0.00000000       0.00000000     2013        2        0        0        0
S       22.54515512      18.52879687      16.39295134     183.84000005       0.00000000       0.00000000       0.00000000     2014        2        0        0        0
S       25.28582993      16.88565933      19.53914686     183.84000005       0.00000000       0.00000000       0.00000000     2015        2        0        0        0
S       25.27310044      16.87886196      16.38056092     183.84000005       0.00000000       0.00000000       0.00000000     2016        2        0        0        0
S       28.01178188      15.24621273      19.53192916     183.84000005       0.00000000       0.00000000       0.00000000     2017        2        0        0        0
S       28.00433797      15.23795383      16.37349779     183.84000005       0.00000000       0.00000000       0.00000000     2018        2        0        0        0
S       30.73978127      13.61451793      19.53015120     183.84000005       0.00000000       0.00000000       0.00000000     2019        2        0        0        0
S       30.73688968      13.60472661      16.37176802     183.84000005       0.00000000       0.00000000       0.00000000     2020        2        0        0        0
S       33.46858759      11.98829693      19.53288405     183.84000005       0.00000000       0.00000000       0.00000000     2021        2        0        0        0
S       33.46927084      11.97712051      16.37445135     183.84000005       0.00000000       0.00000000       0.00000000     2022        2        0        0        0
S       36.19656906      10.36516497      19.53939450     183.84000005       0.00000000       0.00000000       0.00000000     2023        2        0        0        0
S       36.20052431      10.35280125      16.38083585     183.84000005       0.00000000       0.00000000       0.00000000     2024        2        0        0        0
S       38.92203390       8.74261752      19.54971274     183.84000005       0.00000000       0.00000000       0.00000000     2025        2        0        0        0
S       38.92991128       8.72940075      16.39096038     183.84000005       0.00000000       0.00000000       0.00000000     2026        2        0        0        0
S       41.64355263       7.11791479      19.56450590     183.84000005       0.00000000       0.00000000       0.00000000     2027        2        0        0        0
S       41.65662911       7.10458217      16.40549263     183.84000005       0.00000000       0.00000000       0.00000000     2028        2        0        0        0
S       44.36023134       5.48812301      19.58448202     183.84000005       0.00000000       0.00000000       0.00000000     2029        2        0        0        0
S       44.37969375       5.47602285      16.42515373     183.84000005       0.00000000       0.00000000       0.00000000     2030        2        0        0        0
S       47.07191339       3.85043174      19.60965347     183.84000005       0.00000000       0.00000000       0.00000000     2031        2        0        0        0
S       47.09807344       3.84140921      16.45000399     183.84000005       0.00000000       0.00000000       0.00000000     2032        2        0        0        0
S       49.77916384       2.20271058      19.63887221     183.84000005       0.00000000       0.00000000       0.00000000     2033        2        0        0        0
S       49.81106168       2.19858863      16.47895327     183.84000005       0.00000000       0.00000000       0.00000000     2034        2        0        0        0
S       52.48301669       0.54401465      19.66999503     183.84000005       0.00000000       0.00000000       0.00000000     2035        2        0        0        0
S       52.51859451       0.54589683      16.50991169     183.84000005       0.00000000       0.00000000       0.00000000     2036        2        0        0        0
S       17.16909974      25.07388594      19.57927399     183.84000005       0.00000000       0.00000000       0.00000000     2037        2        0        0        0
S       17.15766792      25.06880118      16.42013917     183.84000005       0.00000000       0.00000000       0.00000000     2038        2        0        0        0
S       19.88856757      23.40146070      19.56684754     183.84000005       0.00000000       0.00000000       0.00000000     2039        2        0        0        0
S       19.87271092      23.39898183      16.40782675     183.84000005       0.00000000       0.00000000       0.00000000     2040        2        0        0        0
S       22.61000971      21.73794045      19.55143946     183.84000005       0.00000000       0.00000000       0.00000000     2041        2        0        0        0
S       22.59397012      21.73651986      16.39265326     183.84000005       0.00000000       0.00000000       0.00000000     2042        2        0        0        0
S       25.33436050      20.08469110      19.53757711     183.84000005       0.00000000       0.00000000       0.00000000     2043        2        0        0        0
S       25.32154910      20.08277975      16.37904467     183.84000005       0.00000000       0.00000000       0.00000000     2044        2        0        0        0
S       28.06213057      18.44135344      19.52814174     183.84000005       0.00000000       0.00000000       0.00000000     2045        2        0        0        0
S       28.05401679      18.43799863      16.36980394     183.84000005       0.00000000       0.00000000       0.00000000     2046        2        0        0        0
S       30.79305391      16.80635506      19.52386529     183.84000005       0.00000000       0.00000000       0.00000000     2047        2        0        0        0
S       30.78938865      16.80125807      16.36562422     183.84000005       0.00000000       0.00000000       0.00000000     2048        2        0        0        0
S       33.52602572      15.17752938      19.52411827     183.84000005       0.00000000       0.00000000       0.00000000     2049        2        0        0        0
S       33.52592550      15.17072670      16.36587297     183.84000005       0.00000000       0.00000000       0.00000000     2050        2        0        0        0
S       36.25937097      13.55256175      19.52816755     183.84000005       0.00000000       0.00000000       0.00000000     2051        2        0        0        0
S       36.26240939      13.54408076      16.36983598     183.84000005       0.00000000       0.00000000       0.00000000     2052        2        0        0        0
S       38.99118593      11.92908440      19.53606863     183.84000005       0.00000000       0.00000000       0.00000000     2053        2        0        0        0
S       38.99794303      11.91884254      16.37756983     183.84000005       0.00000000       0.00000000       0.00000000     2054        2        0        0        0
S       41.71964649      10.30452630      19.54882554     183.84000005       0.00000000       0.00000000       0.00000000     2055        2        0        0        0
S       41.73158711      10.29252571      16.39006761     183.84000005       0.00000000       0.00000000       0.00000000     2056        2        0        0        0
S       44.44335545       8.67601835      19.56787261     183.84000005       0.00000000       0.00000000       0.00000000     2057        2        0        0        0
S       44.46211203       8.66272864      16.40875939     183.84000005       0.00000000       0.00000000       0.00000000     2058        2        0        0        0
S       47.16165089       7.04055138      19.59408033     183.84000005       0.00000000       0.00000000       0.00000000     2059        2        0        0        0
S       47.18798171       7.02720258      16.43454711     183.84000005       0.00000000       0.00000000       0.00000000     2060        2        0        0        0
S       49.87474974       5.39549037      19.62676408     183.84000005       0.00000000       0.00000000       0.00000000     2061        2        0        0        0
S       49.90776545       5.38397742      16.46682565     183.84000005       0.00000000       0.00000000       0.00000000     2062        2        0        0        0
S       52.58355796       3.73924629      19.66339538     183.84000005       0.00000000       0.00000000       0.00000000     2063        2        0        0        0
S       52.62078486       3.73154989      16.50317544     183.84000005       0.00000000       0.00000000       0.00000000     2064        2        0        0        0
S       55.28932369       2.07172804      19.70032822     183.84000005       0.00000000       0.00000000       0.00000000     2065        2        0        0        0
S       55.32738299       2.06915601      16.54003853     183.84000005       0.00000000       0.00000000       0.00000000     2066        2        0        0        0
S       57.99332690       0.39435576      19.73385548     183.84000005       0.00000000       0.00000000       0.00000000     2067        2        0        0        0
S       58.02859577       0.39725223      16.57366289     183.84000005       0.00000000       0.00000000       0.00000000     2068        2        0        0        0
S       17.21431822      28.28702034      19.57721233     183.84000005       0.00000000       0.00000000       0.00000000     2069        2        0        0        0
S       17.20777285      28.28383837      16.41816216     183.84000005       0.00000000       0.00000000       0.00000000     2070        2        0        0        0
S       19.93302497      26.61215592      19.56835786     183.84000005       0.00000000       0.00000000       0.00000000     2071        2        0        0        0
S       19.92056899      26.61205735      16.40934499     183.84000005       0.00000000       0.00000000       0.00000000     2072        2        0        0        0
S       22.65398170      24.94465224      19.55447629     183.84000005       0.00000000       0.00000000       0.00000000     2073        2        0        0        0
S       22.63931819      24.94635546      16.39564984     183.84000005       0.00000000       0.00000000       0.00000000     2074        2        0        0        0
S       25.37824396      23.28675090      19.54005066     183.84000005       0.00000000       0.00000000       0.00000000     2075        2        0        0        0
S       25.36516690      23.28857195      16.38147978     183.84000005       0.00000000       0.00000000       0.00000000     2076        2        0        0        0
S       28.10658007      21.63879546      19.52870685     183.84000005       0.00000000       0.00000000       0.00000000     2077        2        0        0        0
S       28.09741199      21.63948794      16.37036405     183.84000005       0.00000000       0.00000000       0.00000000     2078        2        0        0        0
S       30.83905775      19.99962983      19.52203956     183.84000005       0.00000000       0.00000000       0.00000000     2079        2        0        0        0
S       30.83428293      19.99871054      16.36384326     183.84000005       0.00000000       0.00000000       0.00000000     2080        2        0        0        0
S       33.57487359      18.36726079      19.51989535     183.84000005       0.00000000       0.00000000       0.00000000     2081        2        0        0        0
S       33.57388632      18.36477859      16.36174738     183.84000005       0.00000000       0.00000000       0.00000000     2082        2        0        0        0
S       36.31249888      16.73942445      19.52152745     183.84000005       0.00000000       0.00000000       0.00000000     2083        2        0        0        0
S       36.31473429      16.73548999      16.36334247     183.84000005       0.00000000       0.00000000       0.00000000     2084        2        0        0        0
S       39.05000925      15.11384897      19.52674602     183.84000005       0.00000000       0.00000000       0.00000000     2085        2        0        0        0
S       39.05574595      15.10828834      16.36844154     183.84000005       0.00000000       0.00000000       0.00000000     2086        2        0        0        0
S       41.78537082      13.48818334      19.53646037     183.84000005       0.00000000       0.00000000       0.00000000     2087        2        0        0        0
S       41.79591074      13.48050962      16.37793564     183.84000005       0.00000000       0.00000000       0.00000000     2088        2        0        0        0
S       44.51676019      11.85980692      19.55246728     183.84000005       0.00000000       0.00000000       0.00000000     2089        2        0        0        0
S       44.53391929      11.84953051      16.39360905     183.84000005       0.00000000       0.00000000       0.00000000     2090        2        0        0        0
S       47.24294077      10.22581064      19.57652556     183.84000005       0.00000000       0.00000000       0.00000000     2091        2        0        0        0
S       47.26797232      10.21296436      16.41722677     183.84000005       0.00000000       0.00000000       0.00000000     2092        2        0        0        0
S       49.96353334       8.58332282      19.60902180     183.84000005       0.00000000       0.00000000       0.00000000     2093        2        0        0        0
S       49.99602648       8.56888519      16.44922468     183.84000005       0.00000000       0.00000000       0.00000000     2094        2        0        0        0
S       52.67901166       6.93015253      19.64803051     183.84000005       0.00000000       0.00000000       0.00000000     2095        2        0        0        0
S       52.71654918       6.91599744      16.48780315     183.84000005       0.00000000       0.00000000       0.00000000     2096        2        0        0        0
S       55.39041766       5.26544081      19.68956096     183.84000005       0.00000000       0.00000000       0.00000000     2097        2        0        0        0
S       55.42923414       5.25370474      16.52914133     183.84000005       0.00000000       0.00000000       0.00000000     2098        2        0        0        0
S       58.09897325       3.58999807      19.72885544     183.84000005       0.00000000       0.00000000       0.00000000     2099        2        0        0        0
S       58.13503818       3.58231500      16.56849639     183.84000005       0.00000000       0.00000000       0.00000000     2100        2        0        0        0
S       60.80573512       1.90609608      19.76177281     183.84000005       0.00000000       0.00000000       0.00000000     2101        2        0        0        0
S       60.83562993       1.90328452      16.60153147     183.84000005       0.00000000       0.00000000       0.00000000     2102        2        0        0        0
S       63.51162763       0.21671935      19.78543899     183.84000005       0.00000000       0.00000000       0.00000000     2103        2        0        0        0
S       63.53294451       0.21900578      16.62524101     183.84000005       0.00000000       0.00000000       0.00000000     2104        2        0        0        0
S       19.97713508      29.82511500      19.57109105     183.84000005       0.00000000       0.00000000       0.00000000     2105        2        0        0        0
S       19.96863116      29.82683565      16.41207723     183.84000005       0.00000000       0.00000000       0.00000000     2106        2        0        0        0
S       22.69685685      28.15392298      19.55966869     183.84000005       0.00000000       0.00000000       0.00000000     2107        2        0        0        0
S       22.68416092      28.15802178      16.40076532     183.84000005       0.00000000       0.00000000       0.00000000     2108        2        0        0        0
S       25.42010047      26.49120885      19.54548815     183.84000005       0.00000000       0.00000000       0.00000000     2109        2        0        0        0
S       25.40704109      26.49604993      16.38681443     183.84000005       0.00000000       0.00000000       0.00000000     2110        2        0        0        0
S       28.14783749      24.83815297      19.53270321     183.84000005       0.00000000       0.00000000       0.00000000     2111        2        0        0        0
S       28.13754348      24.84223626      16.37427652     183.84000005       0.00000000       0.00000000       0.00000000     2112        2        0        0        0
S       30.88049343      23.19417262      19.52388883     183.84000005       0.00000000       0.00000000       0.00000000     2113        2        0        0        0
S       30.87439532      23.19677851      16.36564996     183.84000005       0.00000000       0.00000000       0.00000000     2114        2        0        0        0
S       33.61765663      21.55753838      19.51962671     183.84000005       0.00000000       0.00000000       0.00000000     2115        2        0        0        0
S       33.61569727      21.55871391      16.36148517     183.84000005       0.00000000       0.00000000       0.00000000     2116        2        0        0        0
S       36.35809784      19.92604756      19.51932218     183.84000005       0.00000000       0.00000000       0.00000000     2117        2        0        0        0
S       36.35970989      19.92612449      16.36118762     183.84000005       0.00000000       0.00000000       0.00000000     2118        2        0        0        0
S       39.10003695      18.29745177      19.52243697     183.84000005       0.00000000       0.00000000       0.00000000     2119        2        0        0        0
S       39.10510712      18.29649969      16.36422974     183.84000005       0.00000000       0.00000000       0.00000000     2120        2        0        0        0
S       41.84143286      16.66955578      19.52938588     183.84000005       0.00000000       0.00000000       0.00000000     2121        2        0        0        0
S       41.85078359      16.66706939      16.37101349     183.84000005       0.00000000       0.00000000       0.00000000     2122        2        0        0        0
S       44.58023698      15.04004734      19.54174614     183.84000005       0.00000000       0.00000000       0.00000000     2123        2        0        0        0
S       44.59545465      15.03499869      16.38309579     183.84000005       0.00000000       0.00000000       0.00000000     2124        2        0        0        0
S       47.31473004      13.40633810      19.56168045     183.84000005       0.00000000       0.00000000       0.00000000     2125        2        0        0        0
S       47.33730610      13.39763088      16.40263243     183.84000005       0.00000000       0.00000000       0.00000000     2126        2        0        0        0
S       50.04385860      11.76566586      19.59065392     183.84000005       0.00000000       0.00000000       0.00000000     2127        2        0        0        0
S       50.07400480      11.75285080      16.43110501     183.84000005       0.00000000       0.00000000       0.00000000     2128        2        0        0        0
S       52.76741361      10.11553568      19.62804150     183.84000005       0.00000000       0.00000000       0.00000000     2129        2        0        0        0
S       52.80329995      10.09938671      16.46796934     183.84000005       0.00000000       0.00000000       0.00000000     2130        2        0        0        0
S       55.48592206       8.45437318      19.67061874     183.84000005       0.00000000       0.00000000       0.00000000     2131        2        0        0        0
S       55.52394351       8.43683639      16.51019279     183.84000005       0.00000000       0.00000000       0.00000000     2132        2        0        0        0
S       58.20036157       6.78207800      19.71340483     183.84000005       0.00000000       0.00000000       0.00000000     2133        2        0        0        0
S       58.23624014       6.76558571      16.55293753     183.84000005       0.00000000       0.00000000       0.00000000     2134        2        0        0        0
S       60.91176682       5.10020603      19.75132679     183.84000005       0.00000000       0.00000000       0.00000000     2135        2        0        0        0
S       60.94179585       5.08684990      16.59098129     183.84000005       0.00000000       0.00000000       0.00000000     2136        2        0        0        0
S       63.62104764       3.41150277      19.78063162     183.84000005       0.00000000       0.00000000       0.00000000     2137        2        0        0        0
S       63.64273095       3.40253642      16.62037016     183.84000005       0.00000000       0.00000000       0.00000000     2138        2        0        0        0
S       66.32917535       1.71903770      19.79922277     183.84000005       0.00000000       0.00000000       0.00000000     2139        2        0        0        0
S       66.34112167       1.71498852      16.63898223     183.84000005       0.00000000       0.00000000       0.00000000     2140        2        0        0        0
S       20.02317544      33.03881892      19.57499968     183.84000005       0.00000000       0.00000000       0.00000000     2141        2        0        0        0
S       20.01947197      33.04290089      16.41598332     183.84000005       0.00000000       0.00000000       0.00000000     2142        2        0        0        0
S       22.74100067      31.36451250      19.56677312     183.84000005       0.00000000       0.00000000       0.00000000     2143        2        0        0        0
S       22.73140029      31.37131705      16.40777928     183.84000005       0.00000000       0.00000000       0.00000000     2144        2        0        0        0
S       25.46243651      29.69709819      19.55364951     183.84000005       0.00000000       0.00000000       0.00000000     2145        2        0        0        0
S       25.45030431      29.70522278      16.39482842     183.84000005       0.00000000       0.00000000       0.00000000     2146        2        0        0        0
S       28.18856987      28.03867581      19.53990416     183.84000005       0.00000000       0.00000000       0.00000000     2147        2        0        0        0
S       28.17758540      28.04640990      16.38132754     183.84000005       0.00000000       0.00000000       0.00000000     2148        2        0        0        0
S       30.92014735      26.38939995      19.52907469     183.84000005       0.00000000       0.00000000       0.00000000     2149        2        0        0        0
S       30.91277942      26.39566282      16.37071789     183.84000005       0.00000000       0.00000000       0.00000000     2150        2        0        0        0
S       33.65719816      24.74794831      19.52275643     183.84000005       0.00000000       0.00000000       0.00000000     2151        2        0        0        0
S       33.65422880      24.75261826      16.36454179     183.84000005       0.00000000       0.00000000       0.00000000     2152        2        0        0        0
S       36.39889410      23.11223035      19.52082208     183.84000005       0.00000000       0.00000000       0.00000000     2153        2        0        0        0
S       36.40000896      23.11579521      16.36265348     183.84000005       0.00000000       0.00000000       0.00000000     2154        2        0        0        0
S       39.14371953      21.47998938      19.52251868     183.84000005       0.00000000       0.00000000       0.00000000     2155        2        0        0        0
S       39.14849113      21.48289799      16.36430998     183.84000005       0.00000000       0.00000000       0.00000000     2156        2        0        0        0
S       41.88976131      19.84908040      19.52759060     183.84000005       0.00000000       0.00000000       0.00000000     2157        2        0        0        0
S       41.89837414      19.85118730      16.36926444     183.84000005       0.00000000       0.00000000       0.00000000     2158        2        0        0        0
S       44.63494845      18.21742395      19.53689851     183.84000005       0.00000000       0.00000000       0.00000000     2159        2        0        0        0
S       44.64838307      18.21774007      16.37836232     183.84000005       0.00000000       0.00000000       0.00000000     2160        2        0        0        0
S       47.37728984      16.58281419      19.55231534     183.84000005       0.00000000       0.00000000       0.00000000     2161        2        0        0        0
S       47.39684500      16.57968745      16.39345857     183.84000005       0.00000000       0.00000000       0.00000000     2162        2        0        0        0
S       50.11516337      14.94284056      19.57583356     183.84000005       0.00000000       0.00000000       0.00000000     2163        2        0        0        0
S       50.14147538      14.93460878      16.41654029     183.84000005       0.00000000       0.00000000       0.00000000     2164        2        0        0        0
S       52.84759607      13.29507305      19.60815999     183.84000005       0.00000000       0.00000000       0.00000000     2165        2        0        0        0
S       52.87968142      13.28098383      16.44835483     183.84000005       0.00000000       0.00000000       0.00000000     2166        2        0        0        0
S       55.57437150      11.63753337      19.64760675     183.84000005       0.00000000       0.00000000       0.00000000     2167        2        0        0        0
S       55.60939441      11.61838622      16.48734537     183.84000005       0.00000000       0.00000000       0.00000000     2168        2        0        0        0
S       58.29590744       9.96927662      19.69013435     183.84000005       0.00000000       0.00000000       0.00000000     2169        2        0        0        0
S       58.32990812       9.94728950      16.52966872     183.84000005       0.00000000       0.00000000       0.00000000     2170        2        0        0        0
S       61.01302885       8.29082320      19.73058038     183.84000005       0.00000000       0.00000000       0.00000000     2171        2        0        0        0
S       61.04215421       8.26884346      16.57018128     183.84000005       0.00000000       0.00000000       0.00000000     2172        2        0        0        0
S       63.72670510       6.60417857      19.76433180     183.84000005       0.00000000       0.00000000       0.00000000     2173        2        0        0        0
S       63.74817182       6.58470378      16.60405409     183.84000005       0.00000000       0.00000000       0.00000000     2174        2        0        0        0
S       66.43799531       4.91226269      19.78836281     183.84000005       0.00000000       0.00000000       0.00000000     2175        2        0        0        0
S       66.45021484       4.89685794      16.62813645     183.84000005       0.00000000       0.00000000       0.00000000     2176        2        0        0        0
S       69.14806717       3.21813175      19.80116453     183.84000005       0.00000000       0.00000000       0.00000000     2177        2        0        0        0
S       69.15025917       3.20756768      16.64093496     183.84000005       0.00000000       0.00000000       0.00000000     2178        2        0        0        0
S       22.78874817      34.57510069      19.57657316     183.84000005       0.00000000       0.00000000       0.00000000     2179        2        0        0        0
S       22.78378012      34.58573236      16.41746511     183.84000005       0.00000000       0.00000000       0.00000000     2180        2        0        0        0
S       25.50771506      32.90334024      19.56532250     183.84000005       0.00000000       0.00000000       0.00000000     2181        2        0        0        0
S       25.49805953      32.91587405      16.40630759     183.84000005       0.00000000       0.00000000       0.00000000     2182        2        0        0        0
S       28.23140443      31.23947443      19.55116273     183.84000005       0.00000000       0.00000000       0.00000000     2183        2        0        0        0
S       28.22080506      31.25209860      16.39236391     183.84000005       0.00000000       0.00000000       0.00000000     2184        2        0        0        0
S       30.96080674      29.58453860      19.53834525     183.84000005       0.00000000       0.00000000       0.00000000     2185        2        0        0        0
S       30.95263464      29.59568860      16.37978383     183.84000005       0.00000000       0.00000000       0.00000000     2186        2        0        0        0
S       33.69638970      27.93780789      19.52966640     183.84000005       0.00000000       0.00000000       0.00000000     2187        2        0        0        0
S       33.69248377      27.94690178      16.37128846     183.84000005       0.00000000       0.00000000       0.00000000     2188        2        0        0        0
S       36.43780689      26.29742248      19.52586749     183.84000005       0.00000000       0.00000000       0.00000000     2189        2        0        0        0
S       36.43843492      26.30483937      16.36758176     183.84000005       0.00000000       0.00000000       0.00000000     2190        2        0        0        0
S       39.18390730      24.66112874      19.52631349     183.84000005       0.00000000       0.00000000       0.00000000     2191        2        0        0        0
S       39.18855182      24.66759300      16.36802216     183.84000005       0.00000000       0.00000000       0.00000000     2192        2        0        0        0
S       41.93298682      23.02676003      19.53017638     183.84000005       0.00000000       0.00000000       0.00000000     2193        2        0        0        0
S       41.94122664      23.03261641      16.37180077     183.84000005       0.00000000       0.00000000       0.00000000     2194        2        0        0        0
S       44.68305650      21.39234204      19.53738107     183.84000005       0.00000000       0.00000000       0.00000000     2195        2        0        0        0
S       44.69506978      21.39705284      16.37885115     183.84000005       0.00000000       0.00000000       0.00000000     2196        2        0        0        0
S       47.43204205      19.75597129      19.54895754     183.84000005       0.00000000       0.00000000       0.00000000     2197        2        0        0        0
S       47.44854904      19.75799180      16.39019218     183.84000005       0.00000000       0.00000000       0.00000000     2198        2        0        0        0
S       50.17797845      18.11564459      19.56667415     183.84000005       0.00000000       0.00000000       0.00000000     2199        2        0        0        0
S       50.19964052      18.11280026      16.40757528     183.84000005       0.00000000       0.00000000       0.00000000     2200        2        0        0        0
S       52.91925038      16.46925083      19.59200624     183.84000005       0.00000000       0.00000000       0.00000000     2201        2        0        0        0
S       52.94582102      16.45959472      16.43248611     183.84000005       0.00000000       0.00000000       0.00000000     2202        2        0        0        0
S       55.65483539      14.81478133      19.62487633     183.84000005       0.00000000       0.00000000       0.00000000     2203        2        0        0        0
S       55.68458668      14.79761844      16.46491823     183.84000005       0.00000000       0.00000000       0.00000000     2204        2        0        0        0
S       58.38438949      13.15076817      19.66297519     183.84000005       0.00000000       0.00000000       0.00000000     2205        2        0        0        0
S       58.41430171      13.12721287      16.50269536     183.84000005       0.00000000       0.00000000       0.00000000     2206        2        0        0        0
S       61.10820279      11.47677208      19.70219580     183.84000005       0.00000000       0.00000000       0.00000000     2207        2        0        0        0
S       61.13481256      11.44944770      16.54183757     183.84000005       0.00000000       0.00000000       0.00000000     2208        2        0        0        0
S       63.82710933       9.79371472      19.73788118     183.84000005       0.00000000       0.00000000       0.00000000     2209        2        0        0        0
S       63.84745007       9.76582405      16.57762889     183.84000005       0.00000000       0.00000000       0.00000000     2210        2        0        0        0
S       66.54230820       8.10383403      19.76611343     183.84000005       0.00000000       0.00000000       0.00000000     2211        2        0        0        0
S       66.55438066       8.07813425      16.60595418     183.84000005       0.00000000       0.00000000       0.00000000     2212        2        0        0        0
S       69.25515691       6.41016442      19.78433446     183.84000005       0.00000000       0.00000000       0.00000000     2213        2        0        0        0
S       69.25780075       6.38843510      16.62417769     183.84000005       0.00000000       0.00000000       0.00000000     2214        2        0        0        0
S       22.84241936      37.78447942      19.59038911     183.84000005       0.00000000       0.00000000       0.00000000     2215        2        0        0        0
S       22.84366941      37.80017890      16.43112573     183.84000005       0.00000000       0.00000000       0.00000000     2216        2        0        0        0
S       25.55839751      36.10894497      19.58188883     183.84000005       0.00000000       0.00000000       0.00000000     2217        2        0        0        0
S       25.55317247      36.12718349      16.42262251     183.84000005       0.00000000       0.00000000       0.00000000     2218        2        0        0        0
S       28.27899101      34.43975977      19.56810554     183.84000005       0.00000000       0.00000000       0.00000000     2219        2        0        0        0
S       28.27044901      34.45885440      16.40899596     183.84000005       0.00000000       0.00000000       0.00000000     2220        2        0        0        0
S       31.00531135      32.77890798      19.55346664     183.84000005       0.00000000       0.00000000       0.00000000     2221        2        0        0        0
S       30.99729879      32.79681634      16.39459555     183.84000005       0.00000000       0.00000000       0.00000000     2222        2        0        0        0
S       33.73821015      31.12645970      19.54191045     183.84000005       0.00000000       0.00000000       0.00000000     2223        2        0        0        0
S       33.73362059      31.14185076      16.38325852     183.84000005       0.00000000       0.00000000       0.00000000     2224        2        0        0        0
S       36.47786665      29.48099756      19.53542453     183.84000005       0.00000000       0.00000000       0.00000000     2225        2        0        0        0
S       36.47786940      29.49370548      16.37691843     183.84000005       0.00000000       0.00000000       0.00000000     2226        2        0        0        0
S       39.22360320      27.84035328      19.53398248     183.84000005       0.00000000       0.00000000       0.00000000     2227        2        0        0        0
S       39.22794042      27.85104256      16.37552415     183.84000005       0.00000000       0.00000000       0.00000000     2228        2        0        0        0
S       41.97401364      26.20230187      19.53651936     183.84000005       0.00000000       0.00000000       0.00000000     2229        2        0        0        0
S       41.98187205      26.21169013      16.37801713     183.84000005       0.00000000       0.00000000       0.00000000     2230        2        0        0        0
S       44.72724076      24.56486243      19.54210190     183.84000005       0.00000000       0.00000000       0.00000000     2231        2        0        0        0
S       44.73801736      24.57300986      16.38348945     183.84000005       0.00000000       0.00000000       0.00000000     2232        2        0        0        0
S       47.48121121      22.92629329      19.55068178     183.84000005       0.00000000       0.00000000       0.00000000     2233        2        0        0        0
S       47.49485056      22.93221656      16.39190693     183.84000005       0.00000000       0.00000000       0.00000000     2234        2        0        0        0
S       50.23379537      21.28491944      19.56322936     183.84000005       0.00000000       0.00000000       0.00000000     2235        2        0        0        0
S       50.25061900      21.28665599      16.40423389     183.84000005       0.00000000       0.00000000       0.00000000     2236        2        0        0        0
S       52.98297150      19.63900465      19.58122469     183.84000005       0.00000000       0.00000000       0.00000000     2237        2        0        0        0
S       53.00312511      19.63419076      16.42194035     183.84000005       0.00000000       0.00000000       0.00000000     2238        2        0        0        0
S       55.72704412      17.98676938      19.60566367     183.84000005       0.00000000       0.00000000       0.00000000     2239        2        0        0        0
S       55.74987639      17.97361362      16.44604707     183.84000005       0.00000000       0.00000000       0.00000000     2240        2        0        0        0
S       58.46487834      16.32658563      19.63606439     183.84000005       0.00000000       0.00000000       0.00000000     2241        2        0        0        0
S       58.48866961      16.30482745      16.47613330     183.84000005       0.00000000       0.00000000       0.00000000     2242        2        0        0        0
S       61.19605178      14.65737927      19.67011798     183.84000005       0.00000000       0.00000000       0.00000000     2243        2        0        0        0
S       61.21830866      14.62862410      16.50998112     183.84000005       0.00000000       0.00000000       0.00000000     2244        2        0        0        0
S       63.92093712      12.97906184      19.70418361     183.84000005       0.00000000       0.00000000       0.00000000     2245        2        0        0        0
S       63.93898162      12.94628067      16.54402604     183.84000005       0.00000000       0.00000000       0.00000000     2246        2        0        0        0
S       66.64066417      11.29282221      19.73421814     183.84000005       0.00000000       0.00000000       0.00000000     2247        2        0        0        0
S       66.65214068      11.25939693      16.57414626     183.84000005       0.00000000       0.00000000       0.00000000     2248        2        0        0        0
S       69.35680634       9.60112379      19.75666733     183.84000005       0.00000000       0.00000000       0.00000000     2249        2        0        0        0
S       69.35992857       9.56991546      16.59662136     183.84000005       0.00000000       0.00000000       0.00000000     2250        2        0        0        0
S       72.07090896       7.90719023      19.76902959     183.84000005       0.00000000       0.00000000       0.00000000     2251        2        0        0        0
S       72.06451836       7.88004364      16.60890692     183.84000005       0.00000000       0.00000000       0.00000000     2252        2        0        0        0
S       25.61684360      39.31319239      19.60441110     183.84000005       0.00000000       0.00000000       0.00000000     2253        2        0        0        0
S       25.61788010      39.33763139      16.44485282     183.84000005       0.00000000       0.00000000       0.00000000     2254        2        0        0        0
S       28.33391228      37.63904782      19.59218139     183.84000005       0.00000000       0.00000000       0.00000000     2255        2        0        0        0
S       28.32935383      37.66543927      16.43268130     183.84000005       0.00000000       0.00000000       0.00000000     2256        2        0        0        0
S       31.05649807      35.97219250      19.57638272     183.84000005       0.00000000       0.00000000       0.00000000     2257        2        0        0        0
S       31.05000428      35.99825224      16.41708914     183.84000005       0.00000000       0.00000000       0.00000000     2258        2        0        0        0
S       33.78571024      34.31362667      19.56165901     183.84000005       0.00000000       0.00000000       0.00000000     2259        2        0        0        0
S       33.78090367      34.33718325      16.40261301     183.84000005       0.00000000       0.00000000       0.00000000     2260        2        0        0        0
S       36.52223124      32.66262238      19.55138432     183.84000005       0.00000000       0.00000000       0.00000000     2261        2        0        0        0
S       36.52132516      32.68253869      16.39254160     183.84000005       0.00000000       0.00000000       0.00000000     2262        2        0        0        0
S       39.26595035      31.01730201      19.54668762     183.84000005       0.00000000       0.00000000       0.00000000     2263        2        0        0        0
S       39.26935821      31.03365271      16.38796371     183.84000005       0.00000000       0.00000000       0.00000000     2264        2        0        0        0
S       42.01588317      29.37541582      19.54682829     183.84000005       0.00000000       0.00000000       0.00000000     2265        2        0        0        0
S       42.02278281      29.38892961      16.38812525     183.84000005       0.00000000       0.00000000       0.00000000     2266        2        0        0        0
S       44.77038173      27.73489975      19.55035842     183.84000005       0.00000000       0.00000000       0.00000000     2267        2        0        0        0
S       44.77962054      27.74613065      16.39160017     183.84000005       0.00000000       0.00000000       0.00000000     2268        2        0        0        0
S       47.52741423      26.09402929      19.55622371     183.84000005       0.00000000       0.00000000       0.00000000     2269        2        0        0        0
S       47.53818636      26.10273452      16.39736888     183.84000005       0.00000000       0.00000000       0.00000000     2270        2        0        0        0
S       50.28476478      24.45132018      19.56435229     183.84000005       0.00000000       0.00000000       0.00000000     2271        2        0        0        0
S       50.29685810      24.45623344      16.40537872     183.84000005       0.00000000       0.00000000       0.00000000     2272        2        0        0        0
S       53.04017766      22.80533646      19.57564866     183.84000005       0.00000000       0.00000000       0.00000000     2273        2        0        0        0
S       53.05378188      22.80442344      16.41652445     183.84000005       0.00000000       0.00000000       0.00000000     2274        2        0        0        0
S       55.79151886      21.15459548      19.59143430     183.84000005       0.00000000       0.00000000       0.00000000     2275        2        0        0        0
S       55.80676243      21.14575625      16.43211635     183.84000005       0.00000000       0.00000000       0.00000000     2276        2        0        0        0
S       58.53700961      19.49757160      19.61255706     183.84000005       0.00000000       0.00000000       0.00000000     2277        2        0        0        0
S       58.55347846      19.47957921      16.45301562     183.84000005       0.00000000       0.00000000       0.00000000     2278        2        0        0        0
S       61.27551599      17.83289751      19.63859063     183.84000005       0.00000000       0.00000000       0.00000000     2279        2        0        0        0
S       61.29201594      17.80613544      16.47882883     183.84000005       0.00000000       0.00000000       0.00000000     2280        2        0        0        0
S       64.00678541      16.15977653      19.66755513     183.84000005       0.00000000       0.00000000       0.00000000     2281        2        0        0        0
S       64.02143543      16.12629812      16.50763749     183.84000005       0.00000000       0.00000000       0.00000000     2282        2        0        0        0
S       66.73156142      14.47839774      19.69621873     183.84000005       0.00000000       0.00000000       0.00000000     2283        2        0        0        0
S       66.74204388      14.44133014      16.53626089     183.84000005       0.00000000       0.00000000       0.00000000     2284        2        0        0        0
S       69.45141389      12.79026676      19.72073365     183.84000005       0.00000000       0.00000000       0.00000000     2285        2        0        0        0
S       69.45532448      12.75295766      16.56078003     183.84000005       0.00000000       0.00000000       0.00000000     2286        2        0        0        0
S       72.16818236      11.09817027      19.73746985     183.84000005       0.00000000       0.00000000       0.00000000     2287        2        0        0        0
S       72.16349090      11.06336636      16.57744105     183.84000005       0.00000000       0.00000000       0.00000000     2288        2        0        0        0
S       25.68505657      42.51577205      19.63266786     183.84000005       0.00000000       0.00000000       0.00000000     2289        2        0        0        0
S       25.69338748      42.54536486      16.47282438     183.84000005       0.00000000       0.00000000       0.00000000     2290        2        0        0        0
S       28.39841580      40.83728637      19.62345692     183.84000005       0.00000000       0.00000000       0.00000000     2291        2        0        0        0
S       28.39938864      40.87005039      16.46355054     183.84000005       0.00000000       0.00000000       0.00000000     2292        2        0        0        0
S       31.11693085      39.16460490      19.60785591     183.84000005       0.00000000       0.00000000       0.00000000     2293        2        0        0        0
S       31.11333075      39.19846379      16.44806763     183.84000005       0.00000000       0.00000000       0.00000000     2294        2        0        0        0
S       33.84177680      37.49965451      19.59042471     183.84000005       0.00000000       0.00000000       0.00000000     2295        2        0        0        0
S       33.83735032      37.53185766      16.43087947     183.84000005       0.00000000       0.00000000       0.00000000     2296        2        0        0        0
S       36.57402420      35.84259816      19.57561743     183.84000005       0.00000000       0.00000000       0.00000000     2297        2        0        0        0
S       36.57184273      35.87088922      16.41632713     183.84000005       0.00000000       0.00000000       0.00000000     2298        2        0        0        0
S       39.31414815      34.19213313      19.56605012     183.84000005       0.00000000       0.00000000       0.00000000     2299        2        0        0        0
S       39.31558774      34.21548711      16.40695708     183.84000005       0.00000000       0.00000000       0.00000000     2300        2        0        0        0
S       42.06172383      32.54616343      19.56199294     183.84000005       0.00000000       0.00000000       0.00000000     2301        2        0        0        0
S       42.06645256      32.56474989      16.40301142     183.84000005       0.00000000       0.00000000       0.00000000     2302        2        0        0        0
S       44.81544700      30.90253173      19.56210214     183.84000005       0.00000000       0.00000000       0.00000000     2303        2        0        0        0
S       44.82218933      30.91704115      16.40315010     183.84000005       0.00000000       0.00000000       0.00000000     2304        2        0        0        0
S       47.57340428      29.25941724      19.56467615     183.84000005       0.00000000       0.00000000       0.00000000     2305        2        0        0        0
S       47.58084679      29.27026501      16.40570543     183.84000005       0.00000000       0.00000000       0.00000000     2306        2        0        0        0
S       50.33334266      27.61536811      19.56865966     183.84000005       0.00000000       0.00000000       0.00000000     2307        2        0        0        0
S       50.34074412      27.62219069      16.40965962     183.84000005       0.00000000       0.00000000       0.00000000     2308        2        0        0        0
S       53.09285639      25.96912642      19.57410857     183.84000005       0.00000000       0.00000000       0.00000000     2309        2        0        0        0
S       53.10022352      25.97070701      16.41507540     183.84000005       0.00000000       0.00000000       0.00000000     2310        2        0        0        0
S       55.84954736      24.31944917      19.58207513     183.84000005       0.00000000       0.00000000       0.00000000     2311        2        0        0        0
S       55.85741653      24.31409120      16.42297949     183.84000005       0.00000000       0.00000000       0.00000000     2312        2        0        0        0
S       58.60122135      22.66501169      19.59401135     183.84000005       0.00000000       0.00000000       0.00000000     2313        2        0        0        0
S       58.61019178      22.65123832      16.43480571     183.84000005       0.00000000       0.00000000       0.00000000     2314        2        0        0        0
S       61.34618042      21.00441365      19.61091269     183.84000005       0.00000000       0.00000000       0.00000000     2315        2        0        0        0
S       61.35635970      20.98174457      16.45155118     183.84000005       0.00000000       0.00000000       0.00000000     2316        2        0        0        0
S       64.08355673      19.33644230      19.63252237     183.84000005       0.00000000       0.00000000       0.00000000     2317        2        0        0        0
S       64.09414669      19.30585461      16.47297360     183.84000005       0.00000000       0.00000000       0.00000000     2318        2        0        0        0
S       66.81354531      17.66052262      19.65696031     183.84000005       0.00000000       0.00000000       0.00000000     2319        2        0        0        0
S       66.82271305      17.62431577      16.49723818     183.84000005       0.00000000       0.00000000       0.00000000     2320        2        0        0        0
S       69.53740767      15.97719274      19.68089153     183.84000005       0.00000000       0.00000000       0.00000000     2321        2        0        0        0
S       69.54247787      15.93841679      16.52105433     183.84000005       0.00000000       0.00000000       0.00000000     2322        2        0        0        0
S       72.25706288      14.28840537      19.70018282     183.84000005       0.00000000       0.00000000       0.00000000     2323        2        0        0        0
S       72.25511749      14.25013309      16.54024029     183.84000005       0.00000000       0.00000000       0.00000000     2324        2        0        0        0
S       74.97433455      12.59733065      19.71102028     183.84000005       0.00000000       0.00000000       0.00000000     2325        2        0        0        0
S       74.96314757      12.56191115      16.55091171     183.84000005       0.00000000       0.00000000       0.00000000     2326        2        0        0        0
S       28.47401000      44.03476694      19.65991164     183.84000005       0.00000000       0.00000000       0.00000000     2327        2        0        0        0
S       28.48107149      44.07103383      16.49969695     183.84000005       0.00000000       0.00000000       0.00000000     2328        2        0        0        0
S       31.18846377      42.35678783      19.64635770     183.84000005       0.00000000       0.00000000       0.00000000     2329        2        0        0        0
S       31.18862599      42.39578097      16.48612635     183.84000005       0.00000000       0.00000000       0.00000000     2330        2        0        0        0
S       33.90868430      40.68547462      19.62765575     183.84000005       0.00000000       0.00000000       0.00000000     2331        2        0        0        0
S       33.90514406      40.72443552      16.46758597     183.84000005       0.00000000       0.00000000       0.00000000     2332        2        0        0        0
S       36.63592788      39.02194356      19.60858506     183.84000005       0.00000000       0.00000000       0.00000000     2333        2        0        0        0
S       36.63212316      39.05780186      16.44878151     183.84000005       0.00000000       0.00000000       0.00000000     2334        2        0        0        0
S       39.37115977      37.36572924      19.59308010     183.84000005       0.00000000       0.00000000       0.00000000     2335        2        0        0        0
S       39.36940484      37.39619545      16.43354351     183.84000005       0.00000000       0.00000000       0.00000000     2336        2        0        0        0
S       42.11457545      35.71519969      19.58291984     183.84000005       0.00000000       0.00000000       0.00000000     2337        2        0        0        0
S       42.11545168      35.73934152      16.42359406     183.84000005       0.00000000       0.00000000       0.00000000     2338        2        0        0        0
S       44.86538868      34.06824851      19.57765529     183.84000005       0.00000000       0.00000000       0.00000000     2339        2        0        0        0
S       44.86806245      34.08631735      16.41846893     183.84000005       0.00000000       0.00000000       0.00000000     2340        2        0        0        0
S       47.62195585      32.42291030      19.57559308     183.84000005       0.00000000       0.00000000       0.00000000     2341        2        0        0        0
S       47.62504393      32.43563366      16.41648950     183.84000005       0.00000000       0.00000000       0.00000000     2342        2        0        0        0
S       50.38207577      30.77762637      19.57504623     183.84000005       0.00000000       0.00000000       0.00000000     2343        2        0        0        0
S       50.38450869      30.78547430      16.41599994     183.84000005       0.00000000       0.00000000       0.00000000     2344        2        0        0        0
S       53.14326869      29.13116805      19.57522665     183.84000005       0.00000000       0.00000000       0.00000000     2345        2        0        0        0
S       53.14479208      29.13394939      16.41623613     183.84000005       0.00000000       0.00000000       0.00000000     2346        2        0        0        0
S       55.90298261      27.48242928      19.57657351     183.84000005       0.00000000       0.00000000       0.00000000     2347        2        0        0        0
S       55.90421562      27.47930078      16.41762542     183.84000005       0.00000000       0.00000000       0.00000000     2348        2        0        0        0
S       58.65878589      25.83026565      19.58051165     183.84000005       0.00000000       0.00000000       0.00000000     2349        2        0        0        0
S       58.66089734      25.82011639      16.42156113     183.84000005       0.00000000       0.00000000       0.00000000     2350        2        0        0        0
S       61.40861711      24.17337929      19.58875971     183.84000005       0.00000000       0.00000000       0.00000000     2351        2        0        0        0
S       61.41270525      24.15543866      16.42974382     183.84000005       0.00000000       0.00000000       0.00000000     2352        2        0        0        0
S       64.15110640      22.51037910      19.60238704     183.84000005       0.00000000       0.00000000       0.00000000     2353        2        0        0        0
S       64.15746643      22.48480118      16.44323619     183.84000005       0.00000000       0.00000000       0.00000000     2354        2        0        0        0
S       66.88588947      20.84014092      19.62094470     183.84000005       0.00000000       0.00000000       0.00000000     2355        2        0        0        0
S       66.89346198      20.80826177      16.46159852     183.84000005       0.00000000       0.00000000       0.00000000     2356        2        0        0        0
S       69.61374132      19.16236589      19.64208909     183.84000005       0.00000000       0.00000000       0.00000000     2357        2        0        0        0
S       69.62001899      19.12649018      16.48252728     183.84000005       0.00000000       0.00000000       0.00000000     2358        2        0        0        0
S       72.33637252      17.47808347      19.66188466     183.84000005       0.00000000       0.00000000       0.00000000     2359        2        0        0        0
S       72.33789523      17.44097449      16.50213159     183.84000005       0.00000000       0.00000000       0.00000000     2360        2        0        0        0
S       75.05578714      15.78979613      19.67579383     183.84000005       0.00000000       0.00000000       0.00000000     2361        2        0        0        0
S       75.04924055      15.75403424      16.51585368     183.84000005       0.00000000       0.00000000       0.00000000     2362        2        0        0        0
S       28.56105138      47.23189313      19.69776132     183.84000005       0.00000000       0.00000000       0.00000000     2363        2        0        0        0
S       28.57359269      47.26760375      16.53745503     183.84000005       0.00000000       0.00000000       0.00000000     2364        2        0        0        0
S       31.27180391      45.54946418      19.68804920     183.84000005       0.00000000       0.00000000       0.00000000     2365        2        0        0        0
S       31.27577773      45.58922615      16.52760971     183.84000005       0.00000000       0.00000000       0.00000000     2366        2        0        0        0
S       33.98759134      43.87222006      19.67018675     183.84000005       0.00000000       0.00000000       0.00000000     2367        2        0        0        0
S       33.98516108      43.91388119      16.50975895     183.84000005       0.00000000       0.00000000       0.00000000     2368        2        0        0        0
S       36.70963624      42.20208782      19.64834011     183.84000005       0.00000000       0.00000000       0.00000000     2369        2        0        0        0
S       36.70398389      42.24241266      16.48808817     183.84000005       0.00000000       0.00000000       0.00000000     2370        2        0        0        0
S       39.43918868      40.53956909      19.62708394     183.84000005       0.00000000       0.00000000       0.00000000     2371        2        0        0        0
S       39.43322047      40.57532705      16.46711157     183.84000005       0.00000000       0.00000000       0.00000000     2372        2        0        0        0
S       42.17699796      38.88380221      19.60968167     183.84000005       0.00000000       0.00000000       0.00000000     2373        2        0        0        0
S       42.17233860      38.91278940      16.44999833     183.84000005       0.00000000       0.00000000       0.00000000     2374        2        0        0        0
S       44.92289826      37.23303614      19.59720086     183.84000005       0.00000000       0.00000000       0.00000000     2375        2        0        0        0
S       44.91966389      37.25451943      16.43776313     183.84000005       0.00000000       0.00000000       0.00000000     2376        2        0        0        0
S       47.67572425      35.58527772      19.58879563     183.84000005       0.00000000       0.00000000       0.00000000     2377        2        0        0        0
S       47.67303099      35.59972894      16.42954884     183.84000005       0.00000000       0.00000000       0.00000000     2378        2        0        0        0
S       50.43350632      33.93879191      19.58278816     183.84000005       0.00000000       0.00000000       0.00000000     2379        2        0        0        0
S       50.43032725      33.94717025      16.42368959     183.84000005       0.00000000       0.00000000       0.00000000     2380        2        0        0        0
S       53.19380506      32.29223574      19.57783372     183.84000005       0.00000000       0.00000000       0.00000000     2381        2        0        0        0
S       53.18970608      32.29529339      16.41886180     183.84000005       0.00000000       0.00000000       0.00000000     2382        2        0        0        0
S       55.95402472      30.64450665      19.57365632     183.84000005       0.00000000       0.00000000       0.00000000     2383        2        0        0        0
S       55.94948521      30.64242820      16.41480146     183.84000005       0.00000000       0.00000000       0.00000000     2384        2        0        0        0
S       58.71162682      28.99455702      19.57120816     183.84000005       0.00000000       0.00000000       0.00000000     2385        2        0        0        0
S       58.70793701      28.98697504      16.41244267     183.84000005       0.00000000       0.00000000       0.00000000     2386        2        0        0        0
S       61.46434873      27.34120502      19.57226917     183.84000005       0.00000000       0.00000000       0.00000000     2387        2        0        0        0
S       61.46310774      27.32754476      16.41353185     183.84000005       0.00000000       0.00000000       0.00000000     2388        2        0        0        0
S       64.21046691      25.68303684      19.57860851     183.84000005       0.00000000       0.00000000       0.00000000     2389        2        0        0        0
S       64.21279457      25.66303158      16.41981566     183.84000005       0.00000000       0.00000000       0.00000000     2390        2        0        0        0
S       66.94911651      24.01858583      19.59094047     183.84000005       0.00000000       0.00000000       0.00000000     2391        2        0        0        0
S       66.95481219      23.99274318      16.43200242     183.84000005       0.00000000       0.00000000       0.00000000     2392        2        0        0        0
S       69.68052766      22.34685239      19.60807131     183.84000005       0.00000000       0.00000000       0.00000000     2393        2        0        0        0
S       69.68760486      22.31661448      16.44891189     183.84000005       0.00000000       0.00000000       0.00000000     2394        2        0        0        0
S       72.40599199      20.66795951      19.62673663     183.84000005       0.00000000       0.00000000       0.00000000     2395        2        0        0        0
S       72.41092645      20.63546798      16.46732554     183.84000005       0.00000000       0.00000000       0.00000000     2396        2        0        0        0
S       75.12743526      18.98356785      19.64229880     183.84000005       0.00000000       0.00000000       0.00000000     2397        2        0        0        0
S       75.12617303      18.95119150      16.48265492     183.84000005       0.00000000       0.00000000       0.00000000     2398        2        0        0        0
S       77.84664614      17.29678780      19.65021420     183.84000005       0.00000000       0.00000000       0.00000000     2399        2        0        0        0
S       77.83618008      17.26649699      16.49036261     183.84000005       0.00000000       0.00000000       0.00000000     2400        2        0        0        0
S       31.36621987      48.74306750      19.72791790     183.84000005       0.00000000       0.00000000       0.00000000     2401        2        0        0        0
S       31.37330645      48.77891933      16.56753683     183.84000005       0.00000000       0.00000000       0.00000000     2402        2        0        0        0
S       34.07818976      47.06072914      19.71303678     183.84000005       0.00000000       0.00000000       0.00000000     2403        2        0        0        0
S       34.07680509      47.10013739      16.55256485     183.84000005       0.00000000       0.00000000       0.00000000     2404        2        0        0        0
S       36.79541939      45.38431366      19.69074979     183.84000005       0.00000000       0.00000000       0.00000000     2405        2        0        0        0
S       36.78796134      45.42459928      16.53030123     183.84000005       0.00000000       0.00000000       0.00000000     2406        2        0        0        0
S       39.51917706      43.71522211      19.66532901     183.84000005       0.00000000       0.00000000       0.00000000     2407        2        0        0        0
S       39.50858236      43.75287120      16.50505652     183.84000005       0.00000000       0.00000000       0.00000000     2408        2        0        0        0
S       42.25056759      42.05356251      19.64096197     183.84000005       0.00000000       0.00000000       0.00000000     2409        2        0        0        0
S       42.23930153      42.08538024      16.48097929     183.84000005       0.00000000       0.00000000       0.00000000     2410        2        0        0        0
S       44.99002030      40.39826244      19.62034828     183.84000005       0.00000000       0.00000000       0.00000000     2411        2        0        0        0
S       44.97938720      40.42233303      16.46067769     183.84000005       0.00000000       0.00000000       0.00000000     2412        2        0        0        0
S       47.73699259      38.74758239      19.60416987     183.84000005       0.00000000       0.00000000       0.00000000     2413        2        0        0        0
S       47.72712395      38.76357739      16.44477776     183.84000005       0.00000000       0.00000000       0.00000000     2414        2        0        0        0
S       50.48999796      37.09970742      19.59156591     183.84000005       0.00000000       0.00000000       0.00000000     2415        2        0        0        0
S       50.48039241      37.10851405      16.43240740     183.84000005       0.00000000       0.00000000       0.00000000     2416        2        0        0        0
S       53.24685429      35.45309733      19.58118821     183.84000005       0.00000000       0.00000000       0.00000000     2417        2        0        0        0
S       53.23712548      35.45605402      16.42222709     183.84000005       0.00000000       0.00000000       0.00000000     2418        2        0        0        0
S       56.00505595      33.80651110      19.57221368     183.84000005       0.00000000       0.00000000       0.00000000     2419        2        0        0        0
S       55.99546733      33.80471650      16.41342959     183.84000005       0.00000000       0.00000000       0.00000000     2420        2        0        0        0
S       58.76207445      32.15886758      19.56489906     183.84000005       0.00000000       0.00000000       0.00000000     2421        2        0        0        0
S       58.75369305      32.15282792      16.40627285     183.84000005       0.00000000       0.00000000       0.00000000     2422        2        0        0        0
S       61.51556463      30.50903077      19.56057116     183.84000005       0.00000000       0.00000000       0.00000000     2423        2        0        0        0
S       61.50999893      30.49867618      16.40205429     183.84000005       0.00000000       0.00000000       0.00000000     2424        2        0        0        0
S       64.26357968      28.85560947      19.56106749     183.84000005       0.00000000       0.00000000       0.00000000     2425        2        0        0        0
S       64.26233490      28.84062988      16.40257131     183.84000005       0.00000000       0.00000000       0.00000000     2426        2        0        0        0
S       67.00484658      27.19697108      19.56777985     183.84000005       0.00000000       0.00000000       0.00000000     2427        2        0        0        0
S       67.00843348      27.17731176      16.40919815     183.84000005       0.00000000       0.00000000       0.00000000     2428        2        0        0        0
S       69.73905647      25.53160169      19.58056982     183.84000005       0.00000000       0.00000000       0.00000000     2429        2        0        0        0
S       69.74621274      25.50789575      16.42180485     183.84000005       0.00000000       0.00000000       0.00000000     2430        2        0        0        0
S       72.46696948      23.85878508      19.59711652     183.84000005       0.00000000       0.00000000       0.00000000     2431        2        0        0        0
S       72.47454195      23.83245904      16.43809637     183.84000005       0.00000000       0.00000000       0.00000000     2432        2        0        0        0
S       75.19020018      22.17925685      19.61318473     183.84000005       0.00000000       0.00000000       0.00000000     2433        2        0        0        0
S       75.19389899      22.15226491      16.45389532     183.84000005       0.00000000       0.00000000       0.00000000     2434        2        0        0        0
S       77.91061491      20.49542864      19.62383260     183.84000005       0.00000000       0.00000000       0.00000000     2435        2        0        0        0
S       77.90652099      20.46974836      16.46431213     183.84000005       0.00000000       0.00000000       0.00000000     2436        2        0        0        0
S       31.46958950      51.93751250      19.76138113     183.84000005       0.00000000       0.00000000       0.00000000     2437        2        0        0        0
S       31.47877291      51.96576645      16.60112323     183.84000005       0.00000000       0.00000000       0.00000000     2438        2        0        0        0
S       34.17869950      50.25112331      19.75107293     183.84000005       0.00000000       0.00000000       0.00000000     2439        2        0        0        0
S       34.17814136      50.28396238      16.59072346     183.84000005       0.00000000       0.00000000       0.00000000     2440        2        0        0        0
S       36.89199942      48.56924158      19.73083640     183.84000005       0.00000000       0.00000000       0.00000000     2441        2        0        0        0
S       36.88314968      48.60498628      16.57045309     183.84000005       0.00000000       0.00000000       0.00000000     2442        2        0        0        0
S       39.61056433      46.89379967      19.70382591     183.84000005       0.00000000       0.00000000       0.00000000     2443        2        0        0        0
S       39.59582022      46.92942837      16.54348917     183.84000005       0.00000000       0.00000000       0.00000000     2444        2        0        0        0
S       42.33554450      45.22587351      19.67424767     183.84000005       0.00000000       0.00000000       0.00000000     2445        2        0        0        0
S       42.31770751      45.25779605      16.51409335     183.84000005       0.00000000       0.00000000       0.00000000     2446        2        0        0        0
S       45.06778920      43.56533935      19.64601693     183.84000005       0.00000000       0.00000000       0.00000000     2447        2        0        0        0
S       45.04925894      43.59063588      16.48616096     183.84000005       0.00000000       0.00000000       0.00000000     2448        2        0        0        0
S       47.80740607      41.91103673      19.62156443     183.84000005       0.00000000       0.00000000       0.00000000     2449        2        0        0        0
S       47.78960251      41.92832658      16.46203493     183.84000005       0.00000000       0.00000000       0.00000000     2450        2        0        0        0
S       50.55358021      40.26131387      19.60150845     183.84000005       0.00000000       0.00000000       0.00000000     2451        2        0        0        0
S       50.53696374      40.27086286      16.44227993     183.84000005       0.00000000       0.00000000       0.00000000     2452        2        0        0        0
S       53.30466743      38.61449749      19.58519670     183.84000005       0.00000000       0.00000000       0.00000000     2453        2        0        0        0
S       53.28923390      38.61767270      16.42623422     183.84000005       0.00000000       0.00000000       0.00000000     2454        2        0        0        0
S       56.05847810      36.96911376      19.57168190     183.84000005       0.00000000       0.00000000       0.00000000     2455        2        0        0        0
S       56.04436752      36.96755914      16.41295823     183.84000005       0.00000000       0.00000000       0.00000000     2456        2        0        0        0
S       58.81262624      35.32389296      19.56058032     183.84000005       0.00000000       0.00000000       0.00000000     2457        2        0        0        0
S       58.80051274      35.31886522      16.40206860     183.84000005       0.00000000       0.00000000       0.00000000     2458        2        0        0        0
S       61.56478832      33.67761902      19.55247561     183.84000005       0.00000000       0.00000000       0.00000000     2459        2        0        0        0
S       61.55591907      33.66967169      16.39413048     183.84000005       0.00000000       0.00000000       0.00000000     2460        2        0        0        0
S       64.31289752      32.02888479      19.54875965     183.84000005       0.00000000       0.00000000       0.00000000     2461        2        0        0        0
S       64.30871169      32.01794835      16.39049792     183.84000005       0.00000000       0.00000000       0.00000000     2462        2        0        0        0
S       67.05536884      30.37598695      19.55095172     183.84000005       0.00000000       0.00000000       0.00000000     2463        2        0        0        0
S       67.05676069      30.36175688      16.39266072     183.84000005       0.00000000       0.00000000       0.00000000     2464        2        0        0        0
S       69.79139825      28.71710388      19.55966094     183.84000005       0.00000000       0.00000000       0.00000000     2465        2        0        0        0
S       69.79783154      28.69957365      16.40122861     183.84000005       0.00000000       0.00000000       0.00000000     2466        2        0        0        0
S       72.52117440      27.05084273      19.57359608     183.84000005       0.00000000       0.00000000       0.00000000     2467        2        0        0        0
S       72.53018420      27.03071910      16.41493075     183.84000005       0.00000000       0.00000000       0.00000000     2468        2        0        0        0
S       75.24584226      25.37701402      19.58930753     183.84000005       0.00000000       0.00000000       0.00000000     2469        2        0        0        0
S       75.25339491      25.35574617      16.43036070     183.84000005       0.00000000       0.00000000       0.00000000     2470        2        0        0        0
S       77.96712096      23.69716196      19.60197558     183.84000005       0.00000000       0.00000000       0.00000000     2471        2        0        0        0
S       77.96885259      23.67658764      16.44276934     183.84000005       0.00000000       0.00000000       0.00000000     2472        2        0        0        0
S       80.68663356      22.01452504      19.60708985     183.84000005       0.00000000       0.00000000       0.00000000     2473        2        0        0        0
S       80.67962931      21.99625836      16.44769495     183.84000005       0.00000000       0.00000000       0.00000000     2474        2        0        0        0
S      100.63257357      55.13234795      19.78533636     183.84000005       0.00000000       0.00000000       0.00000000     2475        2        0        0        0
S      100.64305562      55.15075683      16.62513024     183.84000005       0.00000000       0.00000000       0.00000000     2476        2        0        0        0
S       34.28631940      53.44285489      19.78048155     183.84000005       0.00000000       0.00000000       0.00000000     2477        2        0        0        0
S       34.28645373      53.46630517      16.62021765     183.84000005       0.00000000       0.00000000       0.00000000     2478        2        0        0        0
S       36.99688954      51.75661035      19.76429128     183.84000005       0.00000000       0.00000000       0.00000000     2479        2        0        0        0
S       36.98735608      51.78436389      16.60402525     183.84000005       0.00000000       0.00000000       0.00000000     2480        2        0        0        0
S       39.71143005      50.07563139      19.73854356     183.84000005       0.00000000       0.00000000       0.00000000     2481        2        0        0        0
S       39.69384906      50.10570677      16.57831218     183.84000005       0.00000000       0.00000000       0.00000000     2482        2        0        0        0
S       42.43085239      48.40160095      19.70656911     183.84000005       0.00000000       0.00000000       0.00000000     2483        2        0        0        0
S       42.40775239      48.43080597      16.54641593     183.84000005       0.00000000       0.00000000       0.00000000     2484        2        0        0        0
S       45.15607925      46.73541564      19.67266029     183.84000005       0.00000000       0.00000000       0.00000000     2485        2        0        0        0
S       45.13049296      46.76031267      16.51269663     183.84000005       0.00000000       0.00000000       0.00000000     2486        2        0        0        0
S       47.88773644      45.07682009      19.64072431     183.84000005       0.00000000       0.00000000       0.00000000     2487        2        0        0        0
S       47.86233817      45.09502646      16.48106674     183.84000005       0.00000000       0.00000000       0.00000000     2488        2        0        0        0
S       50.62576696      43.42461580      19.61312996     183.84000005       0.00000000       0.00000000       0.00000000     2489        2        0        0        0
S       50.60222246      43.43546749      16.45381794     183.84000005       0.00000000       0.00000000       0.00000000     2490        2        0        0        0
S       53.36927487      41.77718367      19.59050072     183.84000005       0.00000000       0.00000000       0.00000000     2491        2        0        0        0
S       53.34828667      41.78152745      16.43151680     183.84000005       0.00000000       0.00000000       0.00000000     2492        2        0        0        0
S       56.11664299      40.13285205      19.57233720     183.84000005       0.00000000       0.00000000       0.00000000     2493        2        0        0        0
S       56.09845732      40.13233578      16.41364917     183.84000005       0.00000000       0.00000000       0.00000000     2494        2        0        0        0
S       58.86583199      38.49005929      19.55793970     183.84000005       0.00000000       0.00000000       0.00000000     2495        2        0        0        0
S       58.85076434      38.48634140      16.39951090     183.84000005       0.00000000       0.00000000       0.00000000     2496        2        0        0        0
S       61.61467344      36.84735295      19.54713911     183.84000005       0.00000000       0.00000000       0.00000000     2497        2        0        0        0
S       61.60341639      36.84152414      16.38891825     183.84000005       0.00000000       0.00000000       0.00000000     2498        2        0        0        0
S       64.36108857      35.20321964      19.54057535     183.84000005       0.00000000       0.00000000       0.00000000     2499        2        0        0        0
S       64.35466741      35.19558963      16.38248557     183.84000005       0.00000000       0.00000000       0.00000000     2500        2        0        0        0
S       67.10328373      33.55590192      19.53941550     183.84000005       0.00000000       0.00000000       0.00000000     2501        2        0        0        0
S       67.10259671      33.54619087      16.38135009     183.84000005       0.00000000       0.00000000       0.00000000     2502        2        0        0        0
S       69.84002342      31.90341851      19.54457723     183.84000005       0.00000000       0.00000000       0.00000000     2503        2        0        0        0
S       69.84507051      31.89123374      16.38641654     183.84000005       0.00000000       0.00000000       0.00000000     2504        2        0        0        0
S       72.57092769      30.24391990      19.55567697     183.84000005       0.00000000       0.00000000       0.00000000     2505        2        0        0        0
S       72.58007592      30.22933593      16.39731425     183.84000005       0.00000000       0.00000000       0.00000000     2506        2        0        0        0
S       75.29658403      28.57641060      19.57029591     183.84000005       0.00000000       0.00000000       0.00000000     2507        2        0        0        0
S       75.30645692      28.56031416      16.41165658     183.84000005       0.00000000       0.00000000       0.00000000     2508        2        0        0        0
S       78.01837761      26.90149436      19.58420106     183.84000005       0.00000000       0.00000000       0.00000000     2509        2        0        0        0
S       78.02466733      26.88546619      16.42527705     183.84000005       0.00000000       0.00000000       0.00000000     2510        2        0        0        0
S       80.73799017      25.22165625      19.59262117     183.84000005       0.00000000       0.00000000       0.00000000     2511        2        0        0        0
S       80.73701475      25.20745627      16.43347764     183.84000005       0.00000000       0.00000000       0.00000000     2512        2        0        0        0
S       34.39788322      56.63526020      19.79915138     183.84000005       0.00000000       0.00000000       0.00000000     2513        2        0        0        0
S       34.39873571      56.64785612      16.63891005     183.84000005       0.00000000       0.00000000       0.00000000     2514        2        0        0        0
S       37.10703648      54.94569962      19.78823326     183.84000005       0.00000000       0.00000000       0.00000000     2515        2        0        0        0
S       37.09757667      54.96331916      16.62801322     183.84000005       0.00000000       0.00000000       0.00000000     2516        2        0        0        0
S       39.81896887      53.26034864      19.76614832     183.84000005       0.00000000       0.00000000       0.00000000     2517        2        0        0        0
S       39.80014482      53.28207782      16.60600318     183.84000005       0.00000000       0.00000000       0.00000000     2518        2        0        0        0
S       42.53428740      51.58103030      19.73496497     183.84000005       0.00000000       0.00000000       0.00000000     2519        2        0        0        0
S       42.50804928      51.60471704      16.57490358     183.84000005       0.00000000       0.00000000       0.00000000     2520        2        0        0        0
S       45.25363235      49.90931705      19.69839403     183.84000005       0.00000000       0.00000000       0.00000000     2521        2        0        0        0
S       45.22301457      49.93180199      16.53842441     183.84000005       0.00000000       0.00000000       0.00000000     2522        2        0        0        0
S       47.97777603      48.24599789      19.66106302     183.84000005       0.00000000       0.00000000       0.00000000     2523        2        0        0        0
S       47.94628326      48.26427964      16.50129629     183.84000005       0.00000000       0.00000000       0.00000000     2524        2        0        0        0
S       50.70732827      46.59067169      19.62693057     183.84000005       0.00000000       0.00000000       0.00000000     2525        2        0        0        0
S       50.67781937      46.60310175      16.46750392     183.84000005       0.00000000       0.00000000       0.00000000     2526        2        0        0        0
S       53.44225633      44.94201121      19.59817436     183.84000005       0.00000000       0.00000000       0.00000000     2527        2        0        0        0
S       53.41635095      44.94857274      16.43912753     183.84000005       0.00000000       0.00000000       0.00000000     2528        2        0        0        0
S       56.18171265      43.29828400      19.57523386     183.84000005       0.00000000       0.00000000       0.00000000     2529        2        0        0        0
S       56.16001832      43.30011351      16.41653427     183.84000005       0.00000000       0.00000000       0.00000000     2530        2        0        0        0
S       58.92421459      41.65766062      19.55757000     183.84000005       0.00000000       0.00000000       0.00000000     2531        2        0        0        0
S       58.90686976      41.65632550      16.39916978     183.84000005       0.00000000       0.00000000       0.00000000     2532        2        0        0        0
S       61.66793431      40.01835703      19.54452616     183.84000005       0.00000000       0.00000000       0.00000000     2533        2        0        0        0
S       61.65508302      40.01518793      16.38636909     183.84000005       0.00000000       0.00000000       0.00000000     2534        2        0        0        0
S       64.41092597      38.37862845      19.53594321     183.84000005       0.00000000       0.00000000       0.00000000     2535        2        0        0        0
S       64.40298405      38.37427331      16.37795662     183.84000005       0.00000000       0.00000000       0.00000000     2536        2        0        0        0
S       67.15132029      36.73662546      19.53233252     183.84000005       0.00000000       0.00000000       0.00000000     2537        2        0        0        0
S       67.14887578      36.73098036      16.37441988     183.84000005       0.00000000       0.00000000       0.00000000     2538        2        0        0        0
S       69.88755633      35.09027847      19.53449253     183.84000005       0.00000000       0.00000000       0.00000000     2539        2        0        0        0
S       69.89085762      35.08281454      16.37653526     183.84000005       0.00000000       0.00000000       0.00000000     2540        2        0        0        0
S       72.61871922      33.43746949      19.54264597     183.84000005       0.00000000       0.00000000       0.00000000     2541        2        0        0        0
S       72.62692039      33.42780859      16.38452712     183.84000005       0.00000000       0.00000000       0.00000000     2542        2        0        0        0
S       75.34481051      31.77659836      19.55545629     183.84000005       0.00000000       0.00000000       0.00000000     2543        2        0        0        0
S       75.35545014      31.76507349      16.39708295     183.84000005       0.00000000       0.00000000       0.00000000     2544        2        0        0        0
S       78.06674679      30.10737332      19.56964263     183.84000005       0.00000000       0.00000000       0.00000000     2545        2        0        0        0
S       78.07602318      30.09519779      16.41097262     183.84000005       0.00000000       0.00000000       0.00000000     2546        2        0        0        0
S       80.78607033      28.43137031      19.58068154     183.84000005       0.00000000       0.00000000       0.00000000     2547        2        0        0        0
S       80.78999704      28.42029579      16.42175406     183.84000005       0.00000000       0.00000000       0.00000000     2548        2        0        0        0
S       83.50436686      26.75201709      19.58446280     183.84000005       0.00000000       0.00000000       0.00000000     2549        2        0        0        0
S       83.50044745      26.74362980      16.42537058     183.84000005       0.00000000       0.00000000       0.00000000     2550        2        0        0        0
S       69.03723163       0.02561772      19.80615503     183.84000005       0.00000000       0.00000000       0.00000000     2551        2        0        0        0
S       69.03881420       0.02670937      16.64590903     183.84000005       0.00000000       0.00000000       0.00000000     2552        2        0        0        0
S       37.21938299      58.13588387      19.80108777     183.84000005       0.00000000       0.00000000       0.00000000     2553        2        0        0        0
S       37.21051720      58.14224513      16.64085904     183.84000005       0.00000000       0.00000000       0.00000000     2554        2        0        0        0
S       39.93008946      56.44730081      19.78419475     183.84000005       0.00000000       0.00000000       0.00000000     2555        2        0        0        0
S       39.91127269      56.45874311      16.62404040     183.84000005       0.00000000       0.00000000       0.00000000     2556        2        0        0        0
S       42.64291536      54.76391176      19.75652969     183.84000005       0.00000000       0.00000000       0.00000000     2557        2        0        0        0
S       42.61555593      54.77941551      16.59648662     183.84000005       0.00000000       0.00000000       0.00000000     2558        2        0        0        0
S       45.35812235      53.08747680      19.72071755     183.84000005       0.00000000       0.00000000       0.00000000     2559        2        0        0        0
S       45.32490607      53.10487005      16.56076458     183.84000005       0.00000000       0.00000000       0.00000000     2560        2        0        0        0
S       48.07621048      51.41950664      19.68112404     183.84000005       0.00000000       0.00000000       0.00000000     2561        2        0        0        0
S       48.04087302      51.43595678      16.52128388     183.84000005       0.00000000       0.00000000       0.00000000     2562        2        0        0        0
S       50.79806713      49.76058147      19.64263395     183.84000005       0.00000000       0.00000000       0.00000000     2563        2        0        0        0
S       50.76430474      49.77378405      16.48306501     183.84000005       0.00000000       0.00000000       0.00000000     2564        2        0        0        0
S       53.52443793      48.11000033      19.60889151     183.84000005       0.00000000       0.00000000       0.00000000     2565        2        0        0        0
S       53.49479624      48.11899168      16.44972020     183.84000005       0.00000000       0.00000000       0.00000000     2566        2        0        0        0
S       56.25535007      46.46617272      19.58154140     183.84000005       0.00000000       0.00000000       0.00000000     2567        2        0        0        0
S       56.23098094      46.47126288      16.42276131     183.84000005       0.00000000       0.00000000       0.00000000     2568        2        0        0        0
S       58.99004573      44.82711792      19.56062043     183.84000005       0.00000000       0.00000000       0.00000000     2569        2        0        0        0
S       58.97112030      44.82934491      16.40217280     183.84000005       0.00000000       0.00000000       0.00000000     2570        2        0        0        0
S       61.72721393      43.19074981      19.54538563     183.84000005       0.00000000       0.00000000       0.00000000     2571        2        0        0        0
S       61.71347620      43.19126215      16.38721143     183.84000005       0.00000000       0.00000000       0.00000000     2572        2        0        0        0
S       64.46521886      41.55501714      19.53509436     183.84000005       0.00000000       0.00000000       0.00000000     2573        2        0        0        0
S       64.45645889      41.55456248      16.37712566     183.84000005       0.00000000       0.00000000       0.00000000     2574        2        0        0        0
S       67.20228032      39.91789310      19.52953105     183.84000005       0.00000000       0.00000000       0.00000000     2575        2        0        0        0
S       67.19858544      39.91653781      16.37168217     183.84000005       0.00000000       0.00000000       0.00000000     2576        2        0        0        0
S       69.93668173      38.27723716      19.52908108     183.84000005       0.00000000       0.00000000       0.00000000     2577        2        0        0        0
S       69.93826753      38.27446814      16.37124225     183.84000005       0.00000000       0.00000000       0.00000000     2578        2        0        0        0
S       72.66708138      36.63078749      19.53421343     183.84000005       0.00000000       0.00000000       0.00000000     2579        2        0        0        0
S       72.67369448      36.62596841      16.37626411     183.84000005       0.00000000       0.00000000       0.00000000     2580        2        0        0        0
S       75.39290604      34.97654321      19.54452104     183.84000005       0.00000000       0.00000000       0.00000000     2581        2        0        0        0
S       75.40307975      34.96952629      16.38635729     183.84000005       0.00000000       0.00000000       0.00000000     2582        2        0        0        0
S       78.11454097      33.31346431      19.55787806     183.84000005       0.00000000       0.00000000       0.00000000     2583        2        0        0        0
S       78.12532392      33.30501173      16.39943047     183.84000005       0.00000000       0.00000000       0.00000000     2584        2        0        0        0
S       80.83320767      31.64217309      19.57046680     183.84000005       0.00000000       0.00000000       0.00000000     2585        2        0        0        0
S       80.84078421      31.63386458      16.41173354     183.84000005       0.00000000       0.00000000       0.00000000     2586        2        0        0        0
S       83.55054710      29.96528190      19.57791813     183.84000005       0.00000000       0.00000000       0.00000000     2587        2        0        0        0
S       83.55163406      29.95893434      16.41897292     183.84000005       0.00000000       0.00000000       0.00000000     2588        2        0        0        0
S       40.04185573      59.63590499      19.79113820     183.84000005       0.00000000       0.00000000       0.00000000     2589        2        0        0        0
S       40.02367484      59.63598452      16.63092388     183.84000005       0.00000000       0.00000000       0.00000000     2590        2        0        0        0
S       42.75363111      57.94964385      19.76869916     183.84000005       0.00000000       0.00000000       0.00000000     2591        2        0        0        0
S       42.72642048      57.95489487      16.60856666     183.84000005       0.00000000       0.00000000       0.00000000     2592        2        0        0        0
S       45.46650657      56.26971496      19.73651556     183.84000005       0.00000000       0.00000000       0.00000000     2593        2        0        0        0
S       45.43258361      56.27907801      16.57647999     183.84000005       0.00000000       0.00000000       0.00000000     2594        2        0        0        0
S       48.18057069      54.59784810      19.69811929     183.84000005       0.00000000       0.00000000       0.00000000     2595        2        0        0        0
S       48.14356402      54.60938096      16.53818708     183.84000005       0.00000000       0.00000000       0.00000000     2596        2        0        0        0
S       50.89652147      52.93531999      19.65839502     183.84000005       0.00000000       0.00000000       0.00000000     2597        2        0        0        0
S       50.86048137      52.94683046      16.49867775     183.84000005       0.00000000       0.00000000       0.00000000     2598        2        0        0        0
S       53.61549267      51.28225639      19.62189603     183.84000005       0.00000000       0.00000000       0.00000000     2599        2        0        0        0
S       53.58362946      51.29217873      16.46254829     183.84000005       0.00000000       0.00000000       0.00000000     2600        2        0        0        0
S       56.33828543      49.63751533      19.59141607     183.84000005       0.00000000       0.00000000       0.00000000     2601        2        0        0        0
S       56.31231471      49.64530990      16.43248026     183.84000005       0.00000000       0.00000000       0.00000000     2602        2        0        0        0
S       59.06493355      47.99915946      19.56779776     183.84000005       0.00000000       0.00000000       0.00000000     2603        2        0        0        0
S       59.04521252      48.00510964      16.40922259     183.84000005       0.00000000       0.00000000       0.00000000     2604        2        0        0        0
S       61.79476851      46.36491710      19.55055484     183.84000005       0.00000000       0.00000000       0.00000000     2605        2        0        0        0
S       61.78081963      46.36965778      16.39227498     183.84000005       0.00000000       0.00000000       0.00000000     2606        2        0        0        0
S       64.52661947      44.73246612      19.53869402     183.84000005       0.00000000       0.00000000       0.00000000     2607        2        0        0        0
S       64.51772526      44.73651881      16.38064481     183.84000005       0.00000000       0.00000000       0.00000000     2608        2        0        0        0
S       67.25897080      43.09954835      19.53143374     183.84000005       0.00000000       0.00000000       0.00000000     2609        2        0        0        0
S       67.25467386      43.10298417      16.37354080     183.84000005       0.00000000       0.00000000       0.00000000     2610        2        0        0        0
S       69.99014988      41.46391655      19.52864371     183.84000005       0.00000000       0.00000000       0.00000000     2611        2        0        0        0
S       69.99042694      41.46625976      16.37081466     183.84000005       0.00000000       0.00000000       0.00000000     2612        2        0        0        0
S       72.71859852      39.82324032      19.53074410     183.84000005       0.00000000       0.00000000       0.00000000     2613        2        0        0        0
S       72.72352411      39.82372333      16.37286719     183.84000005       0.00000000       0.00000000       0.00000000     2614        2        0        0        0
S       75.44326987      38.17528343      19.53797818     183.84000005       0.00000000       0.00000000       0.00000000     2615        2        0        0        0
S       75.45227226      38.17337203      16.37994451     183.84000005       0.00000000       0.00000000       0.00000000     2616        2        0        0        0
S       78.16400794      36.51844327      19.54937958     183.84000005       0.00000000       0.00000000       0.00000000     2617        2        0        0        0
S       78.17517882      36.51439218      16.39110299     183.84000005       0.00000000       0.00000000       0.00000000     2618        2        0        0        0
S       80.88161045      34.85246528      19.56217885     183.84000005       0.00000000       0.00000000       0.00000000     2619        2        0        0        0
S       80.89172476      34.84750439      16.40361745     183.84000005       0.00000000       0.00000000       0.00000000     2620        2        0        0        0
S       83.59757103      33.17900928      19.57228324     183.84000005       0.00000000       0.00000000       0.00000000     2621        2        0        0        0
S       83.60302840      33.17497297      16.41347307     183.84000005       0.00000000       0.00000000       0.00000000     2622        2        0        0        0
S       86.31353799      31.50165407      19.57581682     183.84000005       0.00000000       0.00000000       0.00000000     2623        2        0        0        0
S       86.31193964      31.50019757      16.41684629     183.84000005       0.00000000       0.00000000       0.00000000     2624        2        0        0        0
S       45.57560016      59.45531687      19.74290179     183.84000005       0.00000000       0.00000000       0.00000000     2625        2        0        0        0
S       45.54194213      59.45445156      16.58269873     183.84000005       0.00000000       0.00000000       0.00000000     2626        2        0        0        0
S       48.28763036      57.78070716      19.70843094     183.84000005       0.00000000       0.00000000       0.00000000     2627        2        0        0        0
S       48.25035232      57.78405631      16.54832082     183.84000005       0.00000000       0.00000000       0.00000000     2628        2        0        0        0
S       50.99994549      56.11523022      19.67071737     183.84000005       0.00000000       0.00000000       0.00000000     2629        2        0        0        0
S       50.96320480      56.12138823      16.51082164     183.84000005       0.00000000       0.00000000       0.00000000     2630        2        0        0        0
S       53.71359871      54.45960456      19.63444118     183.84000005       0.00000000       0.00000000       0.00000000     2631        2        0        0        0
S       53.68094938      54.46714326      16.47489755     183.84000005       0.00000000       0.00000000       0.00000000     2632        2        0        0        0
S       56.42979658      52.81331247      19.60308121     183.84000005       0.00000000       0.00000000       0.00000000     2633        2        0        0        0
S       56.40333646      52.82124789      16.44393967     183.84000005       0.00000000       0.00000000       0.00000000     2634        2        0        0        0
S       59.14923115      51.17473448      19.57822026     183.84000005       0.00000000       0.00000000       0.00000000     2635        2        0        0        0
S       59.12952418      51.18267928      16.41944828     183.84000005       0.00000000       0.00000000       0.00000000     2636        2        0        0        0
S       61.87188532      49.54160833      19.55980852     183.84000005       0.00000000       0.00000000       0.00000000     2637        2        0        0        0
S       61.85837302      49.54957872      16.40134379     183.84000005       0.00000000       0.00000000       0.00000000     2638        2        0        0        0
S       64.59712898      47.91144877      19.54688038     183.84000005       0.00000000       0.00000000       0.00000000     2639        2        0        0        0
S       64.58875113      47.91954231      16.38865910     183.84000005       0.00000000       0.00000000       0.00000000     2640        2        0        0        0
S       67.32385603      46.28180089      19.53834505     183.84000005       0.00000000       0.00000000       0.00000000     2641        2        0        0        0
S       67.31968282      46.28990109      16.38030171     183.84000005       0.00000000       0.00000000       0.00000000     2642        2        0        0        0
S       70.05062388      44.65028540      19.53362915     183.84000005       0.00000000       0.00000000       0.00000000     2643        2        0        0        0
S       70.05028357      44.65787730      16.37569088     183.84000005       0.00000000       0.00000000       0.00000000     2644        2        0        0        0
S       72.77589379      43.01452910      19.53293320     183.84000005       0.00000000       0.00000000       0.00000000     2645        2        0        0        0
S       72.77953436      43.02075267      16.37500970     183.84000005       0.00000000       0.00000000       0.00000000     2646        2        0        0        0
S       75.49837010      41.37218882      19.53685039     183.84000005       0.00000000       0.00000000       0.00000000     2647        2        0        0        0
S       75.50608019      41.37619921      16.37883931     183.84000005       0.00000000       0.00000000       0.00000000     2648        2        0        0        0
S       78.21743927      39.72128478      19.54540869     183.84000005       0.00000000       0.00000000       0.00000000     2649        2        0        0        0
S       78.22837005      39.72280183      16.38721657     183.84000005       0.00000000       0.00000000       0.00000000     2650        2        0        0        0
S       80.93344807      38.06083395      19.55706303     183.84000005       0.00000000       0.00000000       0.00000000     2651        2        0        0        0
S       80.94527529      38.06055852      16.39862113     183.84000005       0.00000000       0.00000000       0.00000000     2652        2        0        0        0
S       83.64760642      36.39153683      19.56847526     183.84000005       0.00000000       0.00000000       0.00000000     2653        2        0        0        0
S       83.65689965      36.39106190      16.40977300     183.84000005       0.00000000       0.00000000       0.00000000     2654        2        0        0        0
S       86.36157367      34.71609530      19.57548636     183.84000005       0.00000000       0.00000000       0.00000000     2655        2        0        0        0
S       86.36507911      34.71728970      16.41658164     183.84000005       0.00000000       0.00000000       0.00000000     2656        2        0        0        0
S       51.10479455      59.29966018      19.67568499     183.84000005       0.00000000       0.00000000       0.00000000     2657        2        0        0        0
S       51.06819596      59.29725965      16.51556858     183.84000005       0.00000000       0.00000000       0.00000000     2658        2        0        0        0
S       53.81555511      57.64201183      19.64241025     183.84000005       0.00000000       0.00000000       0.00000000     2659        2        0        0        0
S       53.78305714      57.64324787      16.48265432     183.84000005       0.00000000       0.00000000       0.00000000     2660        2        0        0        0
S       56.52746845      55.99406118      19.61285790     183.84000005       0.00000000       0.00000000       0.00000000     2661        2        0        0        0
S       56.50138309      55.99818374      16.45350361     183.84000005       0.00000000       0.00000000       0.00000000     2662        2        0        0        0
S       59.24154284      54.35462605      19.58895878     183.84000005       0.00000000       0.00000000       0.00000000     2663        2        0        0        0
S       59.22253112      54.36103979      16.42996308     183.84000005       0.00000000       0.00000000       0.00000000     2664        2        0        0        0
S       61.95823880      52.72168399      19.57101480     183.84000005       0.00000000       0.00000000       0.00000000     2665        2        0        0        0
S       61.94570188      52.72998171      16.41231533     183.84000005       0.00000000       0.00000000       0.00000000     2666        2        0        0        0
S       64.67741319      51.09276484      19.55822481     183.84000005       0.00000000       0.00000000       0.00000000     2667        2        0        0        0
S       64.67009660      51.10264334      16.39976245     183.84000005       0.00000000       0.00000000       0.00000000     2668        2        0        0        0
S       67.39840618      49.46530597      19.54940433     183.84000005       0.00000000       0.00000000       0.00000000     2669        2        0        0        0
S       67.39504790      49.47640826      16.39112510     183.84000005       0.00000000       0.00000000       0.00000000     2670        2        0        0        0
S       70.12014652      47.83682461      19.54368229     183.84000005       0.00000000       0.00000000       0.00000000     2671        2        0        0        0
S       70.12002220      47.84855917      16.38553230     183.84000005       0.00000000       0.00000000       0.00000000     2672        2        0        0        0
S       72.84130720      46.20490796      19.54097621     183.84000005       0.00000000       0.00000000       0.00000000     2673        2        0        0        0
S       72.84443933      46.21635950      16.38288938     183.84000005       0.00000000       0.00000000       0.00000000     2674        2        0        0        0
S       75.56059546      44.56719268      19.54196281     183.84000005       0.00000000       0.00000000       0.00000000     2675        2        0        0        0
S       75.56743381      44.57728501      16.38385395     183.84000005       0.00000000       0.00000000       0.00000000     2676        2        0        0        0
S       78.27714925      42.92150601      19.54737936     183.84000005       0.00000000       0.00000000       0.00000000     2677        2        0        0        0
S       78.28773255      42.92944712      16.38915725     183.84000005       0.00000000       0.00000000       0.00000000     2678        2        0        0        0
S       80.99092623      41.26633469      19.55688760     183.84000005       0.00000000       0.00000000       0.00000000     2679        2        0        0        0
S       81.00397747      41.27214613      16.39847200     183.84000005       0.00000000       0.00000000       0.00000000     2680        2        0        0        0
S       83.70280581      39.60151849      19.56826163     183.84000005       0.00000000       0.00000000       0.00000000     2681        2        0        0        0
S       83.71549819      39.60626181      16.40960421     183.84000005       0.00000000       0.00000000       0.00000000     2682        2        0        0        0
S       86.41432009      37.92878604      19.57765967     183.84000005       0.00000000       0.00000000       0.00000000     2683        2        0        0        0
S       86.42306387      37.93422386      16.41877604     183.84000005       0.00000000       0.00000000       0.00000000     2684        2        0        0        0
S       89.12710558      36.25174298      19.58110278     183.84000005       0.00000000       0.00000000       0.00000000     2685        2        0        0        0
S       89.12916119      36.25951181      16.42205509     183.84000005       0.00000000       0.00000000       0.00000000     2686        2        0        0        0
S       56.62751504      59.17925877      19.61655713     183.84000005       0.00000000       0.00000000       0.00000000     2687        2        0        0        0
S       56.60222946      59.17607213      16.45700757     183.84000005       0.00000000       0.00000000       0.00000000     2688        2        0        0        0
S       59.33869837      57.53890309      19.59582158     183.84000005       0.00000000       0.00000000       0.00000000     2689        2        0        0        0
S       59.32076669      57.53980239      16.43662412     183.84000005       0.00000000       0.00000000       0.00000000     2690        2        0        0        0
S       62.05156556      55.90561747      19.58036465     183.84000005       0.00000000       0.00000000       0.00000000     2691        2        0        0        0
S       62.04032667      55.91025034      16.42144158     183.84000005       0.00000000       0.00000000       0.00000000     2692        2        0        0        0
S       64.76625530      54.27711795      19.56946639     183.84000005       0.00000000       0.00000000       0.00000000     2693        2        0        0        0
S       64.76034205      54.28505801      16.41074955     183.84000005       0.00000000       0.00000000       0.00000000     2694        2        0        0        0
S       67.48244608      52.65087508      19.56194809     183.84000005       0.00000000       0.00000000       0.00000000     2695        2        0        0        0
S       67.48041192      52.66165785      16.40338992     183.84000005       0.00000000       0.00000000       0.00000000     2696        2        0        0        0
S       70.19944279      51.02436452      19.55677400     183.84000005       0.00000000       0.00000000       0.00000000     2697        2        0        0        0
S       70.20029994      51.03740727      16.39834296     183.84000005       0.00000000       0.00000000       0.00000000     2698        2        0        0        0
S       72.91625868      49.39515128      19.55358209     183.84000005       0.00000000       0.00000000       0.00000000     2699        2        0        0        0
S       72.91981268      49.40961130      16.39523971     183.84000005       0.00000000       0.00000000       0.00000000     2700        2        0        0        0
S       75.63179222      47.76088194      19.55291054     183.84000005       0.00000000       0.00000000       0.00000000     2701        2        0        0        0
S       75.63856910      47.77563320      16.39459647     183.84000005       0.00000000       0.00000000       0.00000000     2702        2        0        0        0
S       78.34517167      46.11933996      19.55584330     183.84000005       0.00000000       0.00000000       0.00000000     2703        2        0        0        0
S       78.35578465      46.13322808      16.39747734     183.84000005       0.00000000       0.00000000       0.00000000     2704        2        0        0        0
S       81.05613629      44.46871907      19.56300811     183.84000005       0.00000000       0.00000000       0.00000000     2705        2        0        0        0
S       81.07027726      44.48107078      16.40450846     183.84000005       0.00000000       0.00000000       0.00000000     2706        2        0        0        0
S       83.76527210      42.80819939      19.57343683     183.84000005       0.00000000       0.00000000       0.00000000     2707        2        0        0        0
S       83.78100226      42.81929332      16.41473476     183.84000005       0.00000000       0.00000000       0.00000000     2708        2        0        0        0
S       86.47392388      41.13858256      19.58414093     183.84000005       0.00000000       0.00000000       0.00000000     2709        2        0        0        0
S       86.48785937      41.14969252      16.42521143     183.84000005       0.00000000       0.00000000       0.00000000     2710        2        0        0        0
S       89.18374235      39.46258821      19.59093396     183.84000005       0.00000000       0.00000000       0.00000000     2711        2        0        0        0
S       89.19230565      39.47542656      16.43180422     183.84000005       0.00000000       0.00000000       0.00000000     2712        2        0        0        0
S       62.14794383      59.09301828      19.58383633     183.84000005       0.00000000       0.00000000       0.00000000     2713        2        0        0        0
S       62.13801323      59.09072548      16.42474660     183.84000005       0.00000000       0.00000000       0.00000000     2714        2        0        0        0
S       64.86049120      57.46459866      19.57645389     183.84000005       0.00000000       0.00000000       0.00000000     2715        2        0        0        0
S       64.85601737      57.46681438      16.41753552     183.84000005       0.00000000       0.00000000       0.00000000     2716        2        0        0        0
S       67.57379132      55.83896989      19.57194604     183.84000005       0.00000000       0.00000000       0.00000000     2717        2        0        0        0
S       67.57327511      55.84542058      16.41314204     183.84000005       0.00000000       0.00000000       0.00000000     2718        2        0        0        0
S       70.28737413      54.21363853      19.56918008     183.84000005       0.00000000       0.00000000       0.00000000     2719        2        0        0        0
S       70.28970244      54.22396585      16.41046506     183.84000005       0.00000000       0.00000000       0.00000000     2720        2        0        0        0
S       73.00056973      52.58617236      19.56755097     183.84000005       0.00000000       0.00000000       0.00000000     2721        2        0        0        0
S       73.00535604      52.59982827      16.40891158     183.84000005       0.00000000       0.00000000       0.00000000     2722        2        0        0        0
S       75.71257621      50.95424074      19.56730750     183.84000005       0.00000000       0.00000000       0.00000000     2723        2        0        0        0
S       75.72023458      50.97034556      16.40871374     183.84000005       0.00000000       0.00000000       0.00000000     2724        2        0        0        0
S       78.42268195      49.31564870      19.56949491     183.84000005       0.00000000       0.00000000       0.00000000     2725        2        0        0        0
S       78.43404446      49.33301648      16.41089261     183.84000005       0.00000000       0.00000000       0.00000000     2726        2        0        0        0
S       81.13060394      47.66850424      19.57527310     183.84000005       0.00000000       0.00000000       0.00000000     2727        2        0        0        0
S       81.14604704      47.68598995      16.41658931     183.84000005       0.00000000       0.00000000       0.00000000     2728        2        0        0        0
S       83.83675224      46.01160000      19.58476471     183.84000005       0.00000000       0.00000000       0.00000000     2729        2        0        0        0
S       83.85525855      46.02865894      16.42592298     183.84000005       0.00000000       0.00000000       0.00000000     2730        2        0        0        0
S       86.54229601      44.34500525      19.59614129     183.84000005       0.00000000       0.00000000       0.00000000     2731        2        0        0        0
S       86.56110105      44.36209361      16.43708979     183.84000005       0.00000000       0.00000000       0.00000000     2732        2        0        0        0
S       89.24885729      42.67054237      19.60569146     183.84000005       0.00000000       0.00000000       0.00000000     2733        2        0        0        0
S       89.26414023      42.68899773      16.44642594     183.84000005       0.00000000       0.00000000       0.00000000     2734        2        0        0        0
S       91.95792485      40.99176692      19.60923894     183.84000005       0.00000000       0.00000000       0.00000000     2735        2        0        0        0
S       91.96650390      41.01302273      16.44978449     183.84000005       0.00000000       0.00000000       0.00000000     2736        2        0        0        0
S       67.66851342      59.02923483      19.57551952     183.84000005       0.00000000       0.00000000       0.00000000     2737        2        0        0        0
S       67.66929308      59.02840560      16.41655454     183.84000005       0.00000000       0.00000000       0.00000000     2738        2        0        0        0
S       70.38085056      57.40475922      19.57658453     183.84000005       0.00000000       0.00000000       0.00000000     2739        2        0        0        0
S       70.38468938      57.40863549      16.41765800     183.84000005       0.00000000       0.00000000       0.00000000     2740        2        0        0        0
S       73.09211474      55.77850373      19.57843770     183.84000005       0.00000000       0.00000000       0.00000000     2741        2        0        0        0
S       73.09856337      55.78708893      16.41954074     183.84000005       0.00000000       0.00000000       0.00000000     2742        2        0        0        0
S       75.80176533      54.14814055      19.58097702     183.84000005       0.00000000       0.00000000       0.00000000     2743        2        0        0        0
S       75.81107615      54.16114558      16.42209712     183.84000005       0.00000000       0.00000000       0.00000000     2744        2        0        0        0
S       78.50933003      52.51150324      19.58489364     183.84000005       0.00000000       0.00000000       0.00000000     2745        2        0        0        0
S       78.52226891      52.52816802      16.42600661     183.84000005       0.00000000       0.00000000       0.00000000     2746        2        0        0        0
S       81.21464054      50.86671914      19.59134756     183.84000005       0.00000000       0.00000000       0.00000000     2747        2        0        0        0
S       81.23186867      50.88589452      16.43240590     183.84000005       0.00000000       0.00000000       0.00000000     2748        2        0        0        0
S       83.91806419      49.21245415      19.60108116     183.84000005       0.00000000       0.00000000       0.00000000     2749        2        0        0        0
S       83.93924874      49.23304664      16.44201776     183.84000005       0.00000000       0.00000000       0.00000000     2750        2        0        0        0
S       86.62064683      47.54833396      19.61335091     183.84000005       0.00000000       0.00000000       0.00000000     2751        2        0        0        0
S       86.64378476      47.56990420      16.45410669     183.84000005       0.00000000       0.00000000       0.00000000     2752        2        0        0        0
S       89.32397696      45.87545276      19.62538021     183.84000005       0.00000000       0.00000000       0.00000000     2753        2        0        0        0
S       89.34551112      45.89855998      16.46593277     183.84000005       0.00000000       0.00000000       0.00000000     2754        2        0        0        0
S       92.02964287      44.19658919      19.63301372     183.84000005       0.00000000       0.00000000       0.00000000     2755        2        0        0        0
S       92.04572414      44.22248793      16.47335457     183.84000005       0.00000000       0.00000000       0.00000000     2756        2        0        0        0
S       73.18710988      58.97180336      19.58218392     183.84000005       0.00000000       0.00000000       0.00000000     2757        2        0        0        0
S       73.19506627      58.97238510      16.42312298     183.84000005       0.00000000       0.00000000       0.00000000     2758        2        0        0        0
S       75.89636832      57.34277752      19.58921026     183.84000005       0.00000000       0.00000000       0.00000000     2759        2        0        0        0
S       75.90761637      57.34867108      16.43011252     183.84000005       0.00000000       0.00000000       0.00000000     2760        2        0        0        0
S       78.60295129      55.70759356      19.59724486     183.84000005       0.00000000       0.00000000       0.00000000     2761        2        0        0        0
S       78.61807724      55.71890256      16.43809790     183.84000005       0.00000000       0.00000000       0.00000000     2762        2        0        0        0
S       81.30686105      54.06438475      19.60697423     183.84000005       0.00000000       0.00000000       0.00000000     2763        2        0        0        0
S       81.32644011      54.08055738      16.44775919     183.84000005       0.00000000       0.00000000       0.00000000     2764        2        0        0        0
S       84.00852453      52.41183785      19.61910108     183.84000005       0.00000000       0.00000000       0.00000000     2765        2        0        0        0
S       84.03248031      52.43180959      16.45977790     183.84000005       0.00000000       0.00000000       0.00000000     2766        2        0        0        0
S       86.70891584      50.74942821      19.63348799     183.84000005       0.00000000       0.00000000       0.00000000     2767        2        0        0        0
S       86.73582771      50.77215807      16.47401519     183.84000005       0.00000000       0.00000000       0.00000000     2768        2        0        0        0
S       89.40957055      49.07780577      19.64832742     183.84000005       0.00000000       0.00000000       0.00000000     2769        2        0        0        0
S       89.43638396      49.10293990      16.48868903     183.84000005       0.00000000       0.00000000       0.00000000     2770        2        0        0        0
S       92.11216999      47.39910807      19.66007505     183.84000005       0.00000000       0.00000000       0.00000000     2771        2        0        0        0
S       92.13491685      47.42724969      16.50024734     183.84000005       0.00000000       0.00000000       0.00000000     2772        2        0        0        0
S       94.81796270      45.71676656      19.66472524     183.84000005       0.00000000       0.00000000       0.00000000     2773        2        0        0        0
S       94.83339907      45.74888825      16.50467741     183.84000005       0.00000000       0.00000000       0.00000000     2774        2        0        0        0
S       78.69991926      58.90368235      19.60208623     183.84000005       0.00000000       0.00000000       0.00000000     2775        2        0        0        0
S       78.71728092      58.90635895      16.44275551     183.84000005       0.00000000       0.00000000       0.00000000     2776        2        0        0        0
S       81.40426729      57.26188487      19.61720344     183.84000005       0.00000000       0.00000000       0.00000000     2777        2        0        0        0
S       81.42650752      57.27069324      16.45775683     183.84000005       0.00000000       0.00000000       0.00000000     2778        2        0        0        0
S       84.10578094      55.61058646      19.63413087     183.84000005       0.00000000       0.00000000       0.00000000     2779        2        0        0        0
S       84.13264523      55.62520023      16.47456520     183.84000005       0.00000000       0.00000000       0.00000000     2780        2        0        0        0
S       86.80541546      53.94928369      19.65257993     183.84000005       0.00000000       0.00000000       0.00000000     2781        2        0        0        0
S       86.83565188      53.96871954      16.49289368     183.84000005       0.00000000       0.00000000       0.00000000     2782        2        0        0        0
S       89.50461085      52.27847464      19.67126622     183.84000005       0.00000000       0.00000000       0.00000000     2783        2        0        0        0
S       89.53557868      52.30176162      16.51147793     183.84000005       0.00000000       0.00000000       0.00000000     2784        2        0        0        0
S       92.20506173      50.59991627      19.68741236     183.84000005       0.00000000       0.00000000       0.00000000     2785        2        0        0        0
S       92.23300160      50.62681627      16.52750808     183.84000005       0.00000000       0.00000000       0.00000000     2786        2        0        0        0
S       94.90815744      48.91654269      19.69727559     183.84000005       0.00000000       0.00000000       0.00000000     2787        2        0        0        0
S       94.92943674      48.94760107      16.53718199     183.84000005       0.00000000       0.00000000       0.00000000     2788        2        0        0        0
S       84.20625625      58.80867392      19.64157842     183.84000005       0.00000000       0.00000000       0.00000000     2789        2        0        0        0
S       84.23591965      58.81433374      16.48180478     183.84000005       0.00000000       0.00000000       0.00000000     2790        2        0        0        0
S       86.90701250      57.14839849      19.66598391     183.84000005       0.00000000       0.00000000       0.00000000     2791        2        0        0        0
S       86.94016865      57.16028160      16.50609700     183.84000005       0.00000000       0.00000000       0.00000000     2792        2        0        0        0
S       89.60650031      55.47819866      19.68997745     183.84000005       0.00000000       0.00000000       0.00000000     2793        2        0        0        0
S       89.64059956      55.49542805      16.53005625     183.84000005       0.00000000       0.00000000       0.00000000     2794        2        0        0        0
S       92.30630522      53.79970549      19.71119002     183.84000005       0.00000000       0.00000000       0.00000000     2795        2        0        0        0
S       92.33784121      53.82149645      16.55125850     183.84000005       0.00000000       0.00000000       0.00000000     2796        2        0        0        0
S       95.00786146      52.11557304      19.72641604     183.84000005       0.00000000       0.00000000       0.00000000     2797        2        0        0        0
S       95.03321089      52.14182883      16.56638532     183.84000005       0.00000000       0.00000000       0.00000000     2798        2        0        0        0
S       97.71216631      50.42897344      19.73255776     183.84000005       0.00000000       0.00000000       0.00000000     2799        2        0        0        0
S       97.72877069      50.46004250      16.57234428     183.84000005       0.00000000       0.00000000       0.00000000     2800        2        0        0        0
S       89.71159449      58.67700007      19.70046919     183.84000005       0.00000000       0.00000000       0.00000000     2801        2        0        0        0
S       89.74800794      58.68491556      16.54037072     183.84000005       0.00000000       0.00000000       0.00000000     2802        2        0        0        0
S       92.41259341      56.99875375      19.72760086     183.84000005       0.00000000       0.00000000       0.00000000     2803        2        0        0        0
S       92.44641990      57.01208780      16.56757679     183.84000005       0.00000000       0.00000000       0.00000000     2804        2        0        0        0
S       95.11420120      55.31410564      19.74849037     183.84000005       0.00000000       0.00000000       0.00000000     2805        2        0        0        0
S       95.14199124      55.33239274      16.58847297     183.84000005       0.00000000       0.00000000       0.00000000     2806        2        0        0        0
S       97.81748657      53.62605204      19.76037951     183.84000005       0.00000000       0.00000000       0.00000000     2807        2        0        0        0
S       97.83660526      53.64927035      16.60025661     183.84000005       0.00000000       0.00000000       0.00000000     2808        2        0        0        0
S       95.22357671      58.51192084      19.76076578     183.84000005       0.00000000       0.00000000       0.00000000     2809        2        0        0        0
S       95.25272932      58.52010551      16.60065676     183.84000005       0.00000000       0.00000000       0.00000000     2810        2        0        0        0
S       97.92739191      56.82287550      19.77850440     183.84000005       0.00000000       0.00000000       0.00000000     2811        2        0        0        0
S       97.94791455      56.83617287      16.61837571     183.84000005       0.00000000       0.00000000       0.00000000     2812        2        0        0        0
S      100.74447587      58.32708688      19.79817317     183.84000005       0.00000000       0.00000000       0.00000000     2813        2        0        0        0
S      100.75582608      58.33450527      16.63795688     183.84000005       0.00000000       0.00000000       0.00000000     2814        2        0        0        0
