114
Lattice="13.888783825950402 0.0 0.0 6.944391912975201 12.028039620943478 0.0 0.0 0.0 30.0" Properties=species:S:1:pos:R:3:masses:R:1:momenta:R:3:id:I:1:type:I:1:travel:I:3 comment="LAMMPS data file via write_data, version 28 Mar 2023, timestep = 28, units = metal" pbc="T T T"
Mo      14.61647690       1.69004301      12.48962114      95.95000002       0.00000000       0.00000000       0.00000000        1        1       -1        0       -1
Mo       3.65501895       0.42913478      12.50112873      95.95000002       0.00000000       0.00000000       0.00000000        2        1        0        0        0
Mo       3.28700434       3.59400944      12.50807006      95.95000002       0.00000000       0.00000000       0.00000000        3        1        0        0        0
Mo       6.21096739       2.32541530      12.51629839      95.95000002       0.00000000       0.00000000       0.00000000        4        1        0        0        0
Mo       9.13317228       1.05102417      12.51293332      95.95000002       0.00000000       0.00000000       0.00000000        5        1        0        0        0
Mo      16.81374090       6.75376720      12.52089488      95.95000002       0.00000000       0.00000000       0.00000000        6        1       -1        0        0
Mo       5.85087677       5.48799541      12.51785534      95.95000002       0.00000000       0.00000000       0.00000000        7        1        0        0        0
Mo       8.77010860       4.21723256      12.51763443      95.95000002       0.00000000       0.00000000       0.00000000        8        1        0        0        0
Mo      11.68975905       2.94914139      12.50310680      95.95000002       0.00000000       0.00000000       0.00000000        9        1        0        0        0
Mo       5.48905461       8.64877962      12.50701210      95.95000002       0.00000000       0.00000000       0.00000000       10        1        0        0        0
Mo       8.41270959       7.38365455      12.51192806      95.95000002       0.00000000       0.00000000       0.00000000       11        1        0        0        0
Mo      11.32948147       6.11676650      12.51909365      95.95000002       0.00000000       0.00000000       0.00000000       12        1        0        0        0
Mo      14.24952932       4.85436320      12.51217296      95.95000002       0.00000000       0.00000000       0.00000000       13        1        0        0        0
Mo      19.00544283      11.81163408      12.49438389      95.95000002       0.00000000       0.00000000       0.00000000       14        1       -1        0       -1
Mo       8.04632443      10.55132165      12.49227578      95.95000002       0.00000000       0.00000000       0.00000000       15        1        0        0       -1
Mo      10.96891652       9.28688818      12.51383236      95.95000002       0.00000000       0.00000000       0.00000000       16        1        0        0        0
Mo      13.88860429       8.01884426      12.52673759      95.95000002       0.00000000       0.00000000       0.00000000       17        1        0        0        0
Mo      13.52257487      11.18614853      12.52054063      95.95000002       0.00000000       0.00000000       0.00000000       18        1        0        0        0
Mo      16.44807871       9.91423720      12.51810642      95.95000002       0.00000000       0.00000000       0.00000000       19        1        0        0        0
Mo       4.68854130       1.14037469      18.99168314      95.95000002       0.00000000       0.00000000       0.00000000       20        1        0        0        0
Mo       5.05218015       4.30684798      18.98381500      95.95000002       0.00000000       0.00000000       0.00000000       21        1        0        0        0
Mo       7.61089608       2.41387878      18.98224202      95.95000002       0.00000000       0.00000000       0.00000000       22        1        0        0        0
Mo      10.16707163       0.51990850      18.99323721      95.95000002       0.00000000       0.00000000       0.00000000       23        1        0        0        0
Mo       7.97020330       5.57740229      18.98217078      95.95000002       0.00000000       0.00000000       0.00000000       24        1        0        0        0
Mo      10.53359925       3.68465246      18.98864253      95.95000002       0.00000000       0.00000000       0.00000000       25        1        0        0        0
Mo      13.09338333       1.78319922      19.00833120      95.95000002       0.00000000       0.00000000       0.00000000       26        1        0        0        0
Mo       8.33155416       8.73978983      18.99611353      95.95000002       0.00000000       0.00000000       0.00000000       27        1        0        0        0
Mo      10.89489536       6.84417070      18.98077429      95.95000002       0.00000000       0.00000000       0.00000000       28        1        0        0        0
Mo      13.45997159       4.94661882      18.98695159      95.95000002       0.00000000       0.00000000       0.00000000       29        1        0        0        0
Mo       2.13179797       3.04131937      18.99940696      95.95000002       0.00000000       0.00000000       0.00000000       30        1        1        0        0
Mo       8.70425420      11.90379603      19.01003682      95.95000002       0.00000000       0.00000000       0.00000000       31        1        0        0        0
Mo      11.26132752      10.00411362      18.98712095      95.95000002       0.00000000       0.00000000       0.00000000       32        1        0        0        0
Mo      13.82158128       8.10923567      18.97326215      95.95000002       0.00000000       0.00000000       0.00000000       33        1        0        0        0
Mo      16.38160944       6.20835800      18.97986870      95.95000002       0.00000000       0.00000000       0.00000000       34        1        0        0        0
Mo      14.18831296      11.27501791      18.97883189      95.95000002       0.00000000       0.00000000       0.00000000       35        1        0        0        0
Mo      16.74259557       9.37787637      18.98181660      95.95000002       0.00000000       0.00000000       0.00000000       36        1        0        0        0
Mo       5.40956907       7.47461195      18.98675239      95.95000002       0.00000000       0.00000000       0.00000000       37        1        1        0        0
Mo      19.66431434      10.64384009      19.00535303      95.95000002       0.00000000       0.00000000       0.00000000       38        1        0        0        0
S        2.54769227       1.90551153      14.06556144      32.06000001       0.00000000       0.00000000       0.00000000       39        2        0        0        0
S        2.56187241       1.90808041      10.92738043      32.06000001       0.00000000       0.00000000       0.00000000       40        2        0        0       -1
S        5.47445058       0.64267899      14.08503075      32.06000001       0.00000000       0.00000000       0.00000000       41        2        0        0        0
S        5.48893901       0.63617485      10.94222247      32.06000001       0.00000000       0.00000000       0.00000000       42        2        0        0       -1
S        5.11082612       3.80425113      14.08906494      32.06000001       0.00000000       0.00000000       0.00000000       43        2        0        0        0
S        5.11902780       3.80366840      10.94409463      32.06000001       0.00000000       0.00000000       0.00000000       44        2        0        0       -1
S        8.03762938       2.52816291      14.09144924      32.06000001       0.00000000       0.00000000       0.00000000       45        2        0        0        0
S        8.03760230       2.53191345      10.94587973      32.06000001       0.00000000       0.00000000       0.00000000       46        2        0        0       -1
S       10.96601761       1.25327047      14.07157153      32.06000001       0.00000000       0.00000000       0.00000000       47        2        0        0        0
S       10.95506434       1.26256052      10.93178378      32.06000001       0.00000000       0.00000000       0.00000000       48        2        0        0       -1
S        4.76025953       6.96623127      14.08920123      32.06000001       0.00000000       0.00000000       0.00000000       49        2        0        0        0
S        4.75097099       6.95959809      10.94522304      32.06000001       0.00000000       0.00000000       0.00000000       50        2        0        0       -1
S        7.68091151       5.69835580      14.09209161      32.06000001       0.00000000       0.00000000       0.00000000       51        2        0        0        0
S        7.67722496       5.69460980      10.94613903      32.06000001       0.00000000       0.00000000       0.00000000       52        2        0        0       -1
S       10.59684377       4.41988160      14.08675580      32.06000001       0.00000000       0.00000000       0.00000000       53        2        0        0        0
S       10.59371603       4.43337732      10.94306870      32.06000001       0.00000000       0.00000000       0.00000000       54        2        0        0       -1
S       13.51484466       3.15565949      14.06798320      32.06000001       0.00000000       0.00000000       0.00000000       55        2        0        0        0
S       13.51622570       3.17305241      10.92958762      32.06000001       0.00000000       0.00000000       0.00000000       56        2        0        0       -1
S        7.32294847       8.86846228      14.07211752      32.06000001       0.00000000       0.00000000       0.00000000       57        2        0        0        0
S        7.31544940       8.85438313      10.93212802      32.06000001       0.00000000       0.00000000       0.00000000       58        2        0        0       -1
S       10.23735642       7.59970642      14.08837803      32.06000001       0.00000000       0.00000000       0.00000000       59        2        0        0        0
S       10.24044963       7.59491317      10.94471245      32.06000001       0.00000000       0.00000000       0.00000000       60        2        0        0       -1
S       13.15269319       6.32524276      14.09368914      32.06000001       0.00000000       0.00000000       0.00000000       61        2        0        0        0
S       13.15557364       6.33612247      10.94928963      32.06000001       0.00000000       0.00000000       0.00000000       62        2        0        0       -1
S       16.07471126       5.06371526      14.08612295      32.06000001       0.00000000       0.00000000       0.00000000       63        2        0        0        0
S       16.07884285       5.07293870      10.94317980      32.06000001       0.00000000       0.00000000       0.00000000       64        2        0        0       -1
S        6.94708299      12.02722742      14.05410898      32.06000001       0.00000000       0.00000000       0.00000000       65        2        0        0        0
S        6.94376286      12.02573965      10.91882787      32.06000001       0.00000000       0.00000000       0.00000000       66        2        0        0       -1
S        9.86814015      10.77374258      14.06911637      32.06000001       0.00000000       0.00000000       0.00000000       67        2        0        0        0
S        9.87943072      10.76159341      10.93042995      32.06000001       0.00000000       0.00000000       0.00000000       68        2        0        0       -1
S       12.79103059       9.50205556      14.09511117      32.06000001       0.00000000       0.00000000       0.00000000       69        2        0        0        0
S       12.79846868       9.49535655      10.95035885      32.06000001       0.00000000       0.00000000       0.00000000       70        2        0        0       -1
S       15.72003779       8.22801698      14.09731523      32.06000001       0.00000000       0.00000000       0.00000000       71        2        0        0        0
S       15.71326023       8.22745000      10.95206631      32.06000001       0.00000000       0.00000000       0.00000000       72        2        0        0       -1
S       15.35285883      11.39256928      14.09111571      32.06000001       0.00000000       0.00000000       0.00000000       73        2        0        0        0
S       15.34756702      11.38962216      10.94707458      32.06000001       0.00000000       0.00000000       0.00000000       74        2        0        0       -1
S       18.28712665      10.12499039      14.07505493      32.06000001       0.00000000       0.00000000       0.00000000       75        2        0        0        0
S       18.26999114      10.11860520      10.93502189      32.06000001       0.00000000       0.00000000       0.00000000       76        2        0        0       -1
S        2.86601389       1.35484860      20.57260132      32.06000001       0.00000000       0.00000000       0.00000000       77        2        0        0        0
S        2.85628162       1.34445858      17.43441498      32.06000001       0.00000000       0.00000000       0.00000000       78        2        0        0        0
S        3.22834849       4.52604468      20.55816189      32.06000001       0.00000000       0.00000000       0.00000000       79        2        0        0        0
S        3.22643044       4.51007471      17.41542321      32.06000001       0.00000000       0.00000000       0.00000000       80        2        0        0        0
S        5.78621692       2.62197463      20.55589565      32.06000001       0.00000000       0.00000000       0.00000000       81        2        0        0        0
S        5.78271301       2.61489389      17.41095107      32.06000001       0.00000000       0.00000000       0.00000000       82        2        0        0        0
S        8.33505638       0.72531231      20.55482247      32.06000001       0.00000000       0.00000000       0.00000000       83        2        0        0        0
S        8.34566558       0.73038181      17.41093589      32.06000001       0.00000000       0.00000000       0.00000000       84        2        0        0        0
S        6.14443532       5.78564271      20.55395672      32.06000001       0.00000000       0.00000000       0.00000000       85        2        0        0        0
S        6.14118799       5.78719991      17.40828149      32.06000001       0.00000000       0.00000000       0.00000000       86        2        0        0        0
S        8.70287358       3.89234426      20.55404185      32.06000001       0.00000000       0.00000000       0.00000000       87        2        0        0        0
S        8.70856337       3.89355905      17.40816395      32.06000001       0.00000000       0.00000000       0.00000000       88        2        0        0        0
S       11.25830252       1.99873898      20.56841446      32.06000001       0.00000000       0.00000000       0.00000000       89        2        0        0        0
S       11.27435866       1.99845387      17.42864634      32.06000001       0.00000000       0.00000000       0.00000000       90        2        0        0        0
S        6.50376628       8.94664059      20.56769089      32.06000001       0.00000000       0.00000000       0.00000000       91        2        0        0        0
S        6.50074677       8.96073712      17.42768616      32.06000001       0.00000000       0.00000000       0.00000000       92        2        0        0        0
S        9.06900775       7.04882973      20.55650348      32.06000001       0.00000000       0.00000000       0.00000000       93        2        0        0        0
S        9.05928220       7.05790765      17.41265257      32.06000001       0.00000000       0.00000000       0.00000000       94        2        0        0        0
S       11.63024982       5.16215871      20.55574591      32.06000001       0.00000000       0.00000000       0.00000000       95        2        0        0        0
S       11.63346521       5.15666788      17.41221009      32.06000001       0.00000000       0.00000000       0.00000000       96        2        0        0        0
S       14.19222809       3.26553333      20.57028649      32.06000001       0.00000000       0.00000000       0.00000000       97        2        0        0        0
S       14.19690970       3.24978459      17.43182236      32.06000001       0.00000000       0.00000000       0.00000000       98        2        0        0        0
S       13.81906191       0.09077481      20.58117068      32.06000001       0.00000000       0.00000000       0.00000000       99        2       -1        1        0
S       13.82144907       0.09348175      17.44588795      32.06000001       0.00000000       0.00000000       0.00000000      100        2       -1        1        0
S        9.43865657      10.20943388      20.56972228      32.06000001       0.00000000       0.00000000       0.00000000      101        2        0        0        0
S        9.42268795      10.21722193      17.43111619      32.06000001       0.00000000       0.00000000       0.00000000      102        2        0        0        0
S       11.99762844       8.31612881      20.55039592      32.06000001       0.00000000       0.00000000       0.00000000      103        2        0        0        0
S       11.98723299       8.31871886      17.40589717      32.06000001       0.00000000       0.00000000       0.00000000      104        2        0        0        0
S       14.55528556       6.42710596      20.55007190      32.06000001       0.00000000       0.00000000       0.00000000      105        2        0        0        0
S       14.55751357       6.41672864      17.40544877      32.06000001       0.00000000       0.00000000       0.00000000      106        2        0        0        0
S       12.36515440      11.47886714      20.55637510      32.06000001       0.00000000       0.00000000       0.00000000      107        2        0        0        0
S       12.35518926      11.48028159      17.41332714      32.06000001       0.00000000       0.00000000       0.00000000      108        2        0        0        0
S       14.91440075       9.58521240      20.54781239      32.06000001       0.00000000       0.00000000       0.00000000      109        2        0        0        0
S       14.91838585       9.59060978      17.40252375      32.06000001       0.00000000       0.00000000       0.00000000      110        2        0        0        0
S       17.47043357       7.68729442      20.55290948      32.06000001       0.00000000       0.00000000       0.00000000      111        2        0        0        0
S       17.47529806       7.68993536      17.40883934      32.06000001       0.00000000       0.00000000       0.00000000      112        2        0        0        0
S       17.83055024      10.85341695      20.56494868      32.06000001       0.00000000       0.00000000       0.00000000      113        2        0        0        0
S       17.84428520      10.86524683      17.42489815      32.06000001       0.00000000       0.00000000       0.00000000      114        2        0        0        0
