LAMMPS data file via write_data, version 28 Mar 2023, timestep = 56, units = metal

42 atoms
2 atom types

0 8.790084003262635 xlo xhi
0 7.612436048224658 ylo yhi
0 30 zlo zhi
-4.395042001631316 0 0 xy xz yz

Masses

1 95.95
2 78.971

Atoms # atomic

8 1 2.6871485804752386 1.409977445052018 6.69545360541097 0 0 0
9 1 3.3127193945231923 4.672788903069061 6.696970775502032 0 0 0
10 1 5.826175778215898 2.4906512949662383 6.696778750395247 0 0 0
11 1 8.341902002410189 0.31965706873279415 6.695498773795566 0 1 0
12 1 -2.3307681582717885 5.758052292729429 6.697058588429607 1 0 0
13 1 0.174981396032317 3.5796515329924765 6.695643218070339 1 0 0
14 1 0.8044944223874313 6.844763157293321 6.691120413109865 1 0 0
15 2 2.727576075891214 2.12658723597656 1.4841966833230464 0 0 0
17 2 5.86790559040876 1.043328366126971 1.482609029767468 0 0 0
19 2 5.235457673057294 4.306458100563565 1.4688736556837445 0 0 0
21 2 -0.4134894006395098 3.224762657901911 1.4843488582195956 1 0 0
23 2 -4.189734869875109 7.567757066968874 1.483579395477026 1 0 0
25 2 -1.046003795143423 6.486670220878951 1.4820769190441303 1 0 0
27 2 2.092574162081193 5.389273239693396 1.4820689804640441 1 0 0
30 2 4.565618039845823 1.045714189331276 5.015515617006785 0 0 0
32 2 5.199031745540228 4.30728890459035 5.031127326485294 0 0 0
34 2 -1.0813134219333227 2.1275308392354706 5.017586639754118 1 0 0
36 2 -2.9568635274403743 7.570140426838391 5.018122870876045 1 0 0
38 2 -0.448980910583594 5.388398157398828 5.016273173870884 1 0 0
40 2 2.0569361996067763 3.2240169088797055 5.017544297265728 1 0 0
42 2 2.692195529613515 6.487384900340351 5.016086991180899 1 0 0
29 2 4.569849913429526 1.0423430765743615 8.369592987046957 0 0 0
31 2 5.199317952694674 4.307115788594961 8.370585538333646 0 0 0
33 2 -1.0798279896444998 2.13009342449613 8.371111892933792 1 0 0
35 2 -2.9603581963309877 7.57027615260603 8.37109032313959 1 0 0
37 2 -0.4481167469057423 5.394173217498361 8.369678110890604 1 0 0
39 2 2.0587034320300632 3.221235969702336 8.371175673550662 1 0 0
41 2 2.6869706495550623 6.485257811880205 8.369615032211135 1 0 0
1 1 0.8399060684474411 1.7690095991886718 29.80887371931958 0 0 -1
2 1 3.9821214305841024 0.6818880561079411 29.8044302826116 0 0 -1
3 1 3.348641946901942 3.940806835775955 29.803104445537528 0 0 -1
4 1 6.494948233158347 2.855209320904216 29.803176662466615 0 0 -1
5 1 2.721916823773028 7.20368465101359 29.804379643557013 0 0 -1
6 1 -2.9284215111761935 6.123027117184183 29.802904183202635 1 0 -1
7 1 0.21026836395052317 5.033734195638008 29.804579879599984 1 0 -1
16 2 2.722354974151708 2.1286193972180625 28.1303624886452 0 0 -1
18 2 5.864888206224354 1.043461041645657 28.128841483041185 0 0 -1
20 2 5.235164767889437 4.306298105267356 28.12941330429556 0 0 -1
22 2 -0.41272029061082693 3.219382352288298 28.130420361261383 1 0 -1
24 2 -4.185129123211121 7.571363888525517 28.130338758709097 1 0 -1
26 2 -1.0442368093953158 6.483599002317524 28.128866153109243 1 0 -1
28 2 2.094046282924329 5.392112421793325 28.128924513404154 1 0 -1

Velocities

8 0 0 0
9 0 0 0
10 0 0 0
11 0 0 0
12 0 0 0
13 0 0 0
14 0 0 0
15 0 0 0
17 0 0 0
19 0 0 0
21 0 0 0
23 0 0 0
25 0 0 0
27 0 0 0
30 0 0 0
32 0 0 0
34 0 0 0
36 0 0 0
38 0 0 0
40 0 0 0
42 0 0 0
29 0 0 0
31 0 0 0
33 0 0 0
35 0 0 0
37 0 0 0
39 0 0 0
41 0 0 0
1 0 0 0
2 0 0 0
3 0 0 0
4 0 0 0
5 0 0 0
6 0 0 0
7 0 0 0
16 0 0 0
18 0 0 0
20 0 0 0
22 0 0 0
24 0 0 0
26 0 0 0
28 0 0 0
