222
Lattice="20.210628669071646 0.0 0.0 10.105314334535823 17.502917853870127 0.0 0.0 0.0 30.0" Properties=species:S:1:pos:R:3:masses:R:1:momenta:R:3:id:I:1:type:I:1:travel:I:3 comment="LAMMPS data file via write_data, version 28 Mar 2023, timestep = 59, units = metal" pbc="T T T"
Mo      21.02486606       1.73688730      12.24323951      95.95000002       0.00000000       0.00000000       0.00000000        1        1       -1        0       -1
Mo       3.82398291       0.32769881      12.26070514      95.95000002       0.00000000       0.00000000       0.00000000        2        1        0        0       -1
Mo       3.54285277       3.63917318      12.27488153      95.95000002       0.00000000       0.00000000       0.00000000        3        1        0        0       -1
Mo       6.55021945       2.22315019      12.29903676      95.95000002       0.00000000       0.00000000       0.00000000        4        1        0        0       -1
Mo       9.55452951       0.79488475      12.32240142      95.95000002       0.00000000       0.00000000       0.00000000        5        1        0        0       -1
Mo      23.48132812       6.94545439      12.30895545      95.95000002       0.00000000       0.00000000       0.00000000        6        1       -1        0       -1
Mo       6.27821943       5.53086067      12.31452960      95.95000002       0.00000000       0.00000000       0.00000000        7        1        0        0       -1
Mo       9.28157553       4.10633252      12.32765692      95.95000002       0.00000000       0.00000000       0.00000000        8        1        0        0       -1
Mo      12.28245873       2.67490623      12.32080588      95.95000002       0.00000000       0.00000000       0.00000000        9        1        0        0       -1
Mo      15.28767095       1.24852224      12.28610323      95.95000002       0.00000000       0.00000000       0.00000000       10        1        0        0       -1
Mo       6.01329962       8.83369962      12.32428473      95.95000002       0.00000000       0.00000000       0.00000000       11        1        0        0       -1
Mo       9.01750998       7.41378014      12.33018885      95.95000002       0.00000000       0.00000000       0.00000000       12        1        0        0       -1
Mo      12.01473560       5.98731572      12.33079794      95.95000002       0.00000000       0.00000000       0.00000000       13        1        0        0       -1
Mo      15.01119020       4.56111498      12.30615556      95.95000002       0.00000000       0.00000000       0.00000000       14        1        0        0       -1
Mo      18.01487397       3.14483419      12.26554298      95.95000002       0.00000000       0.00000000       0.00000000       15        1        0        0       -1
Mo      25.95585645      12.13606330      12.31171910      95.95000002       0.00000000       0.00000000       0.00000000       16        1       -1        0       -1
Mo       8.75415858      10.71974737      12.30929902      95.95000002       0.00000000       0.00000000       0.00000000       17        1        0        0       -1
Mo      11.75393816       9.29998408      12.32138295      95.95000002       0.00000000       0.00000000       0.00000000       18        1        0        0       -1
Mo      14.74661623       7.87681828      12.32388213      95.95000002       0.00000000       0.00000000       0.00000000       19        1        0        0       -1
Mo      17.74137738       6.45773973      12.30365722      95.95000002       0.00000000       0.00000000       0.00000000       20        1        0        0       -1
Mo      20.74475725       5.04736795      12.27760723      95.95000002       0.00000000       0.00000000       0.00000000       21        1        0        0       -1
Mo       8.47921859      14.02715057      12.27174421      95.95000002       0.00000000       0.00000000       0.00000000       22        1        0        0       -1
Mo      11.48657322      12.61360794      12.28480920      95.95000002       0.00000000       0.00000000       0.00000000       23        1        0        0       -1
Mo      14.48440199      11.19531375      12.31355571      95.95000002       0.00000000       0.00000000       0.00000000       24        1        0        0       -1
Mo      17.47765177       9.77416670      12.32886780      95.95000002       0.00000000       0.00000000       0.00000000       25        1        0        0       -1
Mo      20.47555414       8.35713040      12.32070783      95.95000002       0.00000000       0.00000000       0.00000000       26        1        0        0       -1
Mo      28.40447979      17.33675035      12.24996626      95.95000002       0.00000000       0.00000000       0.00000000       27        1       -1        0       -1
Mo      11.20562492      15.92743858      12.24711127      95.95000002       0.00000000       0.00000000       0.00000000       28        1        0        0       -1
Mo      14.21172507      14.51433774      12.28105043      95.95000002       0.00000000       0.00000000       0.00000000       29        1        0        0       -1
Mo      17.21101102      13.09326949      12.32230415      95.95000002       0.00000000       0.00000000       0.00000000       30        1        0        0       -1
Mo      20.21012459      11.66896875      12.33943565      95.95000002       0.00000000       0.00000000       0.00000000       31        1        0        0       -1
Mo      23.21522016      10.24956342      12.33160352      95.95000002       0.00000000       0.00000000       0.00000000       32        1        0        0       -1
Mo      16.93462488      16.41177675      12.30219190      95.95000002       0.00000000       0.00000000       0.00000000       33        1        0        0       -1
Mo      19.93772342      14.98322007      12.33134178      95.95000002       0.00000000       0.00000000       0.00000000       34        1        0        0       -1
Mo      22.94457288      13.55571710      12.32867067      95.95000002       0.00000000       0.00000000       0.00000000       35        1        0        0       -1
Mo      22.66560764      16.86562613      12.31769635      95.95000002       0.00000000       0.00000000       0.00000000       36        1        0        0       -1
Mo      25.67679412      15.44174797      12.28967007      95.95000002       0.00000000       0.00000000       0.00000000       37        1        0        0       -1
W        4.87330112       1.32097775      19.22243616      78.97100002       0.00000000       0.00000000       0.00000000       38        3        0        0        0
W        5.15078064       4.63320768      19.20081833      78.97100002       0.00000000       0.00000000       0.00000000       39        3        0        0        0
W        7.87920354       2.74402237      19.18631468      78.97100002       0.00000000       0.00000000       0.00000000       40        3        0        0        0
W       10.60694365       0.86237851      19.17750370      78.97100002       0.00000000       0.00000000       0.00000000       41        3        0        0        0
W        8.14800039       6.05665683      19.17428112      78.97100002       0.00000000       0.00000000       0.00000000       42        3        0        0        0
W       10.87965264       4.17380611      19.17218432      78.97100002       0.00000000       0.00000000       0.00000000       43        3        0        0        0
W       13.61060348       2.29182448      19.19171039      78.97100002       0.00000000       0.00000000       0.00000000       44        3        0        0        0
W       16.33777612       0.39957829      19.22596490      78.97100002       0.00000000       0.00000000       0.00000000       45        3        0        0        0
W        8.40985739       9.37042068      19.18016390      78.97100002       0.00000000       0.00000000       0.00000000       46        3        0        0        0
W       11.14396168       7.48234871      19.17120416      78.97100002       0.00000000       0.00000000       0.00000000       47        3        0        0        0
W       13.88134524       5.59956556      19.18056652      78.97100002       0.00000000       0.00000000       0.00000000       48        3        0        0        0
W       16.61675309       3.71081793      19.21452345      78.97100002       0.00000000       0.00000000       0.00000000       49        3        0        0        0
W       19.34643064       1.81104720      19.24860693      78.97100002       0.00000000       0.00000000       0.00000000       50        3        0        0        0
W       11.40779215      10.79031172      19.19317048      78.97100002       0.00000000       0.00000000       0.00000000       51        3        0        0        0
W       14.14612515       8.90315801      19.17763220      78.97100002       0.00000000       0.00000000       0.00000000       52        3        0        0        0
W       16.88784555       7.01644767      19.18807624      78.97100002       0.00000000       0.00000000       0.00000000       53        3        0        0        0
W       19.62543345       5.12105375      19.21812490      78.97100002       0.00000000       0.00000000       0.00000000       54        3        0        0        0
W        2.14576226       3.21928347      19.23612518      78.97100002       0.00000000       0.00000000       0.00000000       55        3        1        0        0
W       11.68263468      14.09995922      19.23021702      78.97100002       0.00000000       0.00000000       0.00000000       56        3        0        0        0
W       14.41485847      12.20689104      19.19547972      78.97100002       0.00000000       0.00000000       0.00000000       57        3        0        0        0
W       17.15446493      10.31991960      19.17328171      78.97100002       0.00000000       0.00000000       0.00000000       58        3        0        0        0
W       19.89500125       8.42925750      19.18010947      78.97100002       0.00000000       0.00000000       0.00000000       59        3        0        0        0
W       22.63062167       6.53119549      19.19850855      78.97100002       0.00000000       0.00000000       0.00000000       60        3        0        0        0
W       11.96723590      17.41098662      19.25126035      78.97100002       0.00000000       0.00000000       0.00000000       61        3        0        0        0
W       14.69448008      15.51378604      19.21934163      78.97100002       0.00000000       0.00000000       0.00000000       62        3        0        0        0
W       17.42620667      13.62554409      19.18017397      78.97100002       0.00000000       0.00000000       0.00000000       63        3        0        0        0
W       20.16156090      11.73908547      19.16369312      78.97100002       0.00000000       0.00000000       0.00000000       64        3        0        0        0
W       22.89577338       9.84588884      19.17147536      78.97100002       0.00000000       0.00000000       0.00000000       65        3        0        0        0
W        5.41693317       7.94841214      19.17939231      78.97100002       0.00000000       0.00000000       0.00000000       66        3        1        0        0
W       17.70596295      16.93505029      19.19106313      78.97100002       0.00000000       0.00000000       0.00000000       67        3        0        0        0
W       20.43454770      15.05163780      19.17057527      78.97100002       0.00000000       0.00000000       0.00000000       68        3        0        0        0
W       23.16302608      13.16336313      19.17351287      78.97100002       0.00000000       0.00000000       0.00000000       69        3        0        0        0
W       25.89074926      11.26677052      19.18338332      78.97100002       0.00000000       0.00000000       0.00000000       70        3        0        0        0
W       23.43851939      16.48087723      19.18914213      78.97100002       0.00000000       0.00000000       0.00000000       71        3        0        0        0
W       26.16269424      14.58599232      19.20903482      78.97100002       0.00000000       0.00000000       0.00000000       72        3        0        0        0
W        8.67723841      12.68568485      19.21168769      78.97100002       0.00000000       0.00000000       0.00000000       73        3        1        0        0
W       29.16742723      16.00099603      19.24514052      78.97100002       0.00000000       0.00000000       0.00000000       74        3        0        0        0
Se       2.71331969       1.89743732      13.92955480     183.84000005       0.00000000       0.00000000       0.00000000       75        2        0        0        0
Se       2.73813853       1.90855183      10.58250756     183.84000005       0.00000000       0.00000000       0.00000000       76        2        0        0       -1
Se       5.71506074       0.49182664      13.96097231     183.84000005       0.00000000       0.00000000       0.00000000       77        2        0        0        0
Se       5.75431454       0.48626205      10.61173609     183.84000005       0.00000000       0.00000000       0.00000000       78        2        0        0       -1
Se       5.43852734       3.79484091      13.97194740     183.84000005       0.00000000       0.00000000       0.00000000       79        2        0        0        0
Se       5.47075055       3.80567739      10.62106437     183.84000005       0.00000000       0.00000000       0.00000000       80        2        0        0       -1
Se       8.44873218       2.37468633      13.99550766     183.84000005       0.00000000       0.00000000       0.00000000       81        2        0        0        0
Se       8.47425031       2.37656479      10.64236596     183.84000005       0.00000000       0.00000000       0.00000000       82        2        0        0       -1
Se      11.46751742       0.94041923      13.99950582     183.84000005       0.00000000       0.00000000       0.00000000       83        2        0        0        0
Se      11.46432563       0.94282957      10.64644645     183.84000005       0.00000000       0.00000000       0.00000000       84        2        0        0       -1
Se       5.17918340       7.10104229      13.99445595     183.84000005       0.00000000       0.00000000       0.00000000       85        2        0        0        0
Se       5.18986064       7.10892036      10.64184169     183.84000005       0.00000000       0.00000000       0.00000000       86        2        0        0       -1
Se       8.18412327       5.68418282      14.00535698     183.84000005       0.00000000       0.00000000       0.00000000       87        2        0        0        0
Se       8.19813906       5.68529259      10.65056786     183.84000005       0.00000000       0.00000000       0.00000000       88        2        0        0       -1
Se      11.19324922       4.25086345      14.00809559     183.84000005       0.00000000       0.00000000       0.00000000       89        2        0        0        0
Se      11.19196887       4.25916199      10.65298944     183.84000005       0.00000000       0.00000000       0.00000000       90        2        0        0       -1
Se      14.20450832       2.81530101      13.98159314     183.84000005       0.00000000       0.00000000       0.00000000       91        2        0        0        0
Se      14.18164315       2.83406284      10.62970478     183.84000005       0.00000000       0.00000000       0.00000000       92        2        0        0       -1
Se      17.21351981       1.39896312      13.93816832     183.84000005       0.00000000       0.00000000       0.00000000       93        2        0        0        0
Se      17.18616237       1.41360148      10.59053334     183.84000005       0.00000000       0.00000000       0.00000000       94        2        0        0       -1
Se       7.93159198       8.99784717      14.00136683     183.84000005       0.00000000       0.00000000       0.00000000       95        2        0        0        0
Se       7.92542483       8.98110033      10.64752018     183.84000005       0.00000000       0.00000000       0.00000000       96        2        0        0       -1
Se      10.93186271       7.57112373      14.00943346     183.84000005       0.00000000       0.00000000       0.00000000       97        2        0        0        0
Se      10.92737513       7.56361601      10.65409170     183.84000005       0.00000000       0.00000000       0.00000000       98        2        0        0       -1
Se      13.93090492       6.13262452      14.00047319     183.84000005       0.00000000       0.00000000       0.00000000       99        2        0        0        0
Se      13.91724553       6.14883451      10.64650530     183.84000005       0.00000000       0.00000000       0.00000000      100        2        0        0       -1
Se      16.92998030       4.70249920      13.96639259     183.84000005       0.00000000       0.00000000       0.00000000      101        2        0        0        0
Se      16.91129643       4.73664693      10.61646482     183.84000005       0.00000000       0.00000000       0.00000000      102        2        0        0       -1
Se      19.92796767       3.29461496      13.93219891     183.84000005       0.00000000       0.00000000       0.00000000      103        2        0        0        0
Se      19.92412653       3.32454630      10.58516697     183.84000005       0.00000000       0.00000000       0.00000000      104        2        0        0       -1
Se       7.67310658      12.30823674      13.97286485     183.84000005       0.00000000       0.00000000       0.00000000      105        2        0        0        0
Se       7.64961576      12.27795043      10.62255909     183.84000005       0.00000000       0.00000000       0.00000000      106        2        0        0       -1
Se      10.67220027      10.89373943      13.98264933     183.84000005       0.00000000       0.00000000       0.00000000      107        2        0        0        0
Se      10.66366104      10.86331744      10.63057035     183.84000005       0.00000000       0.00000000       0.00000000      108        2        0        0       -1
Se      13.66540400       9.46291506      13.99912502     183.84000005       0.00000000       0.00000000       0.00000000      109        2        0        0        0
Se      13.66260281       9.45432948      10.64574584     183.84000005       0.00000000       0.00000000       0.00000000      110        2        0        0       -1
Se      16.65731098       8.02574764      13.99725356     183.84000005       0.00000000       0.00000000       0.00000000      111        2        0        0        0
Se      16.65215939       8.04781679      10.64483555     183.84000005       0.00000000       0.00000000       0.00000000      112        2        0        0       -1
Se      19.65164765       6.60271343      13.97583313     183.84000005       0.00000000       0.00000000       0.00000000      113        2        0        0        0
Se      19.64992359       6.63999857      10.62569958     183.84000005       0.00000000       0.00000000       0.00000000      114        2        0        0       -1
Se      22.64835701       5.19832968      13.96061327     183.84000005       0.00000000       0.00000000       0.00000000      115        2        0        0        0
Se      22.66409424       5.22676836      10.61152786     183.84000005       0.00000000       0.00000000       0.00000000      116        2        0        0       -1
Se      10.39680594      14.20550609      13.93898171     183.84000005       0.00000000       0.00000000       0.00000000      117        2        0        0        0
Se      10.38939106      14.17355047      10.59126210     183.84000005       0.00000000       0.00000000       0.00000000      118        2        0        0       -1
Se      13.39257962      12.79072400      13.96770246     183.84000005       0.00000000       0.00000000       0.00000000      119        2        0        0        0
Se      13.40329401      12.76224426      10.61784360     183.84000005       0.00000000       0.00000000       0.00000000      120        2        0        0       -1
Se      16.38737209      11.35955115      14.00009807     183.84000005       0.00000000       0.00000000       0.00000000      121        2        0        0        0
Se      16.39914253      11.35307598      10.64766774     183.84000005       0.00000000       0.00000000       0.00000000      122        2        0        0       -1
Se      19.38549874       9.92646038      14.00930029     183.84000005       0.00000000       0.00000000       0.00000000      123        2        0        0        0
Se      19.38817701       9.94242023      10.65607805     183.84000005       0.00000000       0.00000000       0.00000000      124        2        0        0       -1
Se      22.38715854       8.50862963      13.99863253     183.84000005       0.00000000       0.00000000       0.00000000      125        2        0        0        0
Se      22.38807322       8.52818002      10.64642774     183.84000005       0.00000000       0.00000000       0.00000000      126        2        0        0       -1
Se      10.10900669      17.50261000      13.91525286     183.84000005       0.00000000       0.00000000       0.00000000      127        2        0        0        0
Se      10.10413063      17.49939944      10.56890390     183.84000005       0.00000000       0.00000000       0.00000000      128        2        0        0       -1
Se      13.10573508      16.10178960      13.93310173     183.84000005       0.00000000       0.00000000       0.00000000      129        2        0        0        0
Se      13.12875463      16.08330250      10.58603568     183.84000005       0.00000000       0.00000000       0.00000000      130        2        0        0       -1
Se      16.10685957      14.68534247      13.97715892     183.84000005       0.00000000       0.00000000       0.00000000      131        2        0        0        0
Se      16.13656232      14.66590952      10.62693909     183.84000005       0.00000000       0.00000000       0.00000000      132        2        0        0       -1
Se      19.11476126      13.25325774      14.01084113     183.84000005       0.00000000       0.00000000       0.00000000      133        2        0        0        0
Se      19.12713027      13.24521627      10.65748452     183.84000005       0.00000000       0.00000000       0.00000000      134        2        0        0       -1
Se      22.12754406      11.82480780      14.01342431     183.84000005       0.00000000       0.00000000       0.00000000      135        2        0        0        0
Se      22.11805763      11.82311856      10.65979443     183.84000005       0.00000000       0.00000000       0.00000000      136        2        0        0       -1
Se      25.13806010      10.41044103      14.00139619     183.84000005       0.00000000       0.00000000       0.00000000      137        2        0        0        0
Se      25.12352364      10.40130364      10.64871886     183.84000005       0.00000000       0.00000000       0.00000000      138        2        0        0       -1
Se      18.83347045      16.56981893      13.99680451     183.84000005       0.00000000       0.00000000       0.00000000      139        2        0        0        0
Se      18.85691945      16.55980673      10.64462657     183.84000005       0.00000000       0.00000000       0.00000000      140        2        0        0       -1
Se      21.85448385      15.13694912      14.00500665     183.84000005       0.00000000       0.00000000       0.00000000      141        2        0        0        0
Se      21.84560877      15.12794249      10.65216903     183.84000005       0.00000000       0.00000000       0.00000000      142        2        0        0       -1
Se      24.87437812      13.71648645      13.98655786     183.84000005       0.00000000       0.00000000       0.00000000      143        2        0        0        0
Se      24.84524279      13.69976510      10.63550933     183.84000005       0.00000000       0.00000000       0.00000000      144        2        0        0       -1
Se      24.59356568      17.01600401      13.97283987     183.84000005       0.00000000       0.00000000       0.00000000      145        2        0        0        0
Se      24.56389291      17.01468710      10.62275161     183.84000005       0.00000000       0.00000000       0.00000000      146        2        0        0       -1
Se      27.60625746      15.60809399      13.94150297     183.84000005       0.00000000       0.00000000       0.00000000      147        2        0        0        0
Se      27.57662995      15.59066134      10.59395478     183.84000005       0.00000000       0.00000000       0.00000000      148        2        0        0       -1
Se       2.97126688       1.48775628      20.92262270     183.84000005       0.00000000       0.00000000       0.00000000      149        2        0        0        0
Se       2.95083970       1.47378480      17.55704546     183.84000005       0.00000000       0.00000000       0.00000000      150        2        0        0        0
Se       3.24777222       4.81018481      20.89651773     183.84000005       0.00000000       0.00000000       0.00000000      151        2        0        0        0
Se       3.23398998       4.77673142      17.52885936     183.84000005       0.00000000       0.00000000       0.00000000      152        2        0        0        0
Se       5.98021743       2.90617098      20.88754320     183.84000005       0.00000000       0.00000000       0.00000000      153        2        0        0        0
Se       5.95683657       2.88596887      17.51812346     183.84000005       0.00000000       0.00000000       0.00000000      154        2        0        0        0
Se       8.70093113       1.01184299      20.86834703     183.84000005       0.00000000       0.00000000       0.00000000      155        2        0        0        0
Se       8.68997437       1.00737766      17.49741557     183.84000005       0.00000000       0.00000000       0.00000000      156        2        0        0        0
Se       6.24553083       6.22154573      20.86825748     183.84000005       0.00000000       0.00000000       0.00000000      157        2        0        0        0
Se       6.23221237       6.20212938      17.49664207     183.84000005       0.00000000       0.00000000       0.00000000      158        2        0        0        0
Se       8.97269619       4.32844925      20.86073173     183.84000005       0.00000000       0.00000000       0.00000000      159        2        0        0        0
Se       8.96560298       4.31789874      17.48739464     183.84000005       0.00000000       0.00000000       0.00000000      160        2        0        0        0
Se      11.69123728       2.44380470      20.86368233     183.84000005       0.00000000       0.00000000       0.00000000      161        2        0        0        0
Se      11.70767210       2.44127043      17.49146012     183.84000005       0.00000000       0.00000000       0.00000000      162        2        0        0        0
Se      14.40965935       0.55585783      20.88648941     183.84000005       0.00000000       0.00000000       0.00000000      163        2        0        0        0
Se      14.44440346       0.56111386      17.51784471     183.84000005       0.00000000       0.00000000       0.00000000      164        2        0        0        0
Se       6.50068445       9.52827204      20.86415832     183.84000005       0.00000000       0.00000000       0.00000000      165        2        0        0        0
Se       6.49987909       9.53163857      17.49275361     183.84000005       0.00000000       0.00000000       0.00000000      166        2        0        0        0
Se       9.23581275       7.63457343      20.85823571     183.84000005       0.00000000       0.00000000       0.00000000      167        2        0        0        0
Se       9.22989658       7.63905486      17.48452359     183.84000005       0.00000000       0.00000000       0.00000000      168        2        0        0        0
Se      11.96485491       5.75254652      20.85765263     183.84000005       0.00000000       0.00000000       0.00000000      169        2        0        0        0
Se      11.97336750       5.75236192      17.48376214     183.84000005       0.00000000       0.00000000       0.00000000      170        2        0        0        0
Se      14.69082927       3.87303362      20.87959827     183.84000005       0.00000000       0.00000000       0.00000000      171        2        0        0        0
Se      14.71925925       3.86592669      17.50906686     183.84000005       0.00000000       0.00000000       0.00000000      172        2        0        0        0
Se      17.42074203       1.97997050      20.91534440     183.84000005       0.00000000       0.00000000       0.00000000      173        2        0        0        0
Se      17.44932977       1.97178402      17.54915649     183.84000005       0.00000000       0.00000000       0.00000000      174        2        0        0        0
Se       9.49748401      10.93679482      20.87897266     183.84000005       0.00000000       0.00000000       0.00000000      175        2        0        0        0
Se       9.49278279      10.96324128      17.50844110     183.84000005       0.00000000       0.00000000       0.00000000      176        2        0        0        0
Se      12.23501685       9.05026524      20.86392841     183.84000005       0.00000000       0.00000000       0.00000000      177        2        0        0        0
Se      12.22879411       9.06790600      17.49138340     183.84000005       0.00000000       0.00000000       0.00000000      178        2        0        0        0
Se      14.96972651       7.17556145      20.86537364     183.84000005       0.00000000       0.00000000       0.00000000      179        2        0        0        0
Se      14.97848654       7.17325596      17.49364203     183.84000005       0.00000000       0.00000000       0.00000000      180        2        0        0        0
Se      17.70458968       5.29561122      20.89137800     183.84000005       0.00000000       0.00000000       0.00000000      181        2        0        0        0
Se      17.72255726       5.27395757      17.52319027     183.84000005       0.00000000       0.00000000       0.00000000      182        2        0        0        0
Se      20.44303131       3.39741163      20.92015299     183.84000005       0.00000000       0.00000000       0.00000000      183        2        0        0        0
Se      20.44694592       3.37116366      17.55462559     183.84000005       0.00000000       0.00000000       0.00000000      184        2        0        0        0
Se       9.76937775      14.24867604      20.91462671     183.84000005       0.00000000       0.00000000       0.00000000      185        2        0        0        0
Se       9.76965514      14.27737106      17.54839440     183.84000005       0.00000000       0.00000000       0.00000000      186        2        0        0        0
Se      12.50887834      12.34999474      20.89073579     183.84000005       0.00000000       0.00000000       0.00000000      187        2        0        0        0
Se      12.49028377      12.38016609      17.52222763     183.84000005       0.00000000       0.00000000       0.00000000      188        2        0        0        0
Se      15.24619983      10.46934743      20.86531000     183.84000005       0.00000000       0.00000000       0.00000000      189        2        0        0        0
Se      15.23154704      10.48282920      17.49466586     183.84000005       0.00000000       0.00000000       0.00000000      190        2        0        0        0
Se      17.98188153       8.59593670      20.86356643     183.84000005       0.00000000       0.00000000       0.00000000      191        2        0        0        0
Se      17.98210482       8.58290063      17.49317339     183.84000005       0.00000000       0.00000000       0.00000000      192        2        0        0        0
Se      20.71940913       6.71111169      20.88292566     183.84000005       0.00000000       0.00000000       0.00000000      193        2        0        0        0
Se      20.72122803       6.67837473      17.51456863     183.84000005       0.00000000       0.00000000       0.00000000      194        2        0        0        0
Se      20.15800793       0.07115266      20.93501994     183.84000005       0.00000000       0.00000000       0.00000000      195        2       -1        1        0
Se      20.16228989       0.07429926      17.57014605     183.84000005       0.00000000       0.00000000       0.00000000      196        2       -1        1        0
Se      12.79141062      15.66463290      20.91943802     183.84000005       0.00000000       0.00000000       0.00000000      197        2        0        0        0
Se      12.76912464      15.68177923      17.55384887     183.84000005       0.00000000       0.00000000       0.00000000      198        2        0        0        0
Se      15.52520727      13.77010728      20.88231376     183.84000005       0.00000000       0.00000000       0.00000000      199        2        0        0        0
Se      15.49657996      13.78843156      17.51385645     183.84000005       0.00000000       0.00000000       0.00000000      200        2        0        0        0
Se      18.25464549      11.89134505      20.85504173     183.84000005       0.00000000       0.00000000       0.00000000      201        2        0        0        0
Se      18.24111467      11.89599474      17.48400411     183.84000005       0.00000000       0.00000000       0.00000000      202        2        0        0        0
Se      20.98498094      10.01258424      20.85438909     183.84000005       0.00000000       0.00000000       0.00000000      203        2        0        0        0
Se      20.98581328       9.99843522      17.48332668     183.84000005       0.00000000       0.00000000       0.00000000      204        2        0        0        0
Se      23.72044565       8.12093916      20.86633589     183.84000005       0.00000000       0.00000000       0.00000000      205        2        0        0        0
Se      23.71742352       8.09742180      17.49609180     183.84000005       0.00000000       0.00000000       0.00000000      206        2        0        0        0
Se      15.80759386      17.08647004      20.89559660     183.84000005       0.00000000       0.00000000       0.00000000      207        2        0        0        0
Se      15.77785029      17.08744294      17.52806618     183.84000005       0.00000000       0.00000000       0.00000000      208        2        0        0        0
Se      18.52942552      15.19688936      20.86368273     183.84000005       0.00000000       0.00000000       0.00000000      209        2        0        0        0
Se      18.51371099      15.20526714      17.49345066     183.84000005       0.00000000       0.00000000       0.00000000      210        2        0        0        0
Se      21.24926279      13.31475107      20.85176345     183.84000005       0.00000000       0.00000000       0.00000000      211        2        0        0        0
Se      21.25506296      13.32130335      17.48042347     183.84000005       0.00000000       0.00000000       0.00000000      212        2        0        0        0
Se      23.97608502      11.42585917      20.85897465     183.84000005       0.00000000       0.00000000       0.00000000      213        2        0        0        0
Se      23.98704261      11.42843919      17.48823571     183.84000005       0.00000000       0.00000000       0.00000000      214        2        0        0        0
Se      21.52047392      16.62826954      20.86207905     183.84000005       0.00000000       0.00000000       0.00000000      215        2        0        0        0
Se      21.53451908      16.63596798      17.49135915     183.84000005       0.00000000       0.00000000       0.00000000      216        2        0        0        0
Se      24.23938313      14.73765327      20.87414967     183.84000005       0.00000000       0.00000000       0.00000000      217        2        0        0        0
Se      24.26572850      14.75330977      17.50498813     183.84000005       0.00000000       0.00000000       0.00000000      218        2        0        0        0
Se      26.97002531      12.83701168      20.88553325     183.84000005       0.00000000       0.00000000       0.00000000      219        2        0        0        0
Se      26.98404968      12.85997955      17.51705016     183.84000005       0.00000000       0.00000000       0.00000000      220        2        0        0        0
Se      27.24272255      16.15721744      20.91216546     183.84000005       0.00000000       0.00000000       0.00000000      221        2        0        0        0
Se      27.26954468      16.17331624      17.54614118     183.84000005       0.00000000       0.00000000       0.00000000      222        2        0        0        0
