222
Lattice="20.20900202888132 0.0 0.0 -10.104501014440654 17.501509142142485 0.0 0.0 0.0 30.0" Properties=species:S:1:pos:R:3:masses:R:1:momenta:R:3:id:I:1:type:I:1:travel:I:3 comment="LAMMPS data file via write_data, version 28 Mar 2023, timestep = 57, units = metal" pbc="T T T"
Mo       0.82132672       1.73429495      12.35411251      95.95000002       0.00000000       0.00000000       0.00000000        1        1        0        0       -1
Mo       3.82572814       0.30956887      12.34537741      95.95000002       0.00000000       0.00000000       0.00000000        2        1        0        0       -1
Mo       3.55376919       3.61630656      12.33369683      95.95000002       0.00000000       0.00000000       0.00000000        3        1        0        0       -1
Mo       6.56367813       2.19557284      12.31089995      95.95000002       0.00000000       0.00000000       0.00000000        4        1        0        0       -1
Mo       9.57332278       0.78264496      12.30498175      95.95000002       0.00000000       0.00000000       0.00000000        5        1        0        0       -1
Mo       3.27404838       6.92796312      12.32560295      95.95000002       0.00000000       0.00000000       0.00000000        6        1        0        0       -1
Mo       6.28218558       5.50398833      12.29177424      95.95000002       0.00000000       0.00000000       0.00000000        7        1        0        0       -1
Mo       9.29397810       4.09168285      12.26905333      95.95000002       0.00000000       0.00000000       0.00000000        8        1        0        0       -1
Mo      12.30316845       2.68271668      12.28211201      95.95000002       0.00000000       0.00000000       0.00000000        9        1        0        0       -1
Mo      15.30387541       1.26813042      12.31917281      95.95000002       0.00000000       0.00000000       0.00000000       10        1        0        0       -1
Mo       5.99877254       8.81685490      12.29926026      95.95000002       0.00000000       0.00000000       0.00000000       11        1        0        0       -1
Mo       9.00710565       7.40319487      12.26164607      95.95000002       0.00000000       0.00000000       0.00000000       12        1        0        0       -1
Mo      12.01904086       5.99591714      12.25596089      95.95000002       0.00000000       0.00000000       0.00000000       13        1        0        0       -1
Mo      15.02802061       4.58505108      12.28937969      95.95000002       0.00000000       0.00000000       0.00000000       14        1        0        0       -1
Mo      18.03032745       3.16326567      12.33372972      95.95000002       0.00000000       0.00000000       0.00000000       15        1        0        0       -1
Mo       5.72528398      12.13263704      12.32497231      95.95000002       0.00000000       0.00000000       0.00000000       16        1        0        0       -1
Mo       8.72457326      10.71612852      12.29134136      95.95000002       0.00000000       0.00000000       0.00000000       17        1        0        0       -1
Mo      11.73279948       9.30729818      12.26935125      95.95000002       0.00000000       0.00000000       0.00000000       18        1        0        0       -1
Mo      14.74426986       7.89801243      12.28202158      95.95000002       0.00000000       0.00000000       0.00000000       19        1        0        0       -1
Mo      -2.45650597       6.47853309      12.31769471      95.95000002       0.00000000       0.00000000       0.00000000       20        1        1        0       -1
Mo       0.54796530       5.04735011      12.34158881      95.95000002       0.00000000       0.00000000       0.00000000       21        1        1        0       -1
Mo       8.45518573      14.03077595      12.33144719      95.95000002       0.00000000       0.00000000       0.00000000       22        1        0        0       -1
Mo      11.45572270      12.61642249      12.31187414      95.95000002       0.00000000       0.00000000       0.00000000       23        1        0        0       -1
Mo      -5.74440038      11.20552314      12.30564012      95.95000002       0.00000000       0.00000000       0.00000000       24        1        1        0       -1
Mo      -2.73499289       9.78883833      12.32181673      95.95000002       0.00000000       0.00000000       0.00000000       25        1        1        0       -1
Mo       0.27016582       8.36059703      12.33713310      95.95000002       0.00000000       0.00000000       0.00000000       26        1        1        0       -1
Mo       8.19358947      17.34752747      12.34738081      95.95000002       0.00000000       0.00000000       0.00000000       27        1        0        0       -1
Mo      -9.01866589      15.92508433      12.34809114      95.95000002       0.00000000       0.00000000       0.00000000       28        1        1        0       -1
Mo      -6.01374303      14.50839001      12.33595236      95.95000002       0.00000000       0.00000000       0.00000000       29        1        1        0       -1
Mo      -3.00517492      13.09285885      12.33520515      95.95000002       0.00000000       0.00000000       0.00000000       30        1        1        0       -1
Mo      -0.00117987      11.67060734      12.34308087      95.95000002       0.00000000       0.00000000       0.00000000       31        1        1        0       -1
Mo       2.99769469      10.24186205      12.33428164      95.95000002       0.00000000       0.00000000       0.00000000       32        1        1        0       -1
Mo      -3.26994490      16.39390501      12.33318566      95.95000002       0.00000000       0.00000000       0.00000000       33        1        1        0       -1
Mo      -0.26460723      14.97744824      12.33626593      95.95000002       0.00000000       0.00000000       0.00000000       34        1        1        0       -1
Mo       2.73214614      13.55599326      12.34086610      95.95000002       0.00000000       0.00000000       0.00000000       35        1        1        0       -1
Mo       2.47041824      16.87010403      12.32163279      95.95000002       0.00000000       0.00000000       0.00000000       36        1        1        0       -1
Mo       5.46311616      15.45079529      12.33731482      95.95000002       0.00000000       0.00000000       0.00000000       37        1        1        0       -1
Mo       2.90073470       1.56674821      19.16151745      95.95000002       0.00000000       0.00000000       0.00000000       38        1        0        0        0
Mo       3.17338254       4.88084332      19.17282187      95.95000002       0.00000000       0.00000000       0.00000000       39        1        0        0        0
Mo       5.89858371       2.99149648      19.19206983      95.95000002       0.00000000       0.00000000       0.00000000       40        1        0        0        0
Mo       8.62582473       1.09257473      19.19332642      95.95000002       0.00000000       0.00000000       0.00000000       41        1        0        0        0
Mo       6.17953410       6.30548470      19.20897534      95.95000002       0.00000000       0.00000000       0.00000000       42        1        0        0        0
Mo       8.90408767       4.40599753      19.23113991      95.95000002       0.00000000       0.00000000       0.00000000       43        1        0        0        0
Mo      11.63140128       2.50288273      19.21702536      95.95000002       0.00000000       0.00000000       0.00000000       44        1        0        0        0
Mo      14.36634653       0.60681445      19.18245088      95.95000002       0.00000000       0.00000000       0.00000000       45        1        0        0        0
Mo       6.46316389       9.61574970      19.19803921      95.95000002       0.00000000       0.00000000       0.00000000       46        1        0        0        0
Mo       9.19083298       7.71810894      19.23819504      95.95000002       0.00000000       0.00000000       0.00000000       47        1        0        0        0
Mo      11.91542766       5.81345978      19.24406875      95.95000002       0.00000000       0.00000000       0.00000000       48        1        0        0        0
Mo      14.64239118       3.91231139      19.21223164      95.95000002       0.00000000       0.00000000       0.00000000       49        1        0        0        0
Mo      17.37549449       2.02279661      19.17303544      95.95000002       0.00000000       0.00000000       0.00000000       50        1        0        0        0
Mo       9.47408236      11.02814537      19.20930153      95.95000002       0.00000000       0.00000000       0.00000000       51        1        0        0        0
Mo      12.20174116       9.12607666      19.23084850      95.95000002       0.00000000       0.00000000       0.00000000       52        1        0        0        0
Mo      14.92601232       7.22346097      19.21717152      95.95000002       0.00000000       0.00000000       0.00000000       53        1        0        0        0
Mo      -2.55750551       5.33073225      19.18327726      95.95000002       0.00000000       0.00000000       0.00000000       54        1        1        0        0
Mo       0.17120927       3.44905598      19.16092620      95.95000002       0.00000000       0.00000000       0.00000000       55        1        1        0        0
Mo       9.74490337      14.33552305      19.17256456      95.95000002       0.00000000       0.00000000       0.00000000       56        1        0        0        0
Mo      12.47859511      12.44000363      19.19170082      95.95000002       0.00000000       0.00000000       0.00000000       57        1        0        0        0
Mo      -5.00309554      10.53913940      19.19212477      95.95000002       0.00000000       0.00000000       0.00000000       58        1        1        0        0
Mo      -2.27797972       8.64458530      19.17353287      95.95000002       0.00000000       0.00000000       0.00000000       59        1        1        0        0
Mo       0.44767698       6.76140277      19.16187922      95.95000002       0.00000000       0.00000000       0.00000000       60        1        1        0        0
Mo      20.11230353       0.14040467      19.15668530      95.95000002       0.00000000       0.00000000       0.00000000       61        1        0        1        0
Mo      -7.46638889      15.75416265      19.16256890      95.95000002       0.00000000       0.00000000       0.00000000       62        1        1        0        0
Mo      -4.73548048      13.85758394      19.16592583      95.95000002       0.00000000       0.00000000       0.00000000       63        1        1        0        0
Mo      -2.00620046      11.96141563      19.15510968      95.95000002       0.00000000       0.00000000       0.00000000       64        1        1        0        0
Mo       0.72388125      10.07494004      19.14977015      95.95000002       0.00000000       0.00000000       0.00000000       65        1        1        0        0
Mo       3.45334384       8.19369023      19.17099828      95.95000002       0.00000000       0.00000000       0.00000000       66        1        1        0        0
Mo      -4.47458118      17.17625609      19.16746740      95.95000002       0.00000000       0.00000000       0.00000000       67        1        1        0        0
Mo      -1.74377454      15.27859953      19.15886013      95.95000002       0.00000000       0.00000000       0.00000000       68        1        1        0        0
Mo       0.99111500      13.38657413      19.14611449      95.95000002       0.00000000       0.00000000       0.00000000       69        1        1        0        0
Mo       3.72886603      11.50232030      19.15744761      95.95000002       0.00000000       0.00000000       0.00000000       70        1        1        0        0
Mo       1.25451953      16.69581174      19.17242808      95.95000002       0.00000000       0.00000000       0.00000000       71        1        1        0        0
Mo       3.99534092      14.80612401      19.15745446      95.95000002       0.00000000       0.00000000       0.00000000       72        1        1        0        0
Mo       6.73813541      12.92066585      19.17327018      95.95000002       0.00000000       0.00000000       0.00000000       73        1        1        0        0
Mo       7.00378838      16.22192102      19.16282285      95.95000002       0.00000000       0.00000000       0.00000000       74        1        1        0        0
Se       2.74159034       1.88871332      14.02526185      78.97100002       0.00000000       0.00000000       0.00000000       75        2        0        0        0
Se       2.72648052       1.88039844      10.67079251      78.97100002       0.00000000       0.00000000       0.00000000       76        2        0        0       -1
Se       5.75315839       0.47205424      14.00802966      78.97100002       0.00000000       0.00000000       0.00000000       77        2        0        0        0
Se       5.72935541       0.45573380      10.65567753      78.97100002       0.00000000       0.00000000       0.00000000       78        2        0        0       -1
Se       5.48437887       3.77477649      13.98749418      78.97100002       0.00000000       0.00000000       0.00000000       79        2        0        0        0
Se       5.45126024       3.76119397      10.63702373      78.97100002       0.00000000       0.00000000       0.00000000       80        2        0        0       -1
Se       8.49140381       2.36961523      13.96766001      78.97100002       0.00000000       0.00000000       0.00000000       81        2        0        0        0
Se       8.46626238       2.34067819      10.61907012      78.97100002       0.00000000       0.00000000       0.00000000       82        2        0        0       -1
Se      11.48949775       0.96301024      13.97700553      78.97100002       0.00000000       0.00000000       0.00000000       83        2        0        0        0
Se      11.48440959       0.92927678      10.62744335      78.97100002       0.00000000       0.00000000       0.00000000       84        2        0        0       -1
Se       5.20046788       7.07428824      13.97989560      78.97100002       0.00000000       0.00000000       0.00000000       85        2        0        0        0
Se       5.17068459       7.08284904      10.63017071      78.97100002       0.00000000       0.00000000       0.00000000       86        2        0        0       -1
Se       8.20844685       5.66652619      13.94391914      78.97100002       0.00000000       0.00000000       0.00000000       87        2        0        0        0
Se       8.18186473       5.66132731      10.59704075      78.97100002       0.00000000       0.00000000       0.00000000       88        2        0        0       -1
Se      11.20743232       4.26859772      13.93817246      78.97100002       0.00000000       0.00000000       0.00000000       89        2        0        0        0
Se      11.20666181       4.24606624      10.59163157      78.97100002       0.00000000       0.00000000       0.00000000       90        2        0        0       -1
Se      14.20456805       2.86182770      13.96983761      78.97100002       0.00000000       0.00000000       0.00000000       91        2        0        0        0
Se      14.22486062       2.83460195      10.62101499      78.97100002       0.00000000       0.00000000       0.00000000       92        2        0        0       -1
Se      17.20337671       1.43553710      14.01231088      78.97100002       0.00000000       0.00000000       0.00000000       93        2        0        0        0
Se      17.22316615       1.42171155      10.65935385      78.97100002       0.00000000       0.00000000       0.00000000       94        2        0        0       -1
Se       7.91969160       8.96344864      13.95520509      78.97100002       0.00000000       0.00000000       0.00000000       95        2        0        0        0
Se       7.89842542       8.98985657      10.60756492      78.97100002       0.00000000       0.00000000       0.00000000       96        2        0        0       -1
Se      10.91812502       7.56303668      13.93069800      78.97100002       0.00000000       0.00000000       0.00000000       97        2        0        0        0
Se      10.91949554       7.57454168      10.58449671      78.97100002       0.00000000       0.00000000       0.00000000       98        2        0        0       -1
Se      13.91629493       6.16540982      13.94576192      78.97100002       0.00000000       0.00000000       0.00000000       99        2        0        0        0
Se      13.94535130       6.15781833      10.59878291      78.97100002       0.00000000       0.00000000       0.00000000      100        2        0        0       -1
Se      16.92183245       4.75282477      13.98919042      78.97100002       0.00000000       0.00000000       0.00000000      101        2        0        0        0
Se      16.95590804       4.73657586      10.63861936      78.97100002       0.00000000       0.00000000       0.00000000      102        2        0        0       -1
Se      -0.27420220       3.32085206      14.02376216      78.97100002       0.00000000       0.00000000       0.00000000      103        2        1        0        0
Se      -0.26192096       3.30917840      10.66952321      78.97100002       0.00000000       0.00000000       0.00000000      104        2        1        0       -1
Se       7.63843708      12.27582891      13.99184274      78.97100002       0.00000000       0.00000000       0.00000000      105        2        0        0        0
Se       7.62794859      12.31015379      10.64115007      78.97100002       0.00000000       0.00000000       0.00000000      106        2        0        0       -1
Se      10.63362544      10.86214020      13.96293847      78.97100002       0.00000000       0.00000000       0.00000000      107        2        0        0        0
Se      10.63519586      10.89843078      10.61467240      78.97100002       0.00000000       0.00000000       0.00000000      108        2        0        0       -1
Se      13.63161854       9.46228387      13.95701614      78.97100002       0.00000000       0.00000000       0.00000000      109        2        0        0        0
Se      13.65704832       9.48149675      10.60921529      78.97100002       0.00000000       0.00000000       0.00000000      110        2        0        0       -1
Se      -3.57145616       8.05654323      13.98186806      78.97100002       0.00000000       0.00000000       0.00000000      111        2        1        0        0
Se      -3.53455593       8.05760619      10.63197941      78.97100002       0.00000000       0.00000000       0.00000000      112        2        1        0       -1
Se      -0.55502806       6.63112720      14.01079888      78.97100002       0.00000000       0.00000000       0.00000000      113        2        1        0        0
Se      -0.53525701       6.62579001      10.65823724      78.97100002       0.00000000       0.00000000       0.00000000      114        2        1        0       -1
Se       2.46651579       5.19644319      14.01247446      78.97100002       0.00000000       0.00000000       0.00000000      115        2        1        0        0
Se       2.45340795       5.19093318      10.65965409      78.97100002       0.00000000       0.00000000       0.00000000      116        2        1        0       -1
Se      10.36327166      14.17651260      14.00888675      78.97100002       0.00000000       0.00000000       0.00000000      117        2        0        0        0
Se      10.36471244      14.20695704      10.65625724      78.97100002       0.00000000       0.00000000       0.00000000      118        2        0        0       -1
Se      -6.84729560      12.76524356      13.99402531      78.97100002       0.00000000       0.00000000       0.00000000      119        2        1        0        0
Se      -6.83596739      12.79075945      10.64304392      78.97100002       0.00000000       0.00000000       0.00000000      120        2        1        0       -1
Se      -3.84325869      11.35895678      13.99807018      78.97100002       0.00000000       0.00000000       0.00000000      121        2        1        0        0
Se      -3.81965656      11.36909579      10.64643395      78.97100002       0.00000000       0.00000000       0.00000000      122        2        1        0       -1
Se      -0.83163424       9.93833480      14.01377342      78.97100002       0.00000000       0.00000000       0.00000000      123        2        1        0        0
Se      -0.81399500       9.94199049      10.66039642      78.97100002       0.00000000       0.00000000       0.00000000      124        2        1        0       -1
Se       2.18481424       8.50324429      14.01152356      78.97100002       0.00000000       0.00000000       0.00000000      125        2        1        0        0
Se       2.17745339       8.51125906      10.65854182      78.97100002       0.00000000       0.00000000       0.00000000      126        2        1        0       -1
Se      10.10105365      17.50135587      14.03174029      78.97100002       0.00000000       0.00000000       0.00000000      127        2        0        0        0
Se       0.00067435       0.00441840      10.67648927      78.97100002       0.00000000       0.00000000       0.00000000      128        2        1        1       -1
Se      -7.10319432      16.07690316      14.02374269      78.97100002       0.00000000       0.00000000       0.00000000      129        2        1        0        0
Se      -7.10921916      16.08584753      10.66952916      78.97100002       0.00000000       0.00000000       0.00000000      130        2        1        0       -1
Se      -4.09836426      14.66574982      14.01399025      78.97100002       0.00000000       0.00000000       0.00000000      131        2        1        0        0
Se      -4.09943643      14.66504599      10.66101965      78.97100002       0.00000000       0.00000000       0.00000000      132        2        1        0       -1
Se      -1.09334115      13.25035579      14.01885344      78.97100002       0.00000000       0.00000000       0.00000000      133        2        1        0        0
Se      -1.08918197      13.24481847      10.66482402      78.97100002       0.00000000       0.00000000       0.00000000      134        2        1        0       -1
Se       1.91226861      11.81931771      14.02042987      78.97100002       0.00000000       0.00000000       0.00000000      135        2        1        0        0
Se       1.90730998      11.82505898      10.66615018      78.97100002       0.00000000       0.00000000       0.00000000      136        2        1        0       -1
Se       4.91697967      10.38304589      13.99651314      78.97100002       0.00000000       0.00000000       0.00000000      137        2        1        0        0
Se       4.89685157      10.40621337      10.64502037      78.97100002       0.00000000       0.00000000       0.00000000      138        2        1        0       -1
Se      -1.34735025      16.56427725      14.00252281      78.97100002       0.00000000       0.00000000       0.00000000      139        2        1        0        0
Se      -1.36127355      16.53936407      10.65061625      78.97100002       0.00000000       0.00000000       0.00000000      140        2        1        0       -1
Se       1.65074795      15.14384079      14.01253301      78.97100002       0.00000000       0.00000000       0.00000000      141        2        1        0        0
Se       1.64489506      15.12770108      10.65923181      78.97100002       0.00000000       0.00000000       0.00000000      142        2        1        0       -1
Se       4.64499861      13.70870471      14.01386394      78.97100002       0.00000000       0.00000000       0.00000000      143        2        1        0        0
Se       4.63682044      13.71898123      10.66072255      78.97100002       0.00000000       0.00000000       0.00000000      144        2        1        0       -1
Se       4.37791634      17.04144567      14.00371946      78.97100002       0.00000000       0.00000000       0.00000000      145        2        1        0        0
Se       4.38339574      17.02458412      10.65177677      78.97100002       0.00000000       0.00000000       0.00000000      146        2        1        0       -1
Se       7.36917946      15.60551333      14.01846507      78.97100002       0.00000000       0.00000000       0.00000000      147        2        1        0        0
Se       7.37262811      15.61785268      10.66500109      78.97100002       0.00000000       0.00000000       0.00000000      148        2        1        0       -1
Se       4.80151977       1.40151077      20.84776765      78.97100002       0.00000000       0.00000000       0.00000000      149        2        0        0        0
Se       4.81751410       1.42320023      17.49550960      78.97100002       0.00000000       0.00000000       0.00000000      150        2        0        0        0
Se       5.07059809       4.72172566      20.86644702      78.97100002       0.00000000       0.00000000       0.00000000      151        2        0        0        0
Se       5.09732866       4.73808422      17.51626917      78.97100002       0.00000000       0.00000000       0.00000000      152        2        0        0        0
Se       7.79892374       2.81501086      20.88143119      78.97100002       0.00000000       0.00000000       0.00000000      153        2        0        0        0
Se       7.81679065       2.84815715      17.53286895      78.97100002       0.00000000       0.00000000       0.00000000      154        2        0        0        0
Se      10.53582680       0.91038816      20.86966770      78.97100002       0.00000000       0.00000000       0.00000000      155        2        0        0        0
Se      10.53429286       0.94826292      17.51989187      78.97100002       0.00000000       0.00000000       0.00000000      156        2        0        0        0
Se       8.07889645       6.14206693      20.90322907      78.97100002       0.00000000       0.00000000       0.00000000      157        2        0        0        0
Se       8.10428505       6.14918476      17.55637182      78.97100002       0.00000000       0.00000000       0.00000000      158        2        0        0        0
Se      10.81593387       4.22915414      20.90814222      78.97100002       0.00000000       0.00000000       0.00000000      159        2        0        0        0
Se      10.81441841       4.25237874      17.56158273      78.97100002       0.00000000       0.00000000       0.00000000      160        2        0        0        0
Se      13.55353363       2.32681122      20.87979841      78.97100002       0.00000000       0.00000000       0.00000000      161        2        0        0        0
Se      13.53220675       2.35141557      17.53104379      78.97100002       0.00000000       0.00000000       0.00000000      162        2        0        0        0
Se      16.28769824       0.44459757      20.84688841      78.97100002       0.00000000       0.00000000       0.00000000      163        2        0        0        0
Se      16.27223117       0.45280401      17.49460583      78.97100002       0.00000000       0.00000000       0.00000000      164        2        0        0        0
Se       8.36433481       9.46751316      20.89166694      78.97100002       0.00000000       0.00000000       0.00000000      165        2        0        0        0
Se       8.39091643       9.44430650      17.54397031      78.97100002       0.00000000       0.00000000       0.00000000      166        2        0        0        0
Se      11.10365683       7.55800349      20.91552640      78.97100002       0.00000000       0.00000000       0.00000000      167        2        0        0        0
Se      11.10325181       7.54658394      17.56932580      78.97100002       0.00000000       0.00000000       0.00000000      168        2        0        0        0
Se      13.84174143       5.64646179      20.90150821      78.97100002       0.00000000       0.00000000       0.00000000      169        2        0        0        0
Se      13.81255078       5.64953091      17.55455067      78.97100002       0.00000000       0.00000000       0.00000000      170        2        0        0        0
Se      16.57140700       3.75014245      20.86452241      78.97100002       0.00000000       0.00000000       0.00000000      171        2        0        0        0
Se      16.53749674       3.75667024      17.51413226      78.97100002       0.00000000       0.00000000       0.00000000      172        2        0        0        0
Se      -0.91386198       1.86902364      20.83699786      78.97100002       0.00000000       0.00000000       0.00000000      173        2        1        0        0
Se      -0.92775633       1.87169591      17.48317582      78.97100002       0.00000000       0.00000000       0.00000000      174        2        1        0        0
Se      11.38586732      10.88031275      20.88684559      78.97100002       0.00000000       0.00000000       0.00000000      175        2        0        0        0
Se      11.38950574      10.84675642      17.53869109      78.97100002       0.00000000       0.00000000       0.00000000      176        2        0        0        0
Se      14.12581534       8.97184712      20.88980107      78.97100002       0.00000000       0.00000000       0.00000000      177        2        0        0        0
Se      14.10112713       8.94880565      17.54192500      78.97100002       0.00000000       0.00000000       0.00000000      178        2        0        0        0
Se      -3.35334994       7.06951487      20.86650791      78.97100002       0.00000000       0.00000000       0.00000000      179        2        1        0        0
Se      -3.39022686       7.05862888      17.51655530      78.97100002       0.00000000       0.00000000       0.00000000      180        2        1        0        0
Se      -0.63571291       5.18107775      20.84255196      78.97100002       0.00000000       0.00000000       0.00000000      181        2        1        0        0
Se      -0.65612417       5.18023959      17.48993494      78.97100002       0.00000000       0.00000000       0.00000000      182        2        1        0        0
Se       2.07900041       3.29606035      20.83867132      78.97100002       0.00000000       0.00000000       0.00000000      183        2        1        0        0
Se       2.08499380       3.30604956      17.48514522      78.97100002       0.00000000       0.00000000       0.00000000      184        2        1        0        0
Se      11.65488663      14.18732283      20.84982573      78.97100002       0.00000000       0.00000000       0.00000000      185        2        0        0        0
Se      11.66098467      14.16271069      17.49767908      78.97100002       0.00000000       0.00000000       0.00000000      186        2        0        0        0
Se      -5.81411688      12.28781337      20.85804540      78.97100002       0.00000000       0.00000000       0.00000000      187        2        1        0        0
Se      -5.82503220      12.26380504      17.50718112      78.97100002       0.00000000       0.00000000       0.00000000      188        2        1        0        0
Se      -3.08027233      10.38799526      20.84799779      78.97100002       0.00000000       0.00000000       0.00000000      189        2        1        0        0
Se      -3.10591361      10.36988007      17.49586249      78.97100002       0.00000000       0.00000000       0.00000000      190        2        1        0        0
Se      -0.35926617       8.49960914      20.83549638      78.97100002       0.00000000       0.00000000       0.00000000      191        2        1        0        0
Se      -0.37483582       8.48808705      17.48203293      78.97100002       0.00000000       0.00000000       0.00000000      192        2        1        0        0
Se       2.35379887       6.61573485      20.84256511      78.97100002       0.00000000       0.00000000       0.00000000      193        2        1        0        0
Se       2.36476472       6.61532129      17.49003361      78.97100002       0.00000000       0.00000000       0.00000000      194        2        1        0        0
Se      -8.29236902      17.48828775      20.83349749      78.97100002       0.00000000       0.00000000       0.00000000      195        2        1        0        0
Se      -8.28730138      17.48754676      17.47917559      78.97100002       0.00000000       0.00000000       0.00000000      196        2        1        0        0
Se      -5.55898226      15.59401658      20.83901508      78.97100002       0.00000000       0.00000000       0.00000000      197        2        1        0        0
Se      -5.55547571      15.59461548      17.48590642      78.97100002       0.00000000       0.00000000       0.00000000      198        2        1        0        0
Se      -2.82263851      13.69595308      20.83366289      78.97100002       0.00000000       0.00000000       0.00000000      199        2        1        0        0
Se      -2.83176349      13.69752342      17.47996124      78.97100002       0.00000000       0.00000000       0.00000000      200        2        1        0        0
Se      -0.09297364      11.80896186      20.82371200      78.97100002       0.00000000       0.00000000       0.00000000      201        2        1        0        0
Se      -0.09955059      11.80517249      17.46848546      78.97100002       0.00000000       0.00000000       0.00000000      202        2        1        0        0
Se       2.62870818       9.93142290      20.83315915      78.97100002       0.00000000       0.00000000       0.00000000      203        2        1        0        0
Se       2.64413129       9.92152405      17.47924411      78.97100002       0.00000000       0.00000000       0.00000000      204        2        1        0        0
Se       5.35002433       8.04604719      20.86800413      78.97100002       0.00000000       0.00000000       0.00000000      205        2        1        0        0
Se       5.38306224       8.03925063      17.51811020      78.97100002       0.00000000       0.00000000       0.00000000      206        2        1        0        0
Se      -2.56989426      17.00113977      20.84744781      78.97100002       0.00000000       0.00000000       0.00000000      207        2        1        0        0
Se      -2.56414103      17.03011928      17.49553457      78.97100002       0.00000000       0.00000000       0.00000000      208        2        1        0        0
Se       0.16605106      15.10831008      20.83287979      78.97100002       0.00000000       0.00000000       0.00000000      209        2        1        0        0
Se       0.16425786      15.13025581      17.47890463      78.97100002       0.00000000       0.00000000       0.00000000      210        2        1        0        0
Se       2.89843576      13.23187118      20.82716611      78.97100002       0.00000000       0.00000000       0.00000000      211        2        1        0        0
Se       2.90913479      13.23316994      17.47246069      78.97100002       0.00000000       0.00000000       0.00000000      212        2        1        0        0
Se       5.62960384      11.35817289      20.85074144      78.97100002       0.00000000       0.00000000       0.00000000      213        2        1        0        0
Se       5.65853221      11.33991754      17.49900549      78.97100002       0.00000000       0.00000000       0.00000000      214        2        1        0        0
Se       3.16885253      16.52520503      20.84500195      78.97100002       0.00000000       0.00000000       0.00000000      215        2        1        0        0
Se       3.16402580      16.54660247      17.49267703      78.97100002       0.00000000       0.00000000       0.00000000      216        2        1        0        0
Se       5.90552304      14.65354270      20.83828200      78.97100002       0.00000000       0.00000000       0.00000000      217        2        1        0        0
Se       5.91583969      14.64642086      17.48529652      78.97100002       0.00000000       0.00000000       0.00000000      218        2        1        0        0
Se       8.64429468      12.77667599      20.85981329      78.97100002       0.00000000       0.00000000       0.00000000      219        2        1        0        0
Se       8.66350413      12.74727115      17.50914261      78.97100002       0.00000000       0.00000000       0.00000000      220        2        1        0        0
Se       8.91723133      16.07220335      20.83753130      78.97100002       0.00000000       0.00000000       0.00000000      221        2        1        0        0
Se       8.91966674      16.05961965      17.48392743      78.97100002       0.00000000       0.00000000       0.00000000      222        2        1        0        0
