42
Lattice="8.790084003262635 0.0 0.0 -4.395042001631316 7.612436048224658 0.0 0.0 0.0 30.0" Properties=species:S:1:pos:R:3:masses:R:1:momenta:R:3:id:I:1:type:I:1:travel:I:3 comment="LAMMPS data file via write_data, version 28 Mar 2023, timestep = 56, units = metal" pbc="T T T"
Mo       0.83990607       1.76900960      12.30887372      95.95000002       0.00000000       0.00000000       0.00000000        1        1        0        0       -1
Mo       3.98212143       0.68188806      12.30443028      95.95000002       0.00000000       0.00000000       0.00000000        2        1        0        0       -1
Mo       3.34864195       3.94080684      12.30310445      95.95000002       0.00000000       0.00000000       0.00000000        3        1        0        0       -1
Mo       6.49494823       2.85520932      12.30317666      95.95000002       0.00000000       0.00000000       0.00000000        4        1        0        0       -1
Mo       2.72191682       7.20368465      12.30437964      95.95000002       0.00000000       0.00000000       0.00000000        5        1        0        0       -1
Mo      -2.92842151       6.12302712      12.30290418      95.95000002       0.00000000       0.00000000       0.00000000        6        1        1        0       -1
Mo       0.21026836       5.03373420      12.30457988      95.95000002       0.00000000       0.00000000       0.00000000        7        1        1        0       -1
Mo       2.68714858       1.40997745      19.19545361      95.95000002       0.00000000       0.00000000       0.00000000        8        1        0        0        0
Mo       3.31271939       4.67278890      19.19697078      95.95000002       0.00000000       0.00000000       0.00000000        9        1        0        0        0
Mo       5.82617578       2.49065129      19.19677875      95.95000002       0.00000000       0.00000000       0.00000000       10        1        0        0        0
Mo       8.34190200       0.31965707      19.19549877      95.95000002       0.00000000       0.00000000       0.00000000       11        1        0        1        0
Mo      -2.33076816       5.75805229      19.19705859      95.95000002       0.00000000       0.00000000       0.00000000       12        1        1        0        0
Mo       0.17498140       3.57965153      19.19564322      95.95000002       0.00000000       0.00000000       0.00000000       13        1        1        0        0
Mo       0.80449442       6.84476316      19.19112041      95.95000002       0.00000000       0.00000000       0.00000000       14        1        1        0        0
Se       2.72757608       2.12658724      13.98419668      78.97100002       0.00000000       0.00000000       0.00000000       15        2        0        0        0
Se       2.72235497       2.12861940      10.63036249      78.97100002       0.00000000       0.00000000       0.00000000       16        2        0        0       -1
Se       5.86790559       1.04332837      13.98260903      78.97100002       0.00000000       0.00000000       0.00000000       17        2        0        0        0
Se       5.86488821       1.04346104      10.62884148      78.97100002       0.00000000       0.00000000       0.00000000       18        2        0        0       -1
Se       5.23545767       4.30645810      13.96887366      78.97100002       0.00000000       0.00000000       0.00000000       19        2        0        0        0
Se       5.23516477       4.30629811      10.62941330      78.97100002       0.00000000       0.00000000       0.00000000       20        2        0        0       -1
Se      -0.41348940       3.22476266      13.98434886      78.97100002       0.00000000       0.00000000       0.00000000       21        2        1        0        0
Se      -0.41272029       3.21938235      10.63042036      78.97100002       0.00000000       0.00000000       0.00000000       22        2        1        0       -1
Se      -4.18973487       7.56775707      13.98357940      78.97100002       0.00000000       0.00000000       0.00000000       23        2        1        0        0
Se      -4.18512912       7.57136389      10.63033876      78.97100002       0.00000000       0.00000000       0.00000000       24        2        1        0       -1
Se      -1.04600380       6.48667022      13.98207692      78.97100002       0.00000000       0.00000000       0.00000000       25        2        1        0        0
Se      -1.04423681       6.48359900      10.62886615      78.97100002       0.00000000       0.00000000       0.00000000       26        2        1        0       -1
Se       2.09257416       5.38927324      13.98206898      78.97100002       0.00000000       0.00000000       0.00000000       27        2        1        0        0
Se       2.09404628       5.39211242      10.62892451      78.97100002       0.00000000       0.00000000       0.00000000       28        2        1        0       -1
Se       4.56984991       1.04234308      20.86959299      78.97100002       0.00000000       0.00000000       0.00000000       29        2        0        0        0
Se       4.56561804       1.04571419      17.51551562      78.97100002       0.00000000       0.00000000       0.00000000       30        2        0        0        0
Se       5.19931795       4.30711579      20.87058554      78.97100002       0.00000000       0.00000000       0.00000000       31        2        0        0        0
Se       5.19903175       4.30728890      17.53112733      78.97100002       0.00000000       0.00000000       0.00000000       32        2        0        0        0
Se      -1.07982799       2.13009342      20.87111189      78.97100002       0.00000000       0.00000000       0.00000000       33        2        1        0        0
Se      -1.08131342       2.12753084      17.51758664      78.97100002       0.00000000       0.00000000       0.00000000       34        2        1        0        0
Se      -2.96035820       7.57027615      20.87109032      78.97100002       0.00000000       0.00000000       0.00000000       35        2        1        0        0
Se      -2.95686353       7.57014043      17.51812287      78.97100002       0.00000000       0.00000000       0.00000000       36        2        1        0        0
Se      -0.44811675       5.39417322      20.86967811      78.97100002       0.00000000       0.00000000       0.00000000       37        2        1        0        0
Se      -0.44898091       5.38839816      17.51627317      78.97100002       0.00000000       0.00000000       0.00000000       38        2        1        0        0
Se       2.05870343       3.22123597      20.87117567      78.97100002       0.00000000       0.00000000       0.00000000       39        2        1        0        0
Se       2.05693620       3.22401691      17.51754430      78.97100002       0.00000000       0.00000000       0.00000000       40        2        1        0        0
Se       2.68697065       6.48525781      20.86961503      78.97100002       0.00000000       0.00000000       0.00000000       41        2        1        0        0
Se       2.69219553       6.48738490      17.51608699      78.97100002       0.00000000       0.00000000       0.00000000       42        2        1        0        0
