546
Lattice="31.695649594532846 0.0 0.0 -15.84782479726642 27.449237738315386 0.0 0.0 0.0 30.0" Properties=species:S:1:pos:R:3:masses:R:1:momenta:R:3:id:I:1:type:I:1:travel:I:3 comment="LAMMPS data file via write_data, version 28 Mar 2023, timestep = 78, units = metal" pbc="T T T"
Mo       0.87465031       1.70940326      12.40785373      95.95000002       0.00000000       0.00000000       0.00000000        1        1        0        0       -1
Mo       3.83331536       0.19061623      12.39857222      95.95000002       0.00000000       0.00000000       0.00000000        2        1        0        0       -1
Mo       3.66701762       3.50378165      12.38673148      95.95000002       0.00000000       0.00000000       0.00000000        3        1        0        0       -1
Mo       6.63229466       1.98858755      12.36181515      95.95000002       0.00000000       0.00000000       0.00000000        4        1        0        0       -1
Mo       9.60019312       0.48416503      12.33771007      95.95000002       0.00000000       0.00000000       0.00000000        5        1        0        0       -1
Mo       3.49007078       6.82028343      12.36567495      95.95000002       0.00000000       0.00000000       0.00000000        6        1        0        0       -1
Mo       6.45663081       5.30027105      12.33502028      95.95000002       0.00000000       0.00000000       0.00000000        7        1        0        0       -1
Mo       9.42537329       3.79296584      12.29933621      95.95000002       0.00000000       0.00000000       0.00000000        8        1        0        0       -1
Mo      12.39453840       2.29445510      12.28007276      95.95000002       0.00000000       0.00000000       0.00000000        9        1        0        0       -1
Mo      15.36062886       0.79806657      12.28785847      95.95000002       0.00000000       0.00000000       0.00000000       10        1        0        0       -1
Mo       6.27226584       8.61640752      12.31647735      95.95000002       0.00000000       0.00000000       0.00000000       11        1        0        0       -1
Mo       9.24058428       7.10651152      12.26773731      95.95000002       0.00000000       0.00000000       0.00000000       12        1        0        0       -1
Mo      12.21043966       5.60750858      12.23205309      95.95000002       0.00000000       0.00000000       0.00000000       13        1        0        0       -1
Mo      15.17964827       4.11342584      12.22614913      95.95000002       0.00000000       0.00000000       0.00000000       14        1        0        0       -1
Mo      18.14491417       2.61871133      12.25265591      95.95000002       0.00000000       0.00000000       0.00000000       15        1        0        0       -1
Mo      21.10233447       1.11877713      12.29994422      95.95000002       0.00000000       0.00000000       0.00000000       16        1        0        0       -1
Mo       6.08587746      11.93576285      12.32010559      95.95000002       0.00000000       0.00000000       0.00000000       17        1        0        0       -1
Mo       9.05119860      10.42385408      12.26054668      95.95000002       0.00000000       0.00000000       0.00000000       18        1        0        0       -1
Mo      12.01980678       8.92367940      12.20820327      95.95000002       0.00000000       0.00000000       0.00000000       19        1        0        0       -1
Mo      14.98986201       7.43008427      12.18390752      95.95000002       0.00000000       0.00000000       0.00000000       20        1        0        0       -1
Mo      17.95895811       5.93786513      12.19720316      95.95000002       0.00000000       0.00000000       0.00000000       21        1        0        0       -1
Mo      20.92401289       4.44257646      12.24392366      95.95000002       0.00000000       0.00000000       0.00000000       22        1        0        0       -1
Mo      23.88188854       2.93978210      12.30783099      95.95000002       0.00000000       0.00000000       0.00000000       23        1        0        0       -1
Mo      26.83234093       1.42720842      12.36626024      95.95000002       0.00000000       0.00000000       0.00000000       24        1        0        0       -1
Mo       8.86392138      13.74413250      12.28213645      95.95000002       0.00000000       0.00000000       0.00000000       25        1        0        0       -1
Mo      11.82830342      12.24210609      12.21908344      95.95000002       0.00000000       0.00000000       0.00000000       26        1        0        0       -1
Mo      14.79681006      10.74778976      12.17693321      95.95000002       0.00000000       0.00000000       0.00000000       27        1        0        0       -1
Mo      17.76685018       9.25619056      12.17110324      95.95000002       0.00000000       0.00000000       0.00000000       28        1        0        0       -1
Mo      20.73582502       7.76310175      12.20418733      95.95000002       0.00000000       0.00000000       0.00000000       29        1        0        0       -1
Mo      23.70106737       6.26392093      12.26580023      95.95000002       0.00000000       0.00000000       0.00000000       30        1        0        0       -1
Mo      26.66068261       4.75411273      12.33474666      95.95000002       0.00000000       0.00000000       0.00000000       31        1        0        0       -1
Mo      29.61572265       3.23360532      12.38711734      95.95000002       0.00000000       0.00000000       0.00000000       32        1        0        0       -1
Mo       8.68537054      17.06789769      12.32073934      95.95000002       0.00000000       0.00000000       0.00000000       33        1        0        0       -1
Mo      11.64173631      15.56274504      12.26056848      95.95000002       0.00000000       0.00000000       0.00000000       34        1        0        0       -1
Mo      14.60552814      14.06624990      12.20824494      95.95000002       0.00000000       0.00000000       0.00000000       35        1        0        0       -1
Mo      17.57394100      12.57392431      12.18396953      95.95000002       0.00000000       0.00000000       0.00000000       36        1        0        0       -1
Mo      20.54383209      11.08143361      12.19726410      95.95000002       0.00000000       0.00000000       0.00000000       37        1        0        0       -1
Mo      23.51254492       9.58418919      12.24383977      95.95000002       0.00000000       0.00000000       0.00000000       38        1        0        0       -1
Mo      26.47820211       8.07690374      12.30668938      95.95000002       0.00000000       0.00000000       0.00000000       39        1        0        0       -1
Mo      -2.25523753       6.55702378      12.36214871      95.95000002       0.00000000       0.00000000       0.00000000       40        1        1        0       -1
Mo       0.70518311       5.02928946      12.39071894      95.95000002       0.00000000       0.00000000       0.00000000       41        1        1        0       -1
Mo      11.46567958      18.88683771      12.31548211      95.95000002       0.00000000       0.00000000       0.00000000       42        1        0        0       -1
Mo      14.42139967      17.38578705      12.26748921      95.95000002       0.00000000       0.00000000       0.00000000       43        1        0        0       -1
Mo      17.38528466      15.89082793      12.23222493      95.95000002       0.00000000       0.00000000       0.00000000       44        1        0        0       -1
Mo      20.35375975      14.39760093      12.22625676      95.95000002       0.00000000       0.00000000       0.00000000       45        1        0        0       -1
Mo      23.32325139      12.90121275      12.25279221      95.95000002       0.00000000       0.00000000       0.00000000       46        1        0        0       -1
Mo      -5.40436172      11.39598453      12.29993587      95.95000002       0.00000000       0.00000000       0.00000000       47        1        1        0       -1
Mo      -2.43858618       9.87795163      12.34640058      95.95000002       0.00000000       0.00000000       0.00000000       48        1        1        0       -1
Mo       0.52558121       8.34959490      12.37162461      95.95000002       0.00000000       0.00000000       0.00000000       49        1        1        0       -1
Mo      11.30189956      22.21515949      12.36100317      95.95000002       0.00000000       0.00000000       0.00000000       50        1        0        0       -1
Mo      14.24929432      20.70746913      12.33345095      95.95000002       0.00000000       0.00000000       0.00000000       51        1        0        0       -1
Mo      17.20637912      19.20684150      12.29993925      95.95000002       0.00000000       0.00000000       0.00000000       52        1        0        0       -1
Mo      20.17132479      17.71075685      12.28060752      95.95000002       0.00000000       0.00000000       0.00000000       53        1        0        0       -1
Mo      -8.55581580      16.21414708      12.28775588      95.95000002       0.00000000       0.00000000       0.00000000       54        1        1        0       -1
Mo      -5.58761610      14.71088412      12.31707039      95.95000002       0.00000000       0.00000000       0.00000000       55        1        1        0       -1
Mo      -2.62164944      13.19584121      12.35063998      95.95000002       0.00000000       0.00000000       0.00000000       56        1        1        0       -1
Mo       0.34236455      11.66939298      12.36768215      95.95000002       0.00000000       0.00000000       0.00000000       57        1        1        0       -1
Mo       3.30637188      10.13927881      12.35547486      95.95000002       0.00000000       0.00000000       0.00000000       58        1        1        0       -1
Mo      14.08874372      24.03173285      12.38244897      95.95000002       0.00000000       0.00000000       0.00000000       59        1        0        0       -1
Mo      17.04013466      22.52286188      12.36353370      95.95000002       0.00000000       0.00000000       0.00000000       60        1        0        0       -1
Mo     -11.69506699      21.02088001      12.34038584      95.95000002       0.00000000       0.00000000       0.00000000       61        1        1        0       -1
Mo      -8.72862143      19.52225810      12.33215105      95.95000002       0.00000000       0.00000000       0.00000000       62        1        1        0       -1
Mo      -5.76120271      18.02065720      12.34504761      95.95000002       0.00000000       0.00000000       0.00000000       63        1        1        0       -1
Mo      -2.79654737      16.50978853      12.36751360      95.95000002       0.00000000       0.00000000       0.00000000       64        1        1        0       -1
Mo       0.16450076      14.98762913      12.37921726      95.95000002       0.00000000       0.00000000       0.00000000       65        1        1        0       -1
Mo       3.12422128      13.45950903      12.36414915      95.95000002       0.00000000       0.00000000       0.00000000       66        1        1        0       -1
Mo      13.93173043      27.35747284      12.39972733      95.95000002       0.00000000       0.00000000       0.00000000       67        1        0        0       -1
Mo     -14.81343763      25.83998046      12.40207302      95.95000002       0.00000000       0.00000000       0.00000000       68        1        1        0       -1
Mo     -11.85566506      24.32974398      12.38406308      95.95000002       0.00000000       0.00000000       0.00000000       69        1        1        0       -1
Mo      -8.89120739      22.82675713      12.36642827      95.95000002       0.00000000       0.00000000       0.00000000       70        1        1        0       -1
Mo      -5.92441611      21.32575724      12.36508469      95.95000002       0.00000000       0.00000000       0.00000000       71        1        1        0       -1
Mo      -2.96056965      19.81964101      12.37869440      95.95000002       0.00000000       0.00000000       0.00000000       72        1        1        0       -1
Mo      -0.00246480      18.30390551      12.39044847      95.95000002       0.00000000       0.00000000       0.00000000       73        1        1        0       -1
Mo       2.95128854      16.78051024      12.38135529      95.95000002       0.00000000       0.00000000       0.00000000       74        1        1        0       -1
Mo       5.90535954      15.25774852      12.34284225      95.95000002       0.00000000       0.00000000       0.00000000       75        1        1        0       -1
Mo      -9.05046437      26.13079815      12.37666513      95.95000002       0.00000000       0.00000000       0.00000000       76        1        1        0       -1
Mo      -6.08348325      24.62877877      12.36332099      95.95000002       0.00000000       0.00000000       0.00000000       77        1        1        0       -1
Mo      -3.11864488      23.12685061      12.36819363      95.95000002       0.00000000       0.00000000       0.00000000       78        1        1        0       -1
Mo      -0.16057793      21.61864814      12.38248577      95.95000002       0.00000000       0.00000000       0.00000000       79        1        1        0       -1
Mo       2.78968671      20.10241784      12.38718808      95.95000002       0.00000000       0.00000000       0.00000000       80        1        1        0       -1
Mo       5.73617252      18.58284980      12.36717623      95.95000002       0.00000000       0.00000000       0.00000000       81        1        1        0       -1
Mo      -3.28048252      26.43410979      12.33200244      95.95000002       0.00000000       0.00000000       0.00000000       82        1        1        0       -1
Mo      -0.31902321      24.93286087      12.34621986      95.95000002       0.00000000       0.00000000       0.00000000       83        1        1        0       -1
Mo       2.63325910      23.42507497      12.36610266      95.95000002       0.00000000       0.00000000       0.00000000       84        1        1        0       -1
Mo       5.57722759      21.91103456      12.37297452      95.95000002       0.00000000       0.00000000       0.00000000       85        1        1        0       -1
Mo       8.51892884      20.39613967      12.35545258      95.95000002       0.00000000       0.00000000       0.00000000       86        1        1        0       -1
Mo       2.47139342      26.74729726      12.31660904      95.95000002       0.00000000       0.00000000       0.00000000       87        1        1        0       -1
Mo       5.42007601      25.24048348      12.34907942      95.95000002       0.00000000       0.00000000       0.00000000       88        1        1        0       -1
Mo       8.36122235      23.72799253      12.36723189      95.95000002       0.00000000       0.00000000       0.00000000       89        1        1        0       -1
Mo       8.20266950      27.06019690      12.34850019      95.95000002       0.00000000       0.00000000       0.00000000       90        1        1        0       -1
Mo      11.14498035      25.54611220      12.37924777      95.95000002       0.00000000       0.00000000       0.00000000       91        1        1        0       -1
W        2.89357237       1.61063189      19.12393411      78.97100002       0.00000000       0.00000000       0.00000000       92        3        0        0        0
W        3.06335655       4.93121044      19.13731611      78.97100002       0.00000000       0.00000000       0.00000000       93        3        0        0        0
W        5.84522174       3.13081013      19.15330689      78.97100002       0.00000000       0.00000000       0.00000000       94        3        0        0        0
W        8.62613824       1.31991102      19.16842287      78.97100002       0.00000000       0.00000000       0.00000000       95        3        0        0        0
W        6.02236122       6.45330477      19.17574180      78.97100002       0.00000000       0.00000000       0.00000000       96        3        0        0        0
W        8.80091851       4.64445492      19.20425470      78.97100002       0.00000000       0.00000000       0.00000000       97        3        0        0        0
W       11.57992153       2.82678663      19.21716132      78.97100002       0.00000000       0.00000000       0.00000000       98        3        0        0        0
W       14.36152236       1.00595163      19.20542994      78.97100002       0.00000000       0.00000000       0.00000000       99        3        0        0        0
W        6.20694254       9.77368937      19.18489924      78.97100002       0.00000000       0.00000000       0.00000000      100        3        0        0        0
W        8.98530701       7.96575771      19.23036637      78.97100002       0.00000000       0.00000000       0.00000000      101        3        0        0        0
W       11.76291391       6.14823011      19.26118843      78.97100002       0.00000000       0.00000000       0.00000000      102        3        0        0        0
W       14.54158310       4.32584605      19.26433118      78.97100002       0.00000000       0.00000000       0.00000000      103        3        0        0        0
W       17.32371756       2.50387282      19.23846183      78.97100002       0.00000000       0.00000000       0.00000000      104        3        0        0        0
W       20.11281661       0.68705818      19.19579743      78.97100002       0.00000000       0.00000000       0.00000000      105        3        0        0        0
W        9.17370926      11.28470194      19.23248903      78.97100002       0.00000000       0.00000000       0.00000000      106        3        0        0        0
W       11.95225579       9.46766678      19.28155486      78.97100002       0.00000000       0.00000000       0.00000000      107        3        0        0        0
W       14.72992758       7.64469851      19.30331131      78.97100002       0.00000000       0.00000000       0.00000000      108        3        0        0        0
W       17.50874391       5.82045721      19.29088058      78.97100002       0.00000000       0.00000000       0.00000000      109        3        0        0        0
W       20.29125020       3.99921270      19.24960095      78.97100002       0.00000000       0.00000000       0.00000000      110        3        0        0        0
W       23.08063930       2.18511923      19.19609613      78.97100002       0.00000000       0.00000000       0.00000000      111        3        0        0        0
W       25.87783255       0.37971477      19.15133975      78.97100002       0.00000000       0.00000000       0.00000000      112        3        0        0        0
W        9.35982272      14.60073649      19.20960412      78.97100002       0.00000000       0.00000000       0.00000000      113        3        0        0        0
W       12.14245328      12.78541434      19.27030736      78.97100002       0.00000000       0.00000000       0.00000000      114        3        0        0        0
W       14.92137086      10.96308004      19.30945188      78.97100002       0.00000000       0.00000000       0.00000000      115        3        0        0        0
W       17.69924506       9.13809585      19.31479121      78.97100002       0.00000000       0.00000000       0.00000000      116        3        0        0        0
W       20.47812105       7.31447305      19.28555415      78.97100002       0.00000000       0.00000000       0.00000000      117        3        0        0        0
W       23.26034598       5.49644824      19.23268495      78.97100002       0.00000000       0.00000000       0.00000000      118        3        0        0        0
W       26.04831947       3.68790721      19.17600946      78.97100002       0.00000000       0.00000000       0.00000000      119        3        0        0        0
W       28.84178568       1.88830963      19.13500628      78.97100002       0.00000000       0.00000000       0.00000000      120        3        0        0        0
W       12.32836329      16.10067680      19.23286067      78.97100002       0.00000000       0.00000000       0.00000000      121        3        0        0        0
W       15.11129764      14.28077906      19.28154775      78.97100002       0.00000000       0.00000000       0.00000000      122        3        0        0        0
W       17.89038598      12.45652328      19.30324682      78.97100002       0.00000000       0.00000000       0.00000000      123        3        0        0        0
W       20.66831861      10.63217711      19.29084837      78.97100002       0.00000000       0.00000000       0.00000000      124        3        0        0        0
W       23.44696438       8.81212367      19.24970612      78.97100002       0.00000000       0.00000000       0.00000000      125        3        0        0        0
W       26.22822741       7.00096410      19.19604661      78.97100002       0.00000000       0.00000000       0.00000000      126        3        0        0        0
W       -2.68214177       5.20060034      19.14985189      78.97100002       0.00000000       0.00000000       0.00000000      127        3        1        0        0
W        0.10584906       3.40666313      19.12512023      78.97100002       0.00000000       0.00000000       0.00000000      128        3        1        0        0
W       12.50514547      19.41253305      19.18558797      78.97100002       0.00000000       0.00000000       0.00000000      129        3        0        0        0
W       15.29491380      17.59727719      19.23033189      78.97100002       0.00000000       0.00000000       0.00000000      130        3        0        0        0
W       18.07756197      15.77562998      19.26106490      78.97100002       0.00000000       0.00000000       0.00000000      131        3        0        0        0
W       20.85670032      13.95189009      19.26410978      78.97100002       0.00000000       0.00000000       0.00000000      132        3        0        0        0
W       23.63477118      12.13113491      19.23856272      78.97100002       0.00000000       0.00000000       0.00000000      133        3        0        0        0
W       -5.28225827      10.31848702      19.19684483      78.97100002       0.00000000       0.00000000       0.00000000      134        3        1        0        0
W       -2.50178001       8.51692220      19.15776936      78.97100002       0.00000000       0.00000000       0.00000000      135        3        1        0        0
W        0.28055789       6.72380990      19.13635038      78.97100002       0.00000000       0.00000000       0.00000000      136        3        1        0        0
W       15.46766371      20.91240028      19.17520046      78.97100002       0.00000000       0.00000000       0.00000000      137        3        0        0        0
W       18.25563534      19.09572030      19.20425009      78.97100002       0.00000000       0.00000000       0.00000000      138        3        0        0        0
W       21.03779999      17.27419669      19.21666677      78.97100002       0.00000000       0.00000000       0.00000000      139        3        0        0        0
W       -7.87815640      15.45347720      19.20457016      78.97100002       0.00000000       0.00000000       0.00000000      140        3        1        0        0
W       -5.09883762      13.63965038      19.17559709      78.97100002       0.00000000       0.00000000       0.00000000      141        3        1        0        0
W       -2.31870097      11.83665553      19.14762186      78.97100002       0.00000000       0.00000000       0.00000000      142        3        1        0        0
W        0.46217010      10.04296022      19.13661890      78.97100002       0.00000000       0.00000000       0.00000000      143        3        1        0        0
W        3.24282988       8.25141534      19.14818454      78.97100002       0.00000000       0.00000000       0.00000000      144        3        1        0        0
W       15.62997038      24.22662595      19.13508688      78.97100002       0.00000000       0.00000000       0.00000000      145        3        0        0        0
W       18.42201431      22.41693137      19.15391970      78.97100002       0.00000000       0.00000000       0.00000000      146        3        0        0        0
W      -10.48799134      20.59970331      19.16850335      78.97100002       0.00000000       0.00000000       0.00000000      147        3        1        0        0
W       -7.70567400      18.77989853      19.16510037      78.97100002       0.00000000       0.00000000       0.00000000      148        3        1        0        0
W       -4.92381239      16.96455431      19.14501306      78.97100002       0.00000000       0.00000000       0.00000000      149        3        1        0        0
W       -2.14082346      15.15900056      19.12415650      78.97100002       0.00000000       0.00000000       0.00000000      150        3        1        0        0
W        0.64309320      13.36326747      19.12071352      78.97100002       0.00000000       0.00000000       0.00000000      151        3        1        0        0
W        3.42622521      11.57115574      19.14297449      78.97100002       0.00000000       0.00000000       0.00000000      152        3        1        0        0
W       31.63677966       0.09148688      19.11965367      78.97100002       0.00000000       0.00000000       0.00000000      153        3        0        1        0
W      -13.11478627      25.73864540      19.12599718      78.97100002       0.00000000       0.00000000       0.00000000      154        3        1        0        0
W      -10.32768747      23.92746954      19.13857861      78.97100002       0.00000000       0.00000000       0.00000000      155        3        1        0        0
W       -7.54368157      22.10993869      19.14031938      78.97100002       0.00000000       0.00000000       0.00000000      156        3        1        0        0
W       -4.75964419      20.29298743      19.12552576      78.97100002       0.00000000       0.00000000       0.00000000      157        3        1        0        0
W       -1.97313810      18.48347309      19.10568953      78.97100002       0.00000000       0.00000000       0.00000000      158        3        1        0        0
W        0.81608114      16.68362297      19.10059587      78.97100002       0.00000000       0.00000000       0.00000000      159        3        1        0        0
W        3.60563665      14.88928232      19.12364605      78.97100002       0.00000000       0.00000000       0.00000000      160        3        1        0        0
W        6.39202328      13.09179421      19.17288914      78.97100002       0.00000000       0.00000000       0.00000000      161        3        1        0        0
W      -10.16889762      27.25491526      19.13543828      78.97100002       0.00000000       0.00000000       0.00000000      162        3        1        0        0
W       -7.38552580      25.44077030      19.14221504      78.97100002       0.00000000       0.00000000       0.00000000      163        3        1        0        0
W       -4.60157535      23.62288543      19.13261661      78.97100002       0.00000000       0.00000000       0.00000000      164        3        1        0        0
W       -1.81389399      21.80877940      19.11125197      78.97100002       0.00000000       0.00000000       0.00000000      165        3        1        0        0
W        0.97920910      20.00306738      19.09648314      78.97100002       0.00000000       0.00000000       0.00000000      166        3        1        0        0
W        3.77575514      18.20455263      19.10688788      78.97100002       0.00000000       0.00000000       0.00000000      167        3        1        0        0
W        6.57078225      16.40627986      19.14815026      78.97100002       0.00000000       0.00000000       0.00000000      168        3        1        0        0
W       -4.43999965      26.95121890      19.16753036      78.97100002       0.00000000       0.00000000       0.00000000      169        3        1        0        0
W       -1.65457884      25.13310642      19.14765512      78.97100002       0.00000000       0.00000000       0.00000000      170        3        1        0        0
W        1.13773662      23.32090198      19.12199225      78.97100002       0.00000000       0.00000000       0.00000000      171        3        1        0        0
W        3.93733414      21.51657037      19.11108623      78.97100002       0.00000000       0.00000000       0.00000000      172        3        1        0        0
W        6.73971926      19.71624168      19.12911621      78.97100002       0.00000000       0.00000000       0.00000000      173        3        1        0        0
W        9.53812480      17.91257599      19.17485649      78.97100002       0.00000000       0.00000000       0.00000000      174        3        1        0        0
W        1.30120321      26.63728419      19.17484157      78.97100002       0.00000000       0.00000000       0.00000000      175        3        1        0        0
W        4.09747071      24.82640242      19.14346918      78.97100002       0.00000000       0.00000000       0.00000000      176        3        1        0        0
W        6.90130791      23.02234085      19.13091701      78.97100002       0.00000000       0.00000000       0.00000000      177        3        1        0        0
W        9.70627130      21.21989297      19.14679688      78.97100002       0.00000000       0.00000000       0.00000000      178        3        1        0        0
W        7.06315287      26.32725872      19.15653394      78.97100002       0.00000000       0.00000000       0.00000000      179        3        1        0        0
W        9.86762958      24.52425907      19.13838783      78.97100002       0.00000000       0.00000000       0.00000000      180        3        1        0        0
W       12.67119823      22.72132161      19.14736942      78.97100002       0.00000000       0.00000000       0.00000000      181        3        1        0        0
W       12.83124239      26.02876278      19.13035147      78.97100002       0.00000000       0.00000000       0.00000000      182        3        1        0        0
Se       2.80007212       1.80425578      14.07767957     183.84000005       0.00000000       0.00000000       0.00000000      183        2        0        0        0
Se       2.78298328       1.79470762      10.72474951     183.84000005       0.00000000       0.00000000       0.00000000      184        2        0        0       -1
Se       5.76867888       0.29087815      14.05782452     183.84000005       0.00000000       0.00000000       0.00000000      185        2        0        0        0
Se       5.73697364       0.27980427      10.70566861     183.84000005       0.00000000       0.00000000       0.00000000      186        2        0        0       -1
Se       5.60695851       3.60491616      14.03908561     183.84000005       0.00000000       0.00000000       0.00000000      187        2        0        0        0
Se       5.56413380       3.58270844      10.68748110     183.84000005       0.00000000       0.00000000       0.00000000      188        2        0        0       -1
Se       8.57648212       2.10265056      14.00944742     183.84000005       0.00000000       0.00000000       0.00000000      189        2        0        0        0
Se       8.52855112       2.06963363      10.65866942     183.84000005       0.00000000       0.00000000       0.00000000      190        2        0        0       -1
Se      11.53889138       0.61031017      13.99220228     183.84000005       0.00000000       0.00000000       0.00000000      191        2        0        0        0
Se      11.50324059       0.56390241      10.64198740     183.84000005       0.00000000       0.00000000       0.00000000      192        2        0        0       -1
Se       5.42974739       6.91460299      14.01573913     183.84000005       0.00000000       0.00000000       0.00000000      193        2        0        0        0
Se       5.38456678       6.89968318      10.66484292     183.84000005       0.00000000       0.00000000       0.00000000      194        2        0        0       -1
Se       8.40347130       5.40976585      13.97584853     183.84000005       0.00000000       0.00000000       0.00000000      195        2        0        0        0
Se       8.34622960       5.38238939      10.62566183     183.84000005       0.00000000       0.00000000       0.00000000      196        2        0        0       -1
Se      11.36834263       3.91839342      13.94440089     183.84000005       0.00000000       0.00000000       0.00000000      197        2        0        0        0
Se      11.32028377       3.87459366      10.59474822     183.84000005       0.00000000       0.00000000       0.00000000      198        2        0        0       -1
Se      14.32635812       2.43068886      13.93828615     183.84000005       0.00000000       0.00000000       0.00000000      199        2        0        0        0
Se      14.30019761       2.37319672      10.58880348     183.84000005       0.00000000       0.00000000       0.00000000      200        2        0        0       -1
Se      17.28047838       0.93675729      13.96014756     183.84000005       0.00000000       0.00000000       0.00000000      201        2        0        0        0
Se      17.27560900       0.87624123      10.61035890     183.84000005       0.00000000       0.00000000       0.00000000      202        2        0        0       -1
Se       8.21767816       8.71358071      13.95580531     183.84000005       0.00000000       0.00000000       0.00000000      203        2        0        0        0
Se       8.15947973       8.70856366      10.60604267     183.84000005       0.00000000       0.00000000       0.00000000      204        2        0        0       -1
Se      11.18397621       7.22109533      13.90873853     183.84000005       0.00000000       0.00000000       0.00000000      205        2        0        0        0
Se      11.13120760       7.19921253      10.55936179     183.84000005       0.00000000       0.00000000       0.00000000      206        2        0        0       -1
Se      14.14257779       5.73644586      13.88617682     183.84000005       0.00000000       0.00000000       0.00000000      207        2        0        0        0
Se      14.11271120       5.69637398      10.53683426     183.84000005       0.00000000       0.00000000       0.00000000      208        2        0        0       -1
Se      17.09716219       4.25068504      13.89766909     183.84000005       0.00000000       0.00000000       0.00000000      209        2        0        0        0
Se      17.09562105       4.19770209      10.54839823     183.84000005       0.00000000       0.00000000       0.00000000      210        2        0        0       -1
Se      20.05029281       2.75610478      13.93910639     183.84000005       0.00000000       0.00000000       0.00000000      211        2        0        0        0
Se      20.07058466       2.70183931      10.58956952     183.84000005       0.00000000       0.00000000       0.00000000      212        2        0        0       -1
Se      23.00113338       1.24684388      13.99445013     183.84000005       0.00000000       0.00000000       0.00000000      213        2        0        0        0
Se      23.03065633       1.20608373      10.64408838     183.84000005       0.00000000       0.00000000       0.00000000      214        2        0        0       -1
Se       8.02714072      12.01925018      13.96206934     183.84000005       0.00000000       0.00000000       0.00000000      215        2        0        0        0
Se       7.97370339      12.04115333      10.61224706     183.84000005       0.00000000       0.00000000       0.00000000      216        2        0        0       -1
Se      10.99258332      10.52180755      13.90172951     183.84000005       0.00000000       0.00000000       0.00000000      217        2        0        0        0
Se      10.94065403      10.53265095      10.55243233     183.84000005       0.00000000       0.00000000       0.00000000      218        2        0        0       -1
Se      13.95123115       9.03626466      13.86140095     183.84000005       0.00000000       0.00000000       0.00000000      219        2        0        0        0
Se      13.92037884       9.02951280      10.51183741     183.84000005       0.00000000       0.00000000       0.00000000      220        2        0        0       -1
Se      16.90567385       7.55419713      13.85571631     183.84000005       0.00000000       0.00000000       0.00000000      221        2        0        0        0
Se      16.90609911       7.52908184      10.50608205     183.84000005       0.00000000       0.00000000       0.00000000      222        2        0        0       -1
Se      19.85974513       6.06839196      13.88726035     183.84000005       0.00000000       0.00000000       0.00000000      223        2        0        0        0
Se      19.88924542       6.03004154      10.53791200     183.84000005       0.00000000       0.00000000       0.00000000      224        2        0        0       -1
Se      22.81565277       4.57195232      13.94648667     183.84000005       0.00000000       0.00000000       0.00000000      225        2        0        0        0
Se      22.86151228       4.53048622      10.59678486     183.84000005       0.00000000       0.00000000       0.00000000      226        2        0        0       -1
Se      25.77289983       3.05936389      14.01294555     183.84000005       0.00000000       0.00000000       0.00000000      227        2        0        0        0
Se      25.81754890       3.02698563      10.66203010     183.84000005       0.00000000       0.00000000       0.00000000      228        2        0        0       -1
Se      28.73096876       1.53208644      14.06350973     183.84000005       0.00000000       0.00000000       0.00000000      229        2        0        0        0
Se      28.75924554       1.51794430      10.71112117     183.84000005       0.00000000       0.00000000       0.00000000      230        2        0        0       -1
Se      10.80041627      13.82739347      13.92713080     183.84000005       0.00000000       0.00000000       0.00000000      231        2        0        0        0
Se      10.75465029      13.86730121      10.57774544     183.84000005       0.00000000       0.00000000       0.00000000      232        2        0        0       -1
Se      13.75779769      12.33606927      13.87328194     183.84000005       0.00000000       0.00000000       0.00000000      233        2        0        0        0
Se      13.72846286      12.36595982      10.52387603     183.84000005       0.00000000       0.00000000       0.00000000      234        2        0        0       -1
Se      16.71191162      10.85306743      13.84892954     183.84000005       0.00000000       0.00000000       0.00000000      235        2        0        0        0
Se      16.71251520      10.86546076      10.49917852     183.84000005       0.00000000       0.00000000       0.00000000      236        2        0        0       -1
Se      19.66583670       9.37097107      13.86258856     183.84000005       0.00000000       0.00000000       0.00000000      237        2        0        0        0
Se      19.69862485       9.36440969      10.51304115     183.84000005       0.00000000       0.00000000       0.00000000      238        2        0        0       -1
Se      22.62328216       7.88279958      13.91075302     183.84000005       0.00000000       0.00000000       0.00000000      239        2        0        0        0
Se      22.67835013       7.86115773      10.56137272     183.84000005       0.00000000       0.00000000       0.00000000      240        2        0        0       -1
Se      25.58646703       6.38115940      13.97763713     183.84000005       0.00000000       0.00000000       0.00000000      241        2        0        0        0
Se      25.64460055       6.35257068      10.62743779     183.84000005       0.00000000       0.00000000       0.00000000      242        2        0        0       -1
Se      28.55443429       4.86206466      14.03922692     183.84000005       0.00000000       0.00000000       0.00000000      243        2        0        0        0
Se      28.59531770       4.83638296      10.68764196     183.84000005       0.00000000       0.00000000       0.00000000      244        2        0        0       -1
Se      -0.17075398       3.33176888      14.07502466     183.84000005       0.00000000       0.00000000       0.00000000      245        2        1        0        0
Se      -0.15940554       3.31509781      10.72220586     183.84000005       0.00000000       0.00000000       0.00000000      246        2        1        0       -1
Se      10.61358611      17.14532206      13.97382840     183.84000005       0.00000000       0.00000000       0.00000000      247        2        0        0        0
Se      10.58015865      17.19747505      10.62392384     183.84000005       0.00000000       0.00000000       0.00000000      248        2        0        0       -1
Se      13.56683133      15.64288267      13.91842791     183.84000005       0.00000000       0.00000000       0.00000000      249        2        0        0        0
Se      13.54294998      15.69913900      10.56905401     183.84000005       0.00000000       0.00000000       0.00000000      250        2        0        0       -1
Se      16.52009245      14.15404788      13.88018615     183.84000005       0.00000000       0.00000000       0.00000000      251        2        0        0        0
Se      16.52017258      14.20018271      10.53078981     183.84000005       0.00000000       0.00000000       0.00000000      252        2        0        0       -1
Se      19.47375494      12.67110620      13.87437054     183.84000005       0.00000000       0.00000000       0.00000000      253        2        0        0        0
Se      19.50456400      12.69901203      10.52497198     183.84000005       0.00000000       0.00000000       0.00000000      254        2        0        0       -1
Se      22.43110684      11.18619730      13.90381857     183.84000005       0.00000000       0.00000000       0.00000000      255        2        0        0        0
Se      22.48708021      11.19427691      10.55453595     183.84000005       0.00000000       0.00000000       0.00000000      256        2        0        0       -1
Se      25.39574683       9.69112424      13.95780624     183.84000005       0.00000000       0.00000000       0.00000000      257        2        0        0        0
Se      25.45960011       9.68296775      10.60807348     183.84000005       0.00000000       0.00000000       0.00000000      258        2        0        0       -1
Se      -3.32703604       8.17932900      14.01502883     183.84000005       0.00000000       0.00000000       0.00000000      259        2        1        0        0
Se      -3.27764247       8.16229611      10.66426077     183.84000005       0.00000000       0.00000000       0.00000000      260        2        1        0       -1
Se      -0.34871882       6.65273158      14.05333155     183.84000005       0.00000000       0.00000000       0.00000000      261        2        1        0        0
Se      -0.33084890       6.63401676      10.70139271     183.84000005       0.00000000       0.00000000       0.00000000      262        2        1        0       -1
Se       2.63076588       5.12323683      14.05995437     183.84000005       0.00000000       0.00000000       0.00000000      263        2        1        0        0
Se       2.61291096       5.10501686      10.70770966     183.84000005       0.00000000       0.00000000       0.00000000      264        2        1        0       -1
Se      13.38383620      18.96299927      13.98072455     183.84000005       0.00000000       0.00000000       0.00000000      265        2        0        0        0
Se      13.37016588      19.02479694      10.63057974     183.84000005       0.00000000       0.00000000       0.00000000      266        2        0        0       -1
Se      16.33475787      17.46325343      13.94035382     183.84000005       0.00000000       0.00000000       0.00000000      267        2        0        0        0
Se      16.33500143      17.52724232      10.59070268     183.84000005       0.00000000       0.00000000       0.00000000      268        2        0        0       -1
Se      19.28815062      15.97512754      13.91935649     183.84000005       0.00000000       0.00000000       0.00000000      269        2        0        0        0
Se      19.31258515      16.02681843      10.56995758     183.84000005       0.00000000       0.00000000       0.00000000      270        2        0        0       -1
Se      22.24502914      14.48960695      13.92885367     183.84000005       0.00000000       0.00000000       0.00000000      271        2        0        0        0
Se      22.29400535      14.52236812      10.57943615     183.84000005       0.00000000       0.00000000       0.00000000      272        2        0        0       -1
Se      -6.48686166      12.99703718      13.96452053     183.84000005       0.00000000       0.00000000       0.00000000      273        2        1        0        0
Se      -6.42615950      13.01149616      10.61471418     183.84000005       0.00000000       0.00000000       0.00000000      274        2        1        0       -1
Se      -3.51426247      11.48934611      14.00866109     183.84000005       0.00000000       0.00000000       0.00000000      275        2        1        0        0
Se      -3.46281270      11.49090355      10.65816567     183.84000005       0.00000000       0.00000000       0.00000000      276        2        1        0       -1
Se      -0.53428100       9.96580188      14.03963327     183.84000005       0.00000000       0.00000000       0.00000000      277        2        1        0        0
Se      -0.51137827       9.96082985      10.68832801     183.84000005       0.00000000       0.00000000       0.00000000      278        2        1        0       -1
Se       2.44890026       8.43597113      14.04210558     183.84000005       0.00000000       0.00000000       0.00000000      279        2        1        0        0
Se       2.43453443       8.42745827      10.69061826     183.84000005       0.00000000       0.00000000       0.00000000      280        2        1        0       -1
Se      13.21257348      22.29757481      14.03665632     183.84000005       0.00000000       0.00000000       0.00000000      281        2        0        0        0
Se      13.21224669      22.34230259      10.68522464     183.84000005       0.00000000       0.00000000       0.00000000      282        2        0        0       -1
Se      16.16133213      20.78423716      14.00884128     183.84000005       0.00000000       0.00000000       0.00000000      283        2        0        0        0
Se      16.16265558      20.84358384      10.65799765     183.84000005       0.00000000       0.00000000       0.00000000      284        2        0        0       -1
Se      19.11447006      19.28640224      13.98227424     183.84000005       0.00000000       0.00000000       0.00000000      285        2        0        0        0
Se      19.12872052      19.34279397      10.63204878     183.84000005       0.00000000       0.00000000       0.00000000      286        2        0        0       -1
Se      -9.62455309      17.79703113      13.97509312     183.84000005       0.00000000       0.00000000       0.00000000      287        2        1        0        0
Se      -9.59049455      17.83881351      10.62508931     183.84000005       0.00000000       0.00000000       0.00000000      288        2        1        0       -1
Se      -6.66267682      16.30481978      13.99244188     183.84000005       0.00000000       0.00000000       0.00000000      289        2        1        0        0
Se      -6.61443392      16.32999190      10.64211925     183.84000005       0.00000000       0.00000000       0.00000000      290        2        1        0       -1
Se      -3.69342455      14.79960989      14.02231539     183.84000005       0.00000000       0.00000000       0.00000000      291        2        1        0        0
Se      -3.64794279      14.81330048      10.67144841     183.84000005       0.00000000       0.00000000       0.00000000      292        2        1        0       -1
Se      -0.71730143      13.27805651      14.04413026     183.84000005       0.00000000       0.00000000       0.00000000      293        2        1        0        0
Se      -0.69369537      13.28729436      10.69269662     183.84000005       0.00000000       0.00000000       0.00000000      294        2        1        0       -1
Se       2.26293859      11.74734341      14.04037486     183.84000005       0.00000000       0.00000000       0.00000000      295        2        1        0        0
Se       2.25294444      11.75594047      10.68901322     183.84000005       0.00000000       0.00000000       0.00000000      296        2        1        0       -1
Se       5.24292497      10.22224964      14.00690621     183.84000005       0.00000000       0.00000000       0.00000000      297        2        1        0        0
Se       5.20114030      10.22759949      10.65634340     183.84000005       0.00000000       0.00000000       0.00000000      298        2        1        0       -1
Se      16.00015724      24.11546537      14.06173400     183.84000005       0.00000000       0.00000000       0.00000000      299        2        0        0        0
Se      16.00316665      24.15089911      10.70941604     183.84000005       0.00000000       0.00000000       0.00000000      300        2        0        0       -1
Se     -12.74054273      22.60537949      14.04057809     183.84000005       0.00000000       0.00000000       0.00000000      301        2        1        0        0
Se     -12.73886494      22.64674073      10.68895717     183.84000005       0.00000000       0.00000000       0.00000000      302        2        1        0       -1
Se      -9.78295642      21.10883191      14.02325492     183.84000005       0.00000000       0.00000000       0.00000000      303        2        1        0        0
Se      -9.77059737      21.14176868      10.67228181     183.84000005       0.00000000       0.00000000       0.00000000      304        2        1        0       -1
Se      -6.82264146      19.61573933      14.02459450     183.84000005       0.00000000       0.00000000       0.00000000      305        2        1        0        0
Se      -6.79606639      19.63471805      10.67362980     183.84000005       0.00000000       0.00000000       0.00000000      306        2        1        0       -1
Se      -3.85800081      18.11360970      14.04210408     183.84000005       0.00000000       0.00000000       0.00000000      307        2        1        0        0
Se      -3.82699780      18.12322535      10.69070239     183.84000005       0.00000000       0.00000000       0.00000000      308        2        1        0       -1
Se      -0.88878597      16.59552320      14.05843919     183.84000005       0.00000000       0.00000000       0.00000000      309        2        1        0        0
Se      -0.87016579      16.60495495      10.70656141     183.84000005       0.00000000       0.00000000       0.00000000      310        2        1        0       -1
Se       2.08337210      15.06485940      14.05394334     183.84000005       0.00000000       0.00000000       0.00000000      311        2        1        0        0
Se       2.07622000      15.08113040      10.70218727     183.84000005       0.00000000       0.00000000       0.00000000      312        2        1        0       -1
Se       5.05628787      13.53493878      14.01942792     183.84000005       0.00000000       0.00000000       0.00000000      313        2        1        0        0
Se       5.02081652      13.55779705      10.66856909     183.84000005       0.00000000       0.00000000       0.00000000      314        2        1        0       -1
Se      31.69040784       0.00121619      14.08353789     183.84000005       0.00000000       0.00000000       0.00000000      315        2        0        1        0
Se       0.00078737       0.00596281      10.73036033     183.84000005       0.00000000       0.00000000       0.00000000      316        2        1        1       -1
Se     -12.89187227      25.92946550      14.07467517     183.84000005       0.00000000       0.00000000       0.00000000      317        2        1        0        0
Se     -12.90193940      25.94409533      10.72186441     183.84000005       0.00000000       0.00000000       0.00000000      318        2        1        0       -1
Se      -9.93037613      24.42393369      14.05425459     183.84000005       0.00000000       0.00000000       0.00000000      319        2        1        0        0
Se      -9.94212150      24.43549215      10.70228423     183.84000005       0.00000000       0.00000000       0.00000000      320        2        1        0       -1
Se      -6.96950237      22.92837198      14.04286137     183.84000005       0.00000000       0.00000000       0.00000000      321        2        1        0        0
Se      -6.97081291      22.92859370      10.69143546     183.84000005       0.00000000       0.00000000       0.00000000      322        2        1        0       -1
Se      -4.00833998      21.43020859      14.04927083     183.84000005       0.00000000       0.00000000       0.00000000      323        2        1        0        0
Se      -3.99917985      21.42138904      10.69765336     183.84000005       0.00000000       0.00000000       0.00000000      324        2        1        0       -1
Se      -1.04611439      19.91875665      14.06360978     183.84000005       0.00000000       0.00000000       0.00000000      325        2        1        0        0
Se      -1.03799392      19.91142376      10.71154784     183.84000005       0.00000000       0.00000000       0.00000000      326        2        1        0       -1
Se       1.91629424      18.39211873      14.06627058     183.84000005       0.00000000       0.00000000       0.00000000      327        2        1        0        0
Se       1.90993441      18.39772497      10.71411670     183.84000005       0.00000000       0.00000000       0.00000000      328        2        1        0       -1
Se       4.87820762      16.85931725      14.04216467     183.84000005       0.00000000       0.00000000       0.00000000      329        2        1        0        0
Se       4.85096492      16.88308681      10.69078498     183.84000005       0.00000000       0.00000000       0.00000000      330        2        1        0       -1
Se       7.83985142      15.33464557      13.99100002     183.84000005       0.00000000       0.00000000       0.00000000      331        2        1        0        0
Se       7.79620832      15.37227583      10.64073465     183.84000005       0.00000000       0.00000000       0.00000000      332        2        1        0       -1
Se      -7.11478033      26.24099973      14.03682511     183.84000005       0.00000000       0.00000000       0.00000000      333        2        1        0        0
Se      -7.14324717      26.22000950      10.68552113     183.84000005       0.00000000       0.00000000       0.00000000      334        2        1        0       -1
Se      -4.15419308      24.74639667      14.03196322     183.84000005       0.00000000       0.00000000       0.00000000      335        2        1        0        0
Se      -4.16947204      24.71483117      10.68090602     183.84000005       0.00000000       0.00000000       0.00000000      336        2        1        0       -1
Se      -1.19605688      23.24383121      14.04405626     183.84000005       0.00000000       0.00000000       0.00000000      337        2        1        0        0
Se      -1.20160491      23.21109225      10.69262899     183.84000005       0.00000000       0.00000000       0.00000000      338        2        1        0       -1
Se       1.75941254      21.72628825      14.05794987     183.84000005       0.00000000       0.00000000       0.00000000      339        2        1        0        0
Se       1.75244735      21.70677453      10.70608396     183.84000005       0.00000000       0.00000000       0.00000000      340        2        1        0       -1
Se       4.71146295      20.19614227      14.05485244     183.84000005       0.00000000       0.00000000       0.00000000      341        2        1        0        0
Se       4.69407578      20.20164971      10.70307802     183.84000005       0.00000000       0.00000000       0.00000000      342        2        1        0       -1
Se       7.66191550      18.66488006      14.02504265     183.84000005       0.00000000       0.00000000       0.00000000      343        2        1        0        0
Se       7.63283128      18.69790396      10.67414548     183.84000005       0.00000000       0.00000000       0.00000000      344        2        1        0       -1
Se      -1.35152584      26.56558797      13.99801710     183.84000005       0.00000000       0.00000000       0.00000000      345        2        1        0        0
Se      -1.36958468      26.51215995      10.64768427     183.84000005       0.00000000       0.00000000       0.00000000      346        2        1        0       -1
Se       1.60183773      25.06009375      14.02014857     183.84000005       0.00000000       0.00000000       0.00000000      347        2        1        0        0
Se       1.59488024      25.01375901      10.66929195     183.84000005       0.00000000       0.00000000       0.00000000      348        2        1        0       -1
Se       4.55008097      23.53931444      14.04087527     183.84000005       0.00000000       0.00000000       0.00000000      349        2        1        0        0
Se       4.54423293      23.51602320      10.68948686     183.84000005       0.00000000       0.00000000       0.00000000      350        2        1        0       -1
Se       7.49364439      22.00826224      14.04328246     183.84000005       0.00000000       0.00000000       0.00000000      351        2        1        0        0
Se       7.48273590      22.01829321      10.69187274     183.84000005       0.00000000       0.00000000       0.00000000      352        2        1        0       -1
Se      10.43686433      20.47915516      14.02079643     183.84000005       0.00000000       0.00000000       0.00000000      353        2        1        0        0
Se      10.42111623      20.52124574      10.67000558     183.84000005       0.00000000       0.00000000       0.00000000      354        2        1        0       -1
Se       4.38269285      26.87853855      13.99781530     183.84000005       0.00000000       0.00000000       0.00000000      355        2        1        0        0
Se       4.39003161      26.83087189      10.64741116     183.84000005       0.00000000       0.00000000       0.00000000      356        2        1        0       -1
Se       7.32744534      25.35595996      14.03232715     183.84000005       0.00000000       0.00000000       0.00000000      357        2        1        0        0
Se       7.33682869      25.33612708      10.68117654     183.84000005       0.00000000       0.00000000       0.00000000      358        2        1        0       -1
Se      10.26898066      23.82484070      14.04727470     183.84000005       0.00000000       0.00000000       0.00000000      359        2        1        0        0
Se      10.27379952      23.83987327      10.69564084     183.84000005       0.00000000       0.00000000       0.00000000      360        2        1        0       -1
Se      10.10139199      27.17176556      14.04260780     183.84000005       0.00000000       0.00000000       0.00000000      361        2        1        0        0
Se      10.12721505      27.15668653      10.69099851     183.84000005       0.00000000       0.00000000       0.00000000      362        2        1        0       -1
Se      13.04916740      25.64047100      14.06641026     183.84000005       0.00000000       0.00000000       0.00000000      363        2        1        0        0
Se      13.06320176      25.65460607      10.71393951     183.84000005       0.00000000       0.00000000       0.00000000      364        2        1        0       -1
Se       4.79628057       1.50846064      20.82018247     183.84000005       0.00000000       0.00000000       0.00000000      365        2        0        0        0
Se       4.81701822       1.52576107      17.44968216     183.84000005       0.00000000       0.00000000       0.00000000      366        2        0        0        0
Se       4.96263830       4.83108131      20.83861394     183.84000005       0.00000000       0.00000000       0.00000000      367        2        0        0        0
Se       4.99171516       4.85334062      17.46874410     183.84000005       0.00000000       0.00000000       0.00000000      368        2        0        0        0
Se       7.74046623       3.01662145      20.85900330     183.84000005       0.00000000       0.00000000       0.00000000      369        2        0        0        0
Se       7.77451286       3.05134061      17.48978378     183.84000005       0.00000000       0.00000000       0.00000000      370        2        0        0        0
Se      10.52578393       1.19318252      20.86825820     183.84000005       0.00000000       0.00000000       0.00000000      371        2        0        0        0
Se      10.54921242       1.24009604      17.49955677     183.84000005       0.00000000       0.00000000       0.00000000      372        2        0        0        0
Se       7.91374351       6.34536782      20.88785982     183.84000005       0.00000000       0.00000000       0.00000000      373        2        0        0        0
Se       7.95881609       6.37143853      17.51926132     183.84000005       0.00000000       0.00000000       0.00000000      374        2        0        0        0
Se      10.69553683       4.52057055      20.91246302     183.84000005       0.00000000       0.00000000       0.00000000      375        2        0        0        0
Se      10.73258394       4.56295561      17.54441896     183.84000005       0.00000000       0.00000000       0.00000000      376        2        0        0        0
Se      13.48394854       2.69186891      20.91384753     183.84000005       0.00000000       0.00000000       0.00000000      377        2        0        0        0
Se      13.50168974       2.74780735      17.54591288     183.84000005       0.00000000       0.00000000       0.00000000      378        2        0        0        0
Se      16.27557019       0.86834829      20.89053247     183.84000005       0.00000000       0.00000000       0.00000000      379        2        0        0        0
Se      16.27453047       0.92840567      17.52225775     183.84000005       0.00000000       0.00000000       0.00000000      380        2        0        0        0
Se       8.09665622       9.67732890      20.90058903     183.84000005       0.00000000       0.00000000       0.00000000      381        2        0        0        0
Se       8.14842856       9.68089415      17.53241918     183.84000005       0.00000000       0.00000000       0.00000000      382        2        0        0        0
Se      10.87761814       7.85312174      20.94335089     183.84000005       0.00000000       0.00000000       0.00000000      383        2        0        0        0
Se      10.92285344       7.87311565      17.57567368     183.84000005       0.00000000       0.00000000       0.00000000      384        2        0        0        0
Se      13.66510202       6.02188238      20.96231508     183.84000005       0.00000000       0.00000000       0.00000000      385        2        0        0        0
Se      13.68982284       6.05927511      17.59472461     183.84000005       0.00000000       0.00000000       0.00000000      386        2        0        0        0
Se      16.45629506       4.19147833      20.95027517     183.84000005       0.00000000       0.00000000       0.00000000      387        2        0        0        0
Se      16.45591640       4.24158423      17.58266444     183.84000005       0.00000000       0.00000000       0.00000000      388        2        0        0        0
Se      19.24847356       2.36985285      20.91284221     183.84000005       0.00000000       0.00000000       0.00000000      389        2        0        0        0
Se      19.22947506       2.42098649      17.54489966     183.84000005       0.00000000       0.00000000       0.00000000      390        2        0        0        0
Se      22.04172366       0.56262519      20.86671654     183.84000005       0.00000000       0.00000000       0.00000000      391        2        0        0        0
Se      22.01821391       0.60016077      17.49796908     183.84000005       0.00000000       0.00000000       0.00000000      392        2        0        0        0
Se      11.06588689      11.18675581      20.94712275     183.84000005       0.00000000       0.00000000       0.00000000      393        2        0        0        0
Se      11.11425970      11.17670169      17.57949569     183.84000005       0.00000000       0.00000000       0.00000000      394        2        0        0        0
Se      13.85413081       9.35655576      20.98466341     183.84000005       0.00000000       0.00000000       0.00000000      395        2        0        0        0
Se      13.88181748       9.36247813      17.61696471     183.84000005       0.00000000       0.00000000       0.00000000      396        2        0        0        0
Se      16.64555548       7.52296576      20.98965768     183.84000005       0.00000000       0.00000000       0.00000000      397        2        0        0        0
Se      16.64501200       7.54603279      17.62190588     183.84000005       0.00000000       0.00000000       0.00000000      398        2        0        0        0
Se      19.43718453       5.69336971      20.96137892     183.84000005       0.00000000       0.00000000       0.00000000      399        2        0        0        0
Se      19.41100684       5.72784390      17.59378267     183.84000005       0.00000000       0.00000000       0.00000000      400        2        0        0        0
Se      22.22719015       3.87473646      20.91106155     183.84000005       0.00000000       0.00000000       0.00000000      401        2        0        0        0
Se      22.18742712       3.90907003      17.54296744     183.84000005       0.00000000       0.00000000       0.00000000      402        2        0        0        0
Se      25.01651847       2.07090737      20.85817953     183.84000005       0.00000000       0.00000000       0.00000000      403        2        0        0        0
Se      24.97990416       2.09346631      17.48891911     183.84000005       0.00000000       0.00000000       0.00000000      404        2        0        0        0
Se      27.80694144       0.27875650      20.82160875     183.84000005       0.00000000       0.00000000       0.00000000      405        2        0        0        0
Se      27.78619440       0.28304424      17.45118292     183.84000005       0.00000000       0.00000000       0.00000000      406        2        0        0        0
Se      11.25437372      14.51471737      20.92263832     183.84000005       0.00000000       0.00000000       0.00000000      407        2        0        0        0
Se      11.30116750      14.48042785      17.55481326     183.84000005       0.00000000       0.00000000       0.00000000      408        2        0        0        0
Se      14.04514613      12.69043288      20.97337999     183.84000005       0.00000000       0.00000000       0.00000000      409        2        0        0        0
Se      14.07318348      12.66382314      17.60575628     183.84000005       0.00000000       0.00000000       0.00000000      410        2        0        0        0
Se      16.83756868      10.85801414      20.99597121     183.84000005       0.00000000       0.00000000       0.00000000      411        2        0        0        0
Se      16.83705082      10.84685727      17.62814602     183.84000005       0.00000000       0.00000000       0.00000000      412        2        0        0        0
Se      19.62953761       9.02500329      20.98359471     183.84000005       0.00000000       0.00000000       0.00000000      413        2        0        0        0
Se      19.60000445       9.03010946      17.61590707     183.84000005       0.00000000       0.00000000       0.00000000      414        2        0        0        0
Se      22.41814773       7.19858277      20.94157482     183.84000005       0.00000000       0.00000000       0.00000000      415        2        0        0        0
Se      22.36918458       7.21423864      17.57389116     183.84000005       0.00000000       0.00000000       0.00000000      416        2        0        0        0
Se      25.20218975       5.38486767      20.88591579     183.84000005       0.00000000       0.00000000       0.00000000      417        2        0        0        0
Se      25.15092663       5.40219391      17.51729154     183.84000005       0.00000000       0.00000000       0.00000000      418        2        0        0        0
Se      27.98373848       3.58509762      20.83670389     183.84000005       0.00000000       0.00000000       0.00000000      419        2        0        0        0
Se      27.94712922       3.59735566      17.46677660     183.84000005       0.00000000       0.00000000       0.00000000      420        2        0        0        0
Se      -0.93006353       1.79304545      20.80885674     183.84000005       0.00000000       0.00000000       0.00000000      421        2        1        0        0
Se      -0.94365146       1.79753346      17.43783781     183.84000005       0.00000000       0.00000000       0.00000000      422        2        1        0        0
Se      14.23326871      16.01711953      20.93362129     183.84000005       0.00000000       0.00000000       0.00000000      423        2        0        0        0
Se      14.25932449      15.96907814      17.56588827     183.84000005       0.00000000       0.00000000       0.00000000      424        2        0        0        0
Se      17.02740913      14.19055983      20.96814508     183.84000005       0.00000000       0.00000000       0.00000000      425        2        0        0        0
Se      17.02818875      14.15002975      17.60054699     183.84000005       0.00000000       0.00000000       0.00000000      426        2        0        0        0
Se      19.82030256      12.35867761      20.97232681     183.84000005       0.00000000       0.00000000       0.00000000      427        2        0        0        0
Se      19.79182530      12.33274961      17.60470637     183.84000005       0.00000000       0.00000000       0.00000000      428        2        0        0        0
Se      22.60918902      10.52943666      20.94531520     183.84000005       0.00000000       0.00000000       0.00000000      429        2        0        0        0
Se      22.55808514      10.51808112      17.57767945     183.84000005       0.00000000       0.00000000       0.00000000      430        2        0        0        0
Se      25.39122297       8.70981222      20.89877639     183.84000005       0.00000000       0.00000000       0.00000000      431        2        0        0        0
Se      25.33369168       8.70874836      17.53059511     183.84000005       0.00000000       0.00000000       0.00000000      432        2        0        0        0
Se      -3.52886604       6.90336021      20.85138984     183.84000005       0.00000000       0.00000000       0.00000000      433        2        1        0        0
Se      -3.57386876       6.90843756      17.48213397     183.84000005       0.00000000       0.00000000       0.00000000      434        2        1        0        0
Se      -0.75607095       5.10702738      20.81977399     183.84000005       0.00000000       0.00000000       0.00000000      435        2        1        0        0
Se      -0.77600834       5.11610575      17.44933233     183.84000005       0.00000000       0.00000000       0.00000000      436        2        1        0        0
Se       2.01792958       3.31191165      20.81114654     183.84000005       0.00000000       0.00000000       0.00000000      437        2        1        0        0
Se       2.02380830       3.32450568      17.44024551     183.84000005       0.00000000       0.00000000       0.00000000      438        2        1        0        0
Se      14.41405832      19.33220928      20.88124540     183.84000005       0.00000000       0.00000000       0.00000000      439        2        0        0        0
Se      14.43438666      19.28151788      17.51264774     183.84000005       0.00000000       0.00000000       0.00000000      440        2        0        0        0
Se      17.21020928      17.51516866      20.91694333     183.84000005       0.00000000       0.00000000       0.00000000      441        2        0        0        0
Se      17.21375739      17.46113444      17.54891940     183.84000005       0.00000000       0.00000000       0.00000000      442        2        0        0        0
Se      20.00437075      15.68827307      20.93266660     183.84000005       0.00000000       0.00000000       0.00000000      443        2        0        0        0
Se      19.98217650      15.64217519      17.56491443     183.84000005       0.00000000       0.00000000       0.00000000      444        2        0        0        0
Se      22.79470247      13.86021666      20.92076225     183.84000005       0.00000000       0.00000000       0.00000000      445        2        0        0        0
Se      22.74879735      13.82654890      17.55292285     183.84000005       0.00000000       0.00000000       0.00000000      446        2        0        0        0
Se      -6.11798794      12.03922060      20.88791163     183.84000005       0.00000000       0.00000000       0.00000000      447        2        1        0        0
Se      -6.17376203      12.01714740      17.51960115     183.84000005       0.00000000       0.00000000       0.00000000      448        2        1        0        0
Se      -3.34373539      10.22991473      20.85089176     183.84000005       0.00000000       0.00000000       0.00000000      449        2        1        0        0
Se      -3.38981317      10.21807883      17.48191049     183.84000005       0.00000000       0.00000000       0.00000000      450        2        1        0        0
Se      -0.57543592       8.43066952      20.82654878     183.84000005       0.00000000       0.00000000       0.00000000      451        2        1        0        0
Se      -0.59659094       8.42947566      17.45673054     183.84000005       0.00000000       0.00000000       0.00000000      452        2        1        0        0
Se       2.19177083       6.63412413      20.82346086     183.84000005       0.00000000       0.00000000       0.00000000      453        2        1        0        0
Se       2.19978517       6.64452338      17.45325044     183.84000005       0.00000000       0.00000000       0.00000000      454        2        1        0        0
Se      17.38190512      20.83014340      20.86154077     183.84000005       0.00000000       0.00000000       0.00000000      455        2        0        0        0
Se      17.38775227      20.78283078      17.49230419     183.84000005       0.00000000       0.00000000       0.00000000      456        2        0        0        0
Se      20.17675754      19.01057762      20.88072253     183.84000005       0.00000000       0.00000000       0.00000000      457        2        0        0        0
Se      20.16514297      18.96371384      17.51209800     183.84000005       0.00000000       0.00000000       0.00000000      458        2        0        0        0
Se      -8.72669385      17.18589307      20.87958372     183.84000005       0.00000000       0.00000000       0.00000000      459        2        1        0        0
Se      -8.76034548      17.14639381      17.51115259     183.84000005       0.00000000       0.00000000       0.00000000      460        2        1        0        0
Se      -5.94066512      15.36579816      20.85862273     183.84000005       0.00000000       0.00000000       0.00000000      461        2        1        0        0
Se      -5.98721980      15.33446696      17.48978618     183.84000005       0.00000000       0.00000000       0.00000000      462        2        1        0        0
Se      -3.16355874      13.55662647      20.83212154     183.84000005       0.00000000       0.00000000       0.00000000      463        2        1        0        0
Se      -3.20437650      13.53236761      17.46271061     183.84000005       0.00000000       0.00000000       0.00000000      464        2        1        0        0
Se      -0.39407505      11.75770426      20.81775951     183.84000005       0.00000000       0.00000000       0.00000000      465        2        1        0        0
Se      -0.41199890      11.74177522      17.44791610     183.84000005       0.00000000       0.00000000       0.00000000      466        2        1        0        0
Se       2.37203882       9.96180516      20.82557645     183.84000005       0.00000000       0.00000000       0.00000000      467        2        1        0        0
Se       2.38393981       9.95759583      17.45584886     183.84000005       0.00000000       0.00000000       0.00000000      468        2        1        0        0
Se       5.13989172       8.15950196      20.85321806     183.84000005       0.00000000       0.00000000       0.00000000      469        2        1        0        0
Se       5.17585380       8.16971184      17.48401484     183.84000005       0.00000000       0.00000000       0.00000000      470        2        1        0        0
Se      17.54332695      24.13882524      20.82097514     183.84000005       0.00000000       0.00000000       0.00000000      471        2        0        0        0
Se      17.54954708      24.11287078      17.45048060     183.84000005       0.00000000       0.00000000       0.00000000      472        2        0        0        0
Se     -11.35941402      22.32677094      20.83684644     183.84000005       0.00000000       0.00000000       0.00000000      473        2        1        0        0
Se     -11.35918290      22.29753535      17.46704541     183.84000005       0.00000000       0.00000000       0.00000000      474        2        1        0        0
Se      -8.56664727      20.50601936      20.84131032     183.84000005       0.00000000       0.00000000       0.00000000      475        2        1        0        0
Se      -8.58332710      20.48033954      17.47201594     183.84000005       0.00000000       0.00000000       0.00000000      476        2        1        0        0
Se      -5.77711096      18.68656315      20.82816810     183.84000005       0.00000000       0.00000000       0.00000000      477        2        1        0        0
Se      -5.80861961      18.66541549      17.45865683     183.84000005       0.00000000       0.00000000       0.00000000      478        2        1        0        0
Se      -2.99449961      16.87719558      20.80738685     183.84000005       0.00000000       0.00000000       0.00000000      479        2        1        0        0
Se      -3.02555077      16.85760940      17.43730719     183.84000005       0.00000000       0.00000000       0.00000000      480        2        1        0        0
Se      -0.21927054      15.07951278      20.79740910     183.84000005       0.00000000       0.00000000       0.00000000      481        2        1        0        0
Se      -0.23170185      15.05995194      17.42696605     183.84000005       0.00000000       0.00000000       0.00000000      482        2        1        0        0
Se       2.55155307      13.28693412      20.81172793     183.84000005       0.00000000       0.00000000       0.00000000      483        2        1        0        0
Se       2.56755092      13.27002787      17.44172178     183.84000005       0.00000000       0.00000000       0.00000000      484        2        1        0        0
Se       5.32219948      11.48865357      20.85041751     183.84000005       0.00000000       0.00000000       0.00000000      485        2        1        0        0
Se       5.36306989      11.47943959      17.48142761     183.84000005       0.00000000       0.00000000       0.00000000      486        2        1        0        0
Se     -13.99402149      27.44720941      20.80534782     183.84000005       0.00000000       0.00000000       0.00000000      487        2        1        0        0
Se     -13.98841373      27.44541603      17.43415577     183.84000005       0.00000000       0.00000000       0.00000000      488        2        1        0        0
Se     -11.20707332      25.64093262      20.81590870     183.84000005       0.00000000       0.00000000       0.00000000      489        2        1        0        0
Se     -11.19590318      25.63763783      17.44529280     183.84000005       0.00000000       0.00000000       0.00000000      490        2        1        0        0
Se      -8.41690574      23.82362093      20.82328145     183.84000005       0.00000000       0.00000000       0.00000000      491        2        1        0        0
Se      -8.41514595      23.82388296      17.45331824     183.84000005       0.00000000       0.00000000       0.00000000      492        2        1        0        0
Se      -5.62585214      22.00351059      20.81556256     183.84000005       0.00000000       0.00000000       0.00000000      493        2        1        0        0
Se      -5.63905173      22.00779460      17.44563763     183.84000005       0.00000000       0.00000000       0.00000000      494        2        1        0        0
Se      -2.83787683      20.19121895      20.79639409     183.84000005       0.00000000       0.00000000       0.00000000      495        2        1        0        0
Se      -2.85675922      20.19432520      17.42590835     183.84000005       0.00000000       0.00000000       0.00000000      496        2        1        0        0
Se      -0.05489707      18.39198755      20.78281854     183.84000005       0.00000000       0.00000000       0.00000000      497        2        1        0        0
Se      -0.06217397      18.38751499      17.41186714     183.84000005       0.00000000       0.00000000       0.00000000      498        2        1        0        0
Se       2.72436536      16.60196021      20.79249569     183.84000005       0.00000000       0.00000000       0.00000000      499        2        1        0        0
Se       2.74153641      16.58772180      17.42190579     183.84000005       0.00000000       0.00000000       0.00000000      500        2        1        0        0
Se       5.50262625      14.81019345      20.83119591     183.84000005       0.00000000       0.00000000       0.00000000      501        2        1        0        0
Se       5.54426995      14.78956892      17.46176798     183.84000005       0.00000000       0.00000000       0.00000000      502        2        1        0        0
Se       8.28239618      13.00616844      20.88928859     183.84000005       0.00000000       0.00000000       0.00000000      503        2        1        0        0
Se       8.33621142      12.98657236      17.52101449     183.84000005       0.00000000       0.00000000       0.00000000      504        2        1        0        0
Se      -8.26717456      27.14258276      20.83173291     183.84000005       0.00000000       0.00000000       0.00000000      505        2        1        0        0
Se      -8.24799893      27.16708590      17.46190670     183.84000005       0.00000000       0.00000000       0.00000000      506        2        1        0        0
Se      -5.47789435      25.32092706      20.83051244     183.84000005       0.00000000       0.00000000       0.00000000      507        2        1        0        0
Se      -5.47204826      25.35261063      17.46100273     183.84000005       0.00000000       0.00000000       0.00000000      508        2        1        0        0
Se      -2.68731808      23.50318336      20.81312357     183.84000005       0.00000000       0.00000000       0.00000000      509        2        1        0        0
Se      -2.69325922      23.53589304      17.44317788     183.84000005       0.00000000       0.00000000       0.00000000      510        2        1        0        0
Se       0.10180621      21.69790421      20.79201062     183.84000005       0.00000000       0.00000000       0.00000000      511        2        1        0        0
Se       0.09774439      21.72120095      17.42141034     183.84000005       0.00000000       0.00000000       0.00000000      512        2        1        0        0
Se       2.88957523      19.90590259      20.78681501     183.84000005       0.00000000       0.00000000       0.00000000      513        2        1        0        0
Se       2.90240377      19.91107319      17.41600836     183.84000005       0.00000000       0.00000000       0.00000000      514        2        1        0        0
Se       5.67721864      18.11879579      20.81056422     183.84000005       0.00000000       0.00000000       0.00000000      515        2        1        0        0
Se       5.71219523      18.10374944      17.44057080     183.84000005       0.00000000       0.00000000       0.00000000      516        2        1        0        0
Se       8.46534769      16.32436834      20.86115330     183.84000005       0.00000000       0.00000000       0.00000000      517        2        1        0        0
Se       8.51445032      16.29435762      17.49236031     183.84000005       0.00000000       0.00000000       0.00000000      518        2        1        0        0
Se      -2.53193293      26.81861675      20.85710214     183.84000005       0.00000000       0.00000000       0.00000000      519        2        1        0        0
Se      -2.52508199      26.87249972      17.48825669     183.84000005       0.00000000       0.00000000       0.00000000      520        2        1        0        0
Se       0.25972755      25.00428311      20.83110804     183.84000005       0.00000000       0.00000000       0.00000000      521        2        1        0        0
Se       0.25744014      25.05352729      17.46167381     183.84000005       0.00000000       0.00000000       0.00000000      522        2        1        0        0
Se       3.05236267      23.20467897      20.80799742     183.84000005       0.00000000       0.00000000       0.00000000      523        2        1        0        0
Se       3.05550469      23.23573179      17.43791034     183.84000005       0.00000000       0.00000000       0.00000000      524        2        1        0        0
Se       5.84685752      21.41653560      20.80620165     183.84000005       0.00000000       0.00000000       0.00000000      525        2        1        0        0
Se       5.86627295      21.42054382      17.43601382     183.84000005       0.00000000       0.00000000       0.00000000      526        2        1        0        0
Se       8.64278089      19.62903036      20.83333110     183.84000005       0.00000000       0.00000000       0.00000000      527        2        1        0        0
Se       8.67774236      19.60572843      17.46395112     183.84000005       0.00000000       0.00000000       0.00000000      528        2        1        0        0
Se      11.43850239      17.83090115      20.88192181     183.84000005       0.00000000       0.00000000       0.00000000      529        2        1        0        0
Se      11.47715491      17.78844397      17.51352464     183.84000005       0.00000000       0.00000000       0.00000000      530        2        1        0        0
Se       3.22105530      26.50695922      20.85489971     183.84000005       0.00000000       0.00000000       0.00000000      531        2        1        0        0
Se       3.21245471      26.55648297      17.48601557     183.84000005       0.00000000       0.00000000       0.00000000      532        2        1        0        0
Se       6.01700463      24.71123674      20.82662172     183.84000005       0.00000000       0.00000000       0.00000000      533        2        1        0        0
Se       6.01489055      24.73653746      17.45702852     183.84000005       0.00000000       0.00000000       0.00000000      534        2        1        0        0
Se       8.81594882      22.92422364      20.82158545     183.84000005       0.00000000       0.00000000       0.00000000      535        2        1        0        0
Se       8.82800515      22.91874325      17.45176424     183.84000005       0.00000000       0.00000000       0.00000000      536        2        1        0        0
Se      11.61578217      21.13440505      20.84324894     183.84000005       0.00000000       0.00000000       0.00000000      537        2        1        0        0
Se      11.63829501      21.10102182      17.47396040     183.84000005       0.00000000       0.00000000       0.00000000      538        2        1        0        0
Se       8.98961959      26.21839527      20.83186264     183.84000005       0.00000000       0.00000000       0.00000000      539        2        1        0        0
Se       8.97543370      26.23144537      17.46211613     183.84000005       0.00000000       0.00000000       0.00000000      540        2        1        0        0
Se      11.78756075      24.43059396      20.82149681     183.84000005       0.00000000       0.00000000       0.00000000      541        2        1        0        0
Se      11.78832611      24.41632429      17.45126623     183.84000005       0.00000000       0.00000000       0.00000000      542        2        1        0        0
Se      14.58549087      22.63701233      20.83563085     183.84000005       0.00000000       0.00000000       0.00000000      543        2        1        0        0
Se      14.59548377      22.60081276      17.46575929     183.84000005       0.00000000       0.00000000       0.00000000      544        2        1        0        0
Se      14.75090379      25.93777619      20.81071250     183.84000005       0.00000000       0.00000000       0.00000000      545        2        1        0        0
Se      14.74824141      25.92396490      17.43980293     183.84000005       0.00000000       0.00000000       0.00000000      546        2        1        0        0
