42
Lattice="8.790791524786737 0.0 0.0 4.395395762393369 7.613048779838255 0.0 0.0 0.0 30.0" Properties=species:S:1:pos:R:3:masses:R:1:momenta:R:3:id:I:1:type:I:1:travel:I:3 comment="LAMMPS data file via write_data, version 28 Mar 2023, timestep = 70, units = metal" pbc="T T T"
Mo       9.35530783       1.88868193      12.29063029      95.95000002       0.00000000       0.00000000       0.00000000        1        1       -1        0       -1
Mo       3.70246680       0.79948764      12.29214245      95.95000002       0.00000000       0.00000000       0.00000000        2        1        0        0       -1
Mo       3.08003333       4.06070754      12.29214282      95.95000002       0.00000000       0.00000000       0.00000000        3        1        0        0       -1
Mo       6.21564966       2.96921810      12.29219259      95.95000002       0.00000000       0.00000000       0.00000000        4        1        0        0       -1
Mo      11.23675196       7.32012297      12.29054703      95.95000002       0.00000000       0.00000000       0.00000000        5        1       -1        0       -1
Mo       5.59219778       6.23384959      12.29058867      95.95000002       0.00000000       0.00000000       0.00000000        6        1        0        0       -1
Mo       8.72806602       5.14751575      12.29723547      95.95000002       0.00000000       0.00000000       0.00000000        7        1        0        0       -1
W        4.96829146       0.79356882      19.20779688      78.97100002       0.00000000       0.00000000       0.00000000        8        3        0        0        0
W        5.59118648       4.05416447      19.20774477      78.97100002       0.00000000       0.00000000       0.00000000        9        3        0        0        0
W        8.10643630       1.88215441      19.20927397      78.97100002       0.00000000       0.00000000       0.00000000       10        3        0        0        0
W        6.22520138       7.31427990      19.20926789      78.97100002       0.00000000       0.00000000       0.00000000       11        3        0        0        0
W        8.73388703       5.14130025      19.20320640      78.97100002       0.00000000       0.00000000       0.00000000       12        3        0        0        0
W        2.45591146       2.96323455      19.20777230      78.97100002       0.00000000       0.00000000       0.00000000       13        3        1        0        0
W       11.87010294       6.22747394      19.20933777      78.97100002       0.00000000       0.00000000       0.00000000       14        3        0        0        0
Se       2.44716379       2.25305203      13.97033902     183.84000005       0.00000000       0.00000000       0.00000000       15        2        0        0        0
Se       2.44863864       2.24966872      10.61659183     183.84000005       0.00000000       0.00000000       0.00000000       16        2        0        0       -1
Se       5.58437582       1.15517127      13.97022250     183.84000005       0.00000000       0.00000000       0.00000000       17        2        0        0        0
Se       5.58660492       1.15830461      10.61660062     183.84000005       0.00000000       0.00000000       0.00000000       18        2        0        0       -1
Se       4.96660664       4.42119308      13.97017093     183.84000005       0.00000000       0.00000000       0.00000000       19        2        0        0        0
Se       4.96285815       4.42153989      10.61662208     183.84000005       0.00000000       0.00000000       0.00000000       20        2        0        0       -1
Se       8.09471669       3.33268732      13.97148000     183.84000005       0.00000000       0.00000000       0.00000000       21        2        0        0        0
Se       8.09878547       3.33754469      10.61817422     183.84000005       0.00000000       0.00000000       0.00000000       22        2        0        0       -1
Se       8.72800584       0.07222449      13.95671188     183.84000005       0.00000000       0.00000000       0.00000000       23        2       -1        1        0
Se       8.72809143       0.07221223      10.61690486     183.84000005       0.00000000       0.00000000       0.00000000       24        2       -1        1       -1
Se       7.47304391       6.60353879      13.97140466     183.84000005       0.00000000       0.00000000       0.00000000       25        2        0        0        0
Se       7.47525068       6.59751395      10.61815071     183.84000005       0.00000000       0.00000000       0.00000000       26        2        0        0       -1
Se      10.61657511       5.50632124      13.97128808     183.84000005       0.00000000       0.00000000       0.00000000       27        2        0        0        0
Se      10.61022969       5.50745995      10.61815745     183.84000005       0.00000000       0.00000000       0.00000000       28        2        0        0       -1
Se       3.08434535       1.15221835      20.89267970     183.84000005       0.00000000       0.00000000       0.00000000       29        2        0        0        0
Se       3.08639384       1.14952849      17.52043544     183.84000005       0.00000000       0.00000000       0.00000000       30        2        0        0        0
Se       3.70856688       4.41543098      20.89267589     183.84000005       0.00000000       0.00000000       0.00000000       31        2        0        0        0
Se       3.70509782       4.41506889      17.52056413     183.84000005       0.00000000       0.00000000       0.00000000       32        2        0        0        0
Se       6.22255307       2.24327074      20.89266283     183.84000005       0.00000000       0.00000000       0.00000000       33        2        0        0        0
Se       6.22391187       2.24636942      17.52054530     183.84000005       0.00000000       0.00000000       0.00000000       34        2        0        0        0
Se       8.73393597       0.06593307      20.89215608     183.84000005       0.00000000       0.00000000       0.00000000       35        2       -1        1        0
Se       8.73394870       0.06585952      17.53320978     183.84000005       0.00000000       0.00000000       0.00000000       36        2       -1        1        0
Se       6.85151097       5.50127776      20.89088646     183.84000005       0.00000000       0.00000000       0.00000000       37        2        0        0        0
Se       6.84575108       5.50033760      17.51984866     183.84000005       0.00000000       0.00000000       0.00000000       38        2        0        0        0
Se       9.36329947       3.33111988      20.89089808     183.84000005       0.00000000       0.00000000       0.00000000       39        2        0        0        0
Se       9.36702616       3.32655903      17.51984124     183.84000005       0.00000000       0.00000000       0.00000000       40        2        0        0        0
Se       9.98679474       6.59154225      20.89091306     183.84000005       0.00000000       0.00000000       0.00000000       41        2        0        0        0
Se       9.98889244       6.59711072      17.51998522     183.84000005       0.00000000       0.00000000       0.00000000       42        2        0        0        0
