42
Lattice="8.790084003262635 0.0 0.0 -4.395042001631316 7.612436048224658 0.0 0.0 0.0 30.0" Properties=species:S:1:pos:R:3:masses:R:1:momenta:R:3:id:I:1:type:I:1:travel:I:3 comment="LAMMPS data file via write_data, version 28 Mar 2023, timestep = 56, units = metal" pbc="T T T"
Mo       0.56746935       1.88500251      12.30299907      95.95000002       0.00000000       0.00000000       0.00000000        1        1        0        0       -1
Mo       3.70518968       0.79594452      12.30453323      95.95000002       0.00000000       0.00000000       0.00000000        2        1        0        0       -1
Mo       3.08281639       4.05690593      12.30453364      95.95000002       0.00000000       0.00000000       0.00000000        3        1        0        0       -1
Mo       6.21807307       2.96540106      12.30452889      95.95000002       0.00000000       0.00000000       0.00000000        4        1        0        0       -1
Mo       2.44872795       7.31596798      12.30300946      95.95000002       0.00000000       0.00000000       0.00000000        5        1        0        0       -1
Mo      -3.19523769       6.22970648      12.30300010      95.95000002       0.00000000       0.00000000       0.00000000        6        1        1        0       -1
Mo      -0.05968399       5.14355755      12.30967575      95.95000002       0.00000000       0.00000000       0.00000000        7        1        1        0       -1
Mo       4.96530624       0.79682323      19.19546923      95.95000002       0.00000000       0.00000000       0.00000000        8        1        0        0        0
Mo       5.58766993       4.05778303      19.19547298      95.95000002       0.00000000       0.00000000       0.00000000        9        1        0        0        0
Mo      -0.68706273       1.88591050      19.19699968      95.95000002       0.00000000       0.00000000       0.00000000       10        1        1        0        0
Mo      -2.56832301       7.31685420      19.19700453      95.95000002       0.00000000       0.00000000       0.00000000       11        1        1        0        0
Mo      -0.05991350       5.14445031      19.19032610      95.95000002       0.00000000       0.00000000       0.00000000       12        1        1        0        0
Mo       2.45241600       2.96629078      19.19546804      95.95000002       0.00000000       0.00000000       0.00000000       13        1        1        0        0
Mo       3.07565303       6.23059106      19.19699385      95.95000002       0.00000000       0.00000000       0.00000000       14        1        1        0        0
Se       2.44993540       2.24953818      13.98272894      78.97100002       0.00000000       0.00000000       0.00000000       15        2        0        0        0
Se       2.45145415       2.24598417      10.62898157      78.97100002       0.00000000       0.00000000       0.00000000       16        2        0        0       -1
Se       5.58685338       1.15154491      13.98274869      78.97100002       0.00000000       0.00000000       0.00000000       17        2        0        0        0
Se       5.58916840       1.15461760      10.62898088      78.97100002       0.00000000       0.00000000       0.00000000       18        2        0        0       -1
Se       4.96929188       4.41717792      13.98273690      78.97100002       0.00000000       0.00000000       0.00000000       19        2        0        0        0
Se       4.96545956       4.41764526      10.62898440      78.97100002       0.00000000       0.00000000       0.00000000       20        2        0        0       -1
Se      -0.69326539       3.32880074      13.98378355      78.97100002       0.00000000       0.00000000       0.00000000       21        2        1        0        0
Se      -0.68894100       3.33375230      10.63055963      78.97100002       0.00000000       0.00000000       0.00000000       22        2        1        0       -1
Se       8.73040868       0.06859266      13.96892204      78.97100002       0.00000000       0.00000000       0.00000000       23        2        0        1        0
Se       8.73040073       0.06859688      10.62932200      78.97100002       0.00000000       0.00000000       0.00000000       24        2        0        1       -1
Se      -1.31450393       6.59963380      13.98378623      78.97100002       0.00000000       0.00000000       0.00000000       25        2        1        0        0
Se      -1.31237942       6.59341730      10.63055827      78.97100002       0.00000000       0.00000000       0.00000000       26        2        1        0       -1
Se       1.82871681       5.50224524      13.98379661      78.97100002       0.00000000       0.00000000       0.00000000       27        2        1        0        0
Se       1.82227907       5.50351181      10.63056482      78.97100002       0.00000000       0.00000000       0.00000000       28        2        1        0       -1
Se       3.08132271       1.15550655      20.87102448      78.97100002       0.00000000       0.00000000       0.00000000       29        2        0        0        0
Se       3.08364226       1.15241576      17.51726386      78.97100002       0.00000000       0.00000000       0.00000000       30        2        0        0        0
Se       3.70503084       4.41852509      20.87101813      78.97100002       0.00000000       0.00000000       0.00000000       31        2        0        0        0
Se       3.70121100       4.41806310      17.51725498      78.97100002       0.00000000       0.00000000       0.00000000       32        2        0        0        0
Se       6.21903791       2.24686636      20.87101918      78.97100002       0.00000000       0.00000000       0.00000000       33        2        0        0        0
Se       6.22054623       2.25041783      17.51725268      78.97100002       0.00000000       0.00000000       0.00000000       34        2        0        0        0
Se       8.73016878       0.06949408      20.87067246      78.97100002       0.00000000       0.00000000       0.00000000       35        2        0        1        0
Se       8.73017303       0.06950653      17.53107849      78.97100002       0.00000000       0.00000000       0.00000000       36        2        0        1        0
Se      -1.94187695       5.50439310      20.86944491      78.97100002       0.00000000       0.00000000       0.00000000       37        2        1        0        0
Se      -1.94833021       5.50312685      17.51621459      78.97100002       0.00000000       0.00000000       0.00000000       38        2        1        0        0
Se       0.56934977       3.33465492      20.86944413      78.97100002       0.00000000       0.00000000       0.00000000       39        2        1        0        0
Se       0.57366999       3.32971084      17.51620440      78.97100002       0.00000000       0.00000000       0.00000000       40        2        1        0        0
Se       1.19279591       6.59429747      20.86943922      78.97100002       0.00000000       0.00000000       0.00000000       41        2        1        0        0
Se       1.19491918       6.60051284      17.51619941      78.97100002       0.00000000       0.00000000       0.00000000       42        2        1        0        0
