222
Lattice="20.20900202888132 0.0 0.0 -10.104501014440654 17.501509142142485 0.0 0.0 0.0 30.0" Properties=species:S:1:pos:R:3:masses:R:1:momenta:R:3:id:I:1:type:I:1:travel:I:3 comment="LAMMPS data file via write_data, version 28 Mar 2023, timestep = 58, units = metal" pbc="T T T"
Mo       0.81394849       1.73683730      12.25633041      95.95000002       0.00000000       0.00000000       0.00000000        1        1        0        0       -1
Mo       3.82362614       0.32815731      12.27378524      95.95000002       0.00000000       0.00000000       0.00000000        2        1        0        0       -1
Mo       3.54220320       3.63936127      12.28797573      95.95000002       0.00000000       0.00000000       0.00000000        3        1        0        0       -1
Mo       6.54942747       2.22352394      12.31214555      95.95000002       0.00000000       0.00000000       0.00000000        4        1        0        0       -1
Mo       9.55353372       0.79502127      12.33538821      95.95000002       0.00000000       0.00000000       0.00000000        5        1        0        0       -1
Mo       3.27016682       6.94520246      12.32189300      95.95000002       0.00000000       0.00000000       0.00000000        6        1        0        0       -1
Mo       6.27752853       5.53087047      12.32767216      95.95000002       0.00000000       0.00000000       0.00000000        7        1        0        0       -1
Mo       9.28061911       4.10622480      12.34086736      95.95000002       0.00000000       0.00000000       0.00000000        8        1        0        0       -1
Mo      12.28117742       2.67443849      12.33394152      95.95000002       0.00000000       0.00000000       0.00000000        9        1        0        0       -1
Mo      15.28620603       1.24788253      12.29917590      95.95000002       0.00000000       0.00000000       0.00000000       10        1        0        0       -1
Mo       6.01297770       8.83317851      12.33728261      95.95000002       0.00000000       0.00000000       0.00000000       11        1        0        0       -1
Mo       9.01694778       7.41332356      12.34341415      95.95000002       0.00000000       0.00000000       0.00000000       12        1        0        0       -1
Mo      12.01370195       5.98664627      12.34404127      95.95000002       0.00000000       0.00000000       0.00000000       13        1        0        0       -1
Mo      15.00966872       4.56026117      12.31928973      95.95000002       0.00000000       0.00000000       0.00000000       14        1        0        0       -1
Mo      18.01304704       3.14417850      12.27863283      95.95000002       0.00000000       0.00000000       0.00000000       15        1        0        0       -1
Mo       5.74511673      12.13494783      12.32460866      95.95000002       0.00000000       0.00000000       0.00000000       16        1        0        0       -1
Mo       8.75399141      10.71887818      12.32240664      95.95000002       0.00000000       0.00000000       0.00000000       17        1        0        0       -1
Mo      11.75338823       9.29915139      12.33456129      95.95000002       0.00000000       0.00000000       0.00000000       18        1        0        0       -1
Mo      14.74542706       7.87589307      12.33693495      95.95000002       0.00000000       0.00000000       0.00000000       19        1        0        0       -1
Mo      -2.46940655       6.45691468      12.31661857      95.95000002       0.00000000       0.00000000       0.00000000       20        1        1        0       -1
Mo       0.53362339       5.04700893      12.29060830      95.95000002       0.00000000       0.00000000       0.00000000       21        1        1        0       -1
Mo       8.47904664      14.02583886      12.28481074      95.95000002       0.00000000       0.00000000       0.00000000       22        1        0        0       -1
Mo      11.48627361      12.61262553      12.29791167      95.95000002       0.00000000       0.00000000       0.00000000       23        1        0        0       -1
Mo      -5.72538614      11.19441111      12.32652312      95.95000002       0.00000000       0.00000000       0.00000000       24        1        1        0       -1
Mo      -2.73278123       9.77328119      12.34164227      95.95000002       0.00000000       0.00000000       0.00000000       25        1        1        0       -1
Mo       0.26462454       8.35647075      12.33346302      95.95000002       0.00000000       0.00000000       0.00000000       26        1        1        0       -1
Mo       8.19322301      17.33500780      12.26305013      95.95000002       0.00000000       0.00000000       0.00000000       27        1        0        0       -1
Mo      -9.00395420      15.92624824      12.26020460      95.95000002       0.00000000       0.00000000       0.00000000       28        1        1        0       -1
Mo      -5.99805017      14.51346890      12.29404706      95.95000002       0.00000000       0.00000000       0.00000000       29        1        1        0       -1
Mo      -2.99919311      13.09239858      12.33505765      95.95000002       0.00000000       0.00000000       0.00000000       30        1        1        0       -1
Mo      -0.00051662      11.66804526      12.35204397      95.95000002       0.00000000       0.00000000       0.00000000       31        1        1        0       -1
Mo       3.00435875      10.24879019      12.34432663      95.95000002       0.00000000       0.00000000       0.00000000       32        1        1        0       -1
Mo      -3.27574201      16.41090122      12.31511687      95.95000002       0.00000000       0.00000000       0.00000000       33        1        1        0       -1
Mo      -0.27291048      14.98211168      12.34405654      95.95000002       0.00000000       0.00000000       0.00000000       34        1        1        0       -1
Mo       2.73379578      13.55445116      12.34136606      95.95000002       0.00000000       0.00000000       0.00000000       35        1        1        0       -1
Mo       2.45463606      16.86400276      12.33059123      95.95000002       0.00000000       0.00000000       0.00000000       36        1        1        0       -1
Mo       5.46586810      15.44008981      12.30261436      95.95000002       0.00000000       0.00000000       0.00000000       37        1        1        0       -1
Mo       4.87346002       1.31895623      19.21178329      95.95000002       0.00000000       0.00000000       0.00000000       38        1        0        0        0
Mo       5.15114197       4.63114897      19.18815901      95.95000002       0.00000000       0.00000000       0.00000000       39        1        0        0        0
Mo       7.87937567       2.74219986      19.17227813      95.95000002       0.00000000       0.00000000       0.00000000       40        1        0        0        0
Mo      10.60692394       0.86199197      19.16273914      95.95000002       0.00000000       0.00000000       0.00000000       41        1        0        0        0
Mo       8.14737619       6.05521160      19.15911568      95.95000002       0.00000000       0.00000000       0.00000000       42        1        0        0        0
Mo      10.87950689       4.17348579      19.15682495      95.95000002       0.00000000       0.00000000       0.00000000       43        1        0        0        0
Mo      13.61055725       2.29288034      19.17821430      95.95000002       0.00000000       0.00000000       0.00000000       44        1        0        0        0
Mo      16.33680112       0.40103434      19.21567361      95.95000002       0.00000000       0.00000000       0.00000000       45        1        0        0        0
Mo       8.40771080       9.36954657      19.16556252      95.95000002       0.00000000       0.00000000       0.00000000       46        1        0        0        0
Mo      11.14252556       7.48206039      19.15574494      95.95000002       0.00000000       0.00000000       0.00000000       47        1        0        0        0
Mo      13.88101655       5.60042076      19.16599126      95.95000002       0.00000000       0.00000000       0.00000000       48        1        0        0        0
Mo      16.61677623       3.71212781      19.20312712      95.95000002       0.00000000       0.00000000       0.00000000       49        1        0        0        0
Mo      -0.86338592       1.81157244      19.24043265      95.95000002       0.00000000       0.00000000       0.00000000       50        1        1        0        0
Mo      11.40508128      10.78971472      19.17978902      95.95000002       0.00000000       0.00000000       0.00000000       51        1        0        0        0
Mo      14.14455462       8.90325110      19.16285082      95.95000002       0.00000000       0.00000000       0.00000000       52        1        0        0        0
Mo      -3.32149127       7.01715430      19.17426456      95.95000002       0.00000000       0.00000000       0.00000000       53        1        1        0        0
Mo      -0.58366432       5.12124552      19.20709753      95.95000002       0.00000000       0.00000000       0.00000000       54        1        1        0        0
Mo       2.14664456       3.21814069      19.22678207      95.95000002       0.00000000       0.00000000       0.00000000       55        1        1        0        0
Mo      11.68007324      14.09862019      19.22031581      95.95000002       0.00000000       0.00000000       0.00000000       56        1        0        0        0
Mo      -5.79647885      12.20567770      19.18240433      95.95000002       0.00000000       0.00000000       0.00000000       57        1        1        0        0
Mo      -3.05591969      10.31944801      19.15826794      95.95000002       0.00000000       0.00000000       0.00000000       58        1        1        0        0
Mo      -0.31471119       8.42896008      19.16572158      95.95000002       0.00000000       0.00000000       0.00000000       59        1        1        0        0
Mo       2.42078890       6.53004394      19.18572547      95.95000002       0.00000000       0.00000000       0.00000000       60        1        1        0        0
Mo      -8.24289066      17.40886865      19.24334304      95.95000002       0.00000000       0.00000000       0.00000000       61        1        1        0        0
Mo      -5.51626349      15.51121005      19.20844142      95.95000002       0.00000000       0.00000000       0.00000000       62        1        1        0        0
Mo      -2.78448000      13.62365800      19.16580710      95.95000002       0.00000000       0.00000000       0.00000000       63        1        1        0        0
Mo      -0.04900376      11.73812684      19.14795504      95.95000002       0.00000000       0.00000000       0.00000000       64        1        1        0        0
Mo       2.68490090       9.84497324      19.15634531      95.95000002       0.00000000       0.00000000       0.00000000       65        1        1        0        0
Mo       5.41625455       7.94694921      19.16480805      95.95000002       0.00000000       0.00000000       0.00000000       66        1        1        0        0
Mo      -2.50407997      16.93211864      19.17754664      95.95000002       0.00000000       0.00000000       0.00000000       67        1        1        0        0
Mo       0.22408435      15.05009944      19.15536009      95.95000002       0.00000000       0.00000000       0.00000000       68        1        1        0        0
Mo       2.95165018      13.16273049      19.15858328      95.95000002       0.00000000       0.00000000       0.00000000       69        1        1        0        0
Mo       5.67832358      11.26607462      19.16918385      95.95000002       0.00000000       0.00000000       0.00000000       70        1        1        0        0
Mo       3.22782911      16.48045360      19.17552602      95.95000002       0.00000000       0.00000000       0.00000000       71        1        1        0        0
Mo       5.95053046      14.58584212      19.19719193      95.95000002       0.00000000       0.00000000       0.00000000       72        1        1        0        0
Mo       8.67451525      12.68513967      19.20002985      95.95000002       0.00000000       0.00000000       0.00000000       73        1        1        0        0
Mo       8.95515850      16.00034615      19.23663916      95.95000002       0.00000000       0.00000000       0.00000000       74        1        1        0        0
Se       2.71283314       1.89778424      13.94264078      78.97100002       0.00000000       0.00000000       0.00000000       75        2        0        0        0
Se       2.73768553       1.90878260      10.59557804      78.97100002       0.00000000       0.00000000       0.00000000       76        2        0        0       -1
Se       5.71459378       0.49238352      13.97402074      78.97100002       0.00000000       0.00000000       0.00000000       77        2        0        0        0
Se       5.75372643       0.48678542      10.62476372      78.97100002       0.00000000       0.00000000       0.00000000       78        2        0        0       -1
Se       5.43770783       3.79520102      13.98511977      78.97100002       0.00000000       0.00000000       0.00000000       79        2        0        0        0
Se       5.47001150       3.80590676      10.63419709      78.97100002       0.00000000       0.00000000       0.00000000       80        2        0        0       -1
Se       8.44782070       2.37482625      14.00868415      78.97100002       0.00000000       0.00000000       0.00000000       81        2        0        0        0
Se       8.47331078       2.37676277      10.65550425      78.97100002       0.00000000       0.00000000       0.00000000       82        2        0        0       -1
Se      11.46636695       0.94004194      14.01257748      78.97100002       0.00000000       0.00000000       0.00000000       83        2        0        0        0
Se      11.46318108       0.94267744      10.65947469      78.97100002       0.00000000       0.00000000       0.00000000       84        2        0        0       -1
Se       5.17848612       7.10093464      14.00754062      78.97100002       0.00000000       0.00000000       0.00000000       85        2        0        0        0
Se       5.18935245       7.10865611      10.65488714      78.97100002       0.00000000       0.00000000       0.00000000       86        2        0        0       -1
Se       8.18330605       5.68406348      14.01868065      78.97100002       0.00000000       0.00000000       0.00000000       87        2        0        0        0
Se       8.19740557       5.68512753      10.66382512      78.97100002       0.00000000       0.00000000       0.00000000       88        2        0        0       -1
Se      11.19214129       4.25036315      14.02143700      78.97100002       0.00000000       0.00000000       0.00000000       89        2        0        0        0
Se      11.19086454       4.25875692      10.66625444      78.97100002       0.00000000       0.00000000       0.00000000       90        2        0        0       -1
Se      14.20301387       2.81445318      13.99477709      78.97100002       0.00000000       0.00000000       0.00000000       91        2        0        0        0
Se      14.18020477       2.83337658      10.64284925      78.97100002       0.00000000       0.00000000       0.00000000       92        2        0        0       -1
Se      17.21183372       1.39823997      13.95126581      78.97100002       0.00000000       0.00000000       0.00000000       93        2        0        0        0
Se      17.18457669       1.41301601      10.60360368      78.97100002       0.00000000       0.00000000       0.00000000       94        2        0        0       -1
Se       7.93120553       8.99725599      14.01457372      78.97100002       0.00000000       0.00000000       0.00000000       95        2        0        0        0
Se       7.92513298       8.98046987      10.66067392      78.97100002       0.00000000       0.00000000       0.00000000       96        2        0        0       -1
Se      10.93120230       7.57049595      14.02280321      78.97100002       0.00000000       0.00000000       0.00000000       97        2        0        0        0
Se      10.92667098       7.56295109      10.66738029      78.97100002       0.00000000       0.00000000       0.00000000       98        2        0        0       -1
Se      13.92966703       6.13178600      14.01371988      78.97100002       0.00000000       0.00000000       0.00000000       99        2        0        0        0
Se      13.91595832       6.14797485      10.65970071      78.97100002       0.00000000       0.00000000       0.00000000      100        2        0        0       -1
Se      16.92815507       4.70170383      13.97948156      78.97100002       0.00000000       0.00000000       0.00000000      101        2        0        0        0
Se      16.90954374       4.73581156      10.62953095      78.97100002       0.00000000       0.00000000       0.00000000      102        2        0        0       -1
Se      -0.28314025       3.29433128      13.94525323      78.97100002       0.00000000       0.00000000       0.00000000      103        2        1        0        0
Se      -0.28687797       3.32417542      10.59820619      78.97100002       0.00000000       0.00000000       0.00000000      104        2        1        0       -1
Se       7.67297005      12.30701978      13.98589711      78.97100002       0.00000000       0.00000000       0.00000000      105        2        0        0        0
Se       7.64954178      12.27684006      10.63557680      78.97100002       0.00000000       0.00000000       0.00000000      106        2        0        0       -1
Se      10.67202093      10.89286130      13.99584834      78.97100002       0.00000000       0.00000000       0.00000000      107        2        0        0        0
Se      10.66337287      10.86241971      10.64373299      78.97100002       0.00000000       0.00000000       0.00000000      108        2        0        0       -1
Se      13.66473993       9.46210361      14.01227974      78.97100002       0.00000000       0.00000000       0.00000000      109        2        0        0        0
Se      13.66174535       9.45342993      10.65884878      78.97100002       0.00000000       0.00000000       0.00000000      110        2        0        0       -1
Se      -3.55316049       8.02498489      14.01020289      78.97100002       0.00000000       0.00000000       0.00000000      111        2        1        0        0
Se      -3.55835486       8.04688798      10.65776812      78.97100002       0.00000000       0.00000000       0.00000000      112        2        1        0       -1
Se      -0.55947055       6.60228055      13.98871652      78.97100002       0.00000000       0.00000000       0.00000000      113        2        1        0        0
Se      -0.56107581       6.63933630      10.63857871      78.97100002       0.00000000       0.00000000       0.00000000      114        2        1        0       -1
Se       2.43696192       5.19841217      13.97363296      78.97100002       0.00000000       0.00000000       0.00000000      115        2        1        0        0
Se       2.45285836       5.22662246      10.62452551      78.97100002       0.00000000       0.00000000       0.00000000      116        2        1        0       -1
Se      10.39662588      14.20430233      13.95208462      78.97100002       0.00000000       0.00000000       0.00000000      117        2        0        0        0
Se      10.38909037      14.17238999      10.60433705      78.97100002       0.00000000       0.00000000       0.00000000      118        2        0        0       -1
Se      -6.81675336      12.78986691      13.98074857      78.97100002       0.00000000       0.00000000       0.00000000      119        2        1        0        0
Se      -6.80630719      12.76135653      10.63086396      78.97100002       0.00000000       0.00000000       0.00000000      120        2        1        0       -1
Se      -3.82256508      11.35877879      14.01291964      78.97100002       0.00000000       0.00000000       0.00000000      121        2        1        0        0
Se      -3.81102521      11.35219859      10.66048319      78.97100002       0.00000000       0.00000000       0.00000000      122        2        1        0       -1
Se      -0.82520669       9.92576799      14.02197378      78.97100002       0.00000000       0.00000000       0.00000000      123        2        1        0        0
Se      -0.82251888       9.94157362      10.66875142      78.97100002       0.00000000       0.00000000       0.00000000      124        2        1        0       -1
Se       2.17597710       8.50821835      14.01140615      78.97100002       0.00000000       0.00000000       0.00000000      125        2        1        0        0
Se       2.17708097       8.52758718      10.65920467      78.97100002       0.00000000       0.00000000       0.00000000      126        2        1        0       -1
Se     -10.10075809      17.50111576      13.92831049      78.97100002       0.00000000       0.00000000       0.00000000      127        2        1        0        0
Se      10.10336692      17.49792889      10.58196902      78.97100002       0.00000000       0.00000000       0.00000000      128        2        0        0       -1
Se      -7.10392191      16.10085653      13.94615151      78.97100002       0.00000000       0.00000000       0.00000000      129        2        1        0        0
Se      -7.08106908      16.08234231      10.59907026      78.97100002       0.00000000       0.00000000       0.00000000      130        2        1        0       -1
Se      -4.10298781      14.68453573      13.99002293      78.97100002       0.00000000       0.00000000       0.00000000      131        2        1        0        0
Se      -4.07356407      14.66509778      10.63980130      78.97100002       0.00000000       0.00000000       0.00000000      132        2        1        0       -1
Se      -1.09559789      13.25230032      14.02349008      78.97100002       0.00000000       0.00000000       0.00000000      133        2        1        0        0
Se      -1.08337497      13.24427324      10.67013233      78.97100002       0.00000000       0.00000000       0.00000000      134        2        1        0       -1
Se       1.91671110      11.82376848      14.02606241      78.97100002       0.00000000       0.00000000       0.00000000      135        2        1        0        0
Se       1.90731668      11.82212011      10.67242451      78.97100002       0.00000000       0.00000000       0.00000000      136        2        1        0       -1
Se       4.92707843      10.40959692      14.01427024      78.97100002       0.00000000       0.00000000       0.00000000      137        2        1        0        0
Se       4.91272762      10.40048027      10.66157894      78.97100002       0.00000000       0.00000000       0.00000000      138        2        1        0       -1
Se      -1.37699137      16.56869349      14.00967007      78.97100002       0.00000000       0.00000000       0.00000000      139        2        1        0        0
Se      -1.35370548      16.55878529      10.65748666      78.97100002       0.00000000       0.00000000       0.00000000      140        2        1        0       -1
Se       1.64369786      15.13541412      14.01774663      78.97100002       0.00000000       0.00000000       0.00000000      141        2        1        0        0
Se       1.63483549      15.12663079      10.66490726      78.97100002       0.00000000       0.00000000       0.00000000      142        2        1        0       -1
Se       4.66348002      13.71490682      13.99936094      78.97100002       0.00000000       0.00000000       0.00000000      143        2        1        0        0
Se       4.63448896      13.69840389      10.64831876      78.97100002       0.00000000       0.00000000       0.00000000      144        2        1        0       -1
Se       4.38242513      17.01393313      13.98581549      78.97100002       0.00000000       0.00000000       0.00000000      145        2        1        0        0
Se       4.35286047      17.01288574      10.63571259      78.97100002       0.00000000       0.00000000       0.00000000      146        2        1        0       -1
Se       7.39523916      15.60630734      13.95453124      78.97100002       0.00000000       0.00000000       0.00000000      147        2        1        0        0
Se       7.36567989      15.58905525      10.60696314      78.97100002       0.00000000       0.00000000       0.00000000      148        2        1        0       -1
Se       2.97261756       1.48699930      20.90441909      78.97100002       0.00000000       0.00000000       0.00000000      149        2        0        0        0
Se       2.95026724       1.47173741      17.55735760      78.97100002       0.00000000       0.00000000       0.00000000      150        2        0        0        0
Se       3.24940018       4.81019689      20.87583270      78.97100002       0.00000000       0.00000000       0.00000000      151        2        0        0        0
Se       3.23425259       4.77371965      17.52661224      78.97100002       0.00000000       0.00000000       0.00000000      152        2        0        0        0
Se       5.98176099       2.90495636      20.86580487      78.97100002       0.00000000       0.00000000       0.00000000      153        2        0        0        0
Se       5.95620973       2.88280224      17.51488794      78.97100002       0.00000000       0.00000000       0.00000000      154        2        0        0        0
Se       8.70146410       1.01072732      20.84490680      78.97100002       0.00000000       0.00000000       0.00000000      155        2        0        0        0
Se       8.68962214       1.00564330      17.49226510      78.97100002       0.00000000       0.00000000       0.00000000      156        2        0        0        0
Se       6.24606211       6.22066474      20.84465959      78.97100002       0.00000000       0.00000000       0.00000000      157        2        0        0        0
Se       6.23137571       6.19944742      17.49147176      78.97100002       0.00000000       0.00000000       0.00000000      158        2        0        0        0
Se       8.97292721       4.32769199      20.83623370      78.97100002       0.00000000       0.00000000       0.00000000      159        2        0        0        0
Se       8.96519780       4.31607269      17.48139400      78.97100002       0.00000000       0.00000000       0.00000000      160        2        0        0        0
Se      11.69040404       2.44423381      20.83963653      78.97100002       0.00000000       0.00000000       0.00000000      161        2        0        0        0
Se      11.70844465       2.44133299      17.48580841      78.97100002       0.00000000       0.00000000       0.00000000      162        2        0        0        0
Se      14.40734881       0.55710052      20.86486067      78.97100002       0.00000000       0.00000000       0.00000000      163        2        0        0        0
Se      14.44528663       0.56270675      17.51460700      78.97100002       0.00000000       0.00000000       0.00000000      164        2        0        0        0
Se       6.49917690       9.52708530      20.84033473      78.97100002       0.00000000       0.00000000       0.00000000      165        2        0        0        0
Se       6.49805172       9.53076957      17.48717819      78.97100002       0.00000000       0.00000000       0.00000000      166        2        0        0        0
Se       9.23466590       7.63344067      20.83348642      78.97100002       0.00000000       0.00000000       0.00000000      167        2        0        0        0
Se       9.22810583       7.63834392      17.47825736      78.97100002       0.00000000       0.00000000       0.00000000      168        2        0        0        0
Se      11.96381300       5.75271324      20.83282346      78.97100002       0.00000000       0.00000000       0.00000000      169        2        0        0        0
Se      11.97316502       5.75254637      17.47743111      78.97100002       0.00000000       0.00000000       0.00000000      170        2        0        0        0
Se      14.68942257       3.87472162      20.85704527      78.97100002       0.00000000       0.00000000       0.00000000      171        2        0        0        0
Se      14.72056433       3.86697129      17.50503054      78.97100002       0.00000000       0.00000000       0.00000000      172        2        0        0        0
Se      17.41882505       1.98169150      20.89642534      78.97100002       0.00000000       0.00000000       0.00000000      173        2        0        0        0
Se      17.45008310       1.97271009      17.54874512      78.97100002       0.00000000       0.00000000       0.00000000      174        2        0        0        0
Se       9.49493359      10.93481079      20.85637193      78.97100002       0.00000000       0.00000000       0.00000000      175        2        0        0        0
Se       9.48969098      10.96374319      17.50433764      78.97100002       0.00000000       0.00000000       0.00000000      176        2        0        0        0
Se      12.23321641       9.04908338      20.83982665      78.97100002       0.00000000       0.00000000       0.00000000      177        2        0        0        0
Se      12.22644940       9.06847491      17.48574276      78.97100002       0.00000000       0.00000000       0.00000000      178        2        0        0        0
Se      14.96857926       7.17628455      20.84154876      78.97100002       0.00000000       0.00000000       0.00000000      179        2        0        0        0
Se      14.97825007       7.17395731      17.48816096      78.97100002       0.00000000       0.00000000       0.00000000      180        2        0        0        0
Se      -2.50523815       5.29755137      20.87017969      78.97100002       0.00000000       0.00000000       0.00000000      181        2        1        0        0
Se      -2.48554021       5.27404307      17.52039210      78.97100002       0.00000000       0.00000000       0.00000000      182        2        1        0        0
Se       0.23347334       3.39857776      20.90175655      78.97100002       0.00000000       0.00000000       0.00000000      183        2        1        0        0
Se       0.23772141       3.36994625      17.55472215      78.97100002       0.00000000       0.00000000       0.00000000      184        2        1        0        0
Se       9.76683135      14.24642805      20.89563670      78.97100002       0.00000000       0.00000000       0.00000000      185        2        0        0        0
Se       9.76712003      14.27780611      17.54790581      78.97100002       0.00000000       0.00000000       0.00000000      186        2        0        0        0
Se      12.50694440      12.34734426      20.86943385      78.97100002       0.00000000       0.00000000       0.00000000      187        2        0        0        0
Se      12.48670837      12.38037665      17.51937908      78.97100002       0.00000000       0.00000000       0.00000000      188        2        0        0        0
Se      -4.96404408      10.46804358      20.84178423      78.97100002       0.00000000       0.00000000       0.00000000      189        2        1        0        0
Se      -4.97986563      10.48287860      17.48929431      78.97100002       0.00000000       0.00000000       0.00000000      190        2        1        0        0
Se      -2.22785010       8.59651670      20.84003401      78.97100002       0.00000000       0.00000000       0.00000000      191        2        1        0        0
Se      -2.22743634       8.58252648      17.48765485      78.97100002       0.00000000       0.00000000       0.00000000      192        2        1        0        0
Se       0.51004246       6.71223202      20.86116492      78.97100002       0.00000000       0.00000000       0.00000000      193        2        1        0        0
Se       0.51205162       6.67670580      17.51103124      78.97100002       0.00000000       0.00000000       0.00000000      194        2        1        0        0
Se      20.15604289       0.07121562      20.91803086      78.97100002       0.00000000       0.00000000       0.00000000      195        2        0        1        0
Se      20.16072438       0.07464675      17.57168944      78.97100002       0.00000000       0.00000000       0.00000000      196        2        0        1        0
Se      -7.41844209      15.66162901      20.90097246      78.97100002       0.00000000       0.00000000       0.00000000      197        2        1        0        0
Se      -7.44272502      15.68037653      17.55387635      78.97100002       0.00000000       0.00000000       0.00000000      198        2        1        0        0
Se      -4.68454572      13.76712446      20.86049083      78.97100002       0.00000000       0.00000000       0.00000000      199        2        1        0        0
Se      -4.71561571      13.78705141      17.51026439      78.97100002       0.00000000       0.00000000       0.00000000      200        2        1        0        0
Se      -1.95534441      11.88991311      20.83096099      78.97100002       0.00000000       0.00000000       0.00000000      201        2        1        0        0
Se      -1.96992917      11.89497264      17.47770351      78.97100002       0.00000000       0.00000000       0.00000000      202        2        1        0        0
Se       0.77467802      10.01249554      20.83027733      78.97100002       0.00000000       0.00000000       0.00000000      203        2        1        0        0
Se       0.77559503       9.99723289      17.47696700      78.97100002       0.00000000       0.00000000       0.00000000      204        2        1        0        0
Se       3.51014816       8.12079307      20.84301122      78.97100002       0.00000000       0.00000000       0.00000000      205        2        1        0        0
Se       3.50669830       8.09526637      17.49086922      78.97100002       0.00000000       0.00000000       0.00000000      206        2        1        0        0
Se      -4.40111866      17.08320556      20.87485849      78.97100002       0.00000000       0.00000000       0.00000000      207        2        1        0        0
Se      -4.43350692      17.08414231      17.52571407      78.97100002       0.00000000       0.00000000       0.00000000      208        2        1        0        0
Se      -1.68031278      15.19426936      20.84023543      78.97100002       0.00000000       0.00000000       0.00000000      209        2        1        0        0
Se      -1.69732373      15.20316188      17.48797910      78.97100002       0.00000000       0.00000000       0.00000000      210        2        1        0        0
Se       1.03814948      13.31346845      20.82744718      78.97100002       0.00000000       0.00000000       0.00000000      211        2        1        0        0
Se       1.04440845      13.32051319      17.47379629      78.97100002       0.00000000       0.00000000       0.00000000      212        2        1        0        0
Se       3.76401802      11.42506749      20.83513218      78.97100002       0.00000000       0.00000000       0.00000000      213        2        1        0        0
Se       3.77570567      11.42793243      17.48228950      78.97100002       0.00000000       0.00000000       0.00000000      214        2        1        0        0
Se       1.30943502      16.62682441      20.83836825      78.97100002       0.00000000       0.00000000       0.00000000      215        2        1        0        0
Se       1.32476632      16.63499880      17.48568941      78.97100002       0.00000000       0.00000000       0.00000000      216        2        1        0        0
Se       4.02663327      14.73675213      20.85164248      78.97100002       0.00000000       0.00000000       0.00000000      217        2        1        0        0
Se       4.05518657      14.75373752      17.50059961      78.97100002       0.00000000       0.00000000       0.00000000      218        2        1        0        0
Se       6.75651420      12.83555254      20.86385906      78.97100002       0.00000000       0.00000000       0.00000000      219        2        1        0        0
Se       6.77162009      12.86061976      17.51369706      78.97100002       0.00000000       0.00000000       0.00000000      220        2        1        0        0
Se       7.02956838      16.15638738      20.89303036      78.97100002       0.00000000       0.00000000       0.00000000      221        2        1        0        0
Se       7.05880961      16.17390982      17.54546416      78.97100002       0.00000000       0.00000000       0.00000000      222        2        1        0        0
