LAMMPS data file via write_data, version 28 Mar 2023, timestep = 286, units = metal

3786 atoms
3 atom types

0 83.46293263133342 xlo xhi
0 72.28101993308394 ylo yhi
0 30 zlo zhi
41.73146631566671 0 0 xy xz yz

Masses

1 95.95
2 183.84
3 78.971

Atoms # atomic

2 1 3.835989018384758 0.12861976421730015 29.547099001025067 0 0 -1
4 1 3.7210927151108786 3.451383557927791 29.5557368061025 0 0 -1
5 1 6.649072358764501 1.8921313138418514 29.573111809187665 0 0 -1
6 1 9.574332350696146 0.3267209007691605 29.605096986222318 0 0 -1
8 1 6.538360941235581 5.216513895819408 29.59243533222711 0 0 -1
9 1 9.463098929013997 3.6544898116235824 29.618190646993177 0 0 -1
12 1 6.434343915025035 8.538624347247785 29.626858079530148 0 0 -1
13 1 9.358028541280728 6.979311039237694 29.64690902448993 0 0 -1
632 3 4.837415549327334 1.5221205891623588 6.762544278561968 0 0 0
633 3 4.946434017553541 4.839285165964036 6.754271375996321 0 0 0
634 3 7.772916543943815 3.084140520724159 6.742942127646366 0 0 0
636 3 7.878135758759811 6.400047396886528 6.73071207756633 0 0 0
828 3 2.0140891600026753 3.2797481976107905 6.767342897093078 1 0 0
871 3 5.0493701769568355 8.157197049666268 6.740359741809374 1 0 0
1826 2 59.81805779331749 32.647280220123974 28.264074320743074 0 0 -1
1263 2 2.81341668506329 1.7522713372390337 1.2224155920186202 0 0 0
1265 2 5.736109751332473 0.19617001943055543 1.239045278448248 0 0 0
1269 2 5.6203429067450354 3.5124719580223083 1.2487798828121277 0 0 0
1271 2 8.54065647562988 1.953657033616945 1.2738738280838637 0 0 0
1275 2 5.510616016717028 6.828497781510082 1.2752979497776098 0 0 0
1277 2 8.429486472920827 5.272498928157673 1.2943226364616176 0 0 0
1285 2 8.326118037406353 8.59069435114032 1.3289340367060696 0 0 0
1824 2 56.9500935398154 34.26904921420689 28.276214894764465 0 0 -1
2525 2 2.9223978814562734 1.5893191993724425 8.45118816915805 0 0 0
2526 2 2.9150268609321013 1.5849273525779815 5.082269832216068 0 0 0
2527 2 3.0319565376018645 4.912521448410401 8.44355662998523 0 0 0
2528 2 3.024429495743071 4.900551603505868 5.074618415728245 0 0 0
2529 2 5.862149444196471 3.1527350036232162 8.43749265735782 0 0 0
2530 2 5.845131121778237 3.1429468135801377 5.0685671171021704 0 0 0
2531 2 8.692496980902286 1.3987896478926538 8.423312470856008 0 0 0
2532 2 8.668197287532513 1.39006806715228 5.054383725509883 0 0 0
2533 2 5.968334286689892 6.473369737796437 8.426026487362781 0 0 0
2534 2 5.950997610698119 6.457824279354685 5.057040012663939 0 0 0
2535 2 8.800870955222342 4.717060151366987 8.413128348635535 0 0 0
2536 2 8.77531882151196 4.702606950972527 5.044127284395488 0 0 0
2543 2 8.901532247670826 8.03596435602284 8.399305324102714 0 0 0
2544 2 8.876735540307681 8.018474817260905 5.030123151329294 0 0 0
10 1 12.38550150556726 2.0844136951329917 29.654749112644495 0 0 -1
11 1 15.305535350533596 0.5041809703583299 29.697182353156457 0 0 -1
14 1 12.280037062564666 5.412117756391854 29.67771307411362 0 0 -1
15 1 15.20017200247091 3.8346480182198968 29.71416933727546 0 0 -1
16 1 18.118613148674648 2.245146593486645 29.75139542322476 0 0 -1
20 1 12.182435920900158 8.735877296391314 29.71236606968747 0 0 -1
21 1 15.102292541742678 7.160802347806709 29.743219260989846 0 0 -1
22 1 18.02063832825038 5.573560812263043 29.77475066999733 0 0 -1
29 1 17.931922788211363 8.897108494569126 29.805535442879137 0 0 -1
635 3 10.600715068210137 1.3353943605130607 6.724727366438705 0 0 0
637 3 10.707441907473878 4.649142190985969 6.713262365577065 0 0 0
638 3 13.537837212317761 2.9063514970874875 6.69142005589197 0 0 0
639 3 16.36969883962429 1.17319910014489 6.668693430621739 0 0 0
641 3 10.807204306188526 7.9652302270279 6.699296288352038 0 0 0
642 3 13.638883666885192 6.220739520545235 6.677933056055756 0 0 0
643 3 16.47146470366844 4.486087052411226 6.655618227057625 0 0 0
644 3 19.305197824468877 2.7621971172450723 6.63578990104396 0 0 0
648 3 16.565067225864905 7.802511264348984 6.643394935503181 0 0 0
649 3 19.39968031378971 6.07740051109161 6.623629373038348 0 0 0
1273 2 11.460592352544099 0.3872663659763327 1.3111646393004956 0 0 0
1279 2 11.348851146589128 3.7091371041509773 1.3256389399344184 0 0 0
1281 2 14.26894937404064 2.1361023650529853 1.3644965340754545 0 0 0
1283 2 17.189799425723468 0.5514082024831592 1.4058038449995456 0 0 0
1287 2 11.244568072730267 7.0298338208496425 1.3546660561662565 0 0 0
1289 2 14.164356508863946 5.45923778029426 1.3878215963592353 0 0 0
1291 2 17.085263835123325 3.8766613829481313 1.4232248190728995 0 0 0
1293 2 20.006700249254575 2.2810410525083236 1.4568146374165618 0 0 0
1301 2 14.069287413418492 8.780567650998718 1.4213641584082062 0 0 0
1303 2 16.98979433174453 7.199911883492862 1.4513381891772552 0 0 0
1305 2 19.910811653815617 5.605848882742737 1.4795118044763063 0 0 0
1319 2 19.825583517339364 8.928334943099847 1.508365652464928 0 0 0
2537 2 11.632789820949696 2.967955912606028 8.393842827199165 0 0 0
2538 2 11.602387635960309 2.953739487682327 5.0247730448461825 0 0 0
2539 2 14.464320351853056 1.2274835391124346 8.371398026250757 0 0 0
2540 2 14.432827763235602 1.2132894685832682 5.002253707611999 0 0 0
2545 2 11.7351907887053 6.284773054081925 8.38077580660932 0 0 0
2546 2 11.704992939053017 6.267843481765879 5.011478759033254 0 0 0
2547 2 14.567610559219721 4.5424532049204664 8.358757753373771 0 0 0
2548 2 14.536185094794632 4.525534494667423 4.989340145801545 0 0 0
2549 2 17.399291577608054 2.8102205168634895 8.336972400684273 0 0 0
2550 2 17.370394657905344 2.7934802016520774 4.9675559248052545 0 0 0
2551 2 20.230881696416336 1.0885181042218732 8.318322408328982 0 0 0
2552 2 20.207198469199692 1.0725885338797598 4.949056043993107 0 0 0
2557 2 14.662113952726916 7.859157457677497 8.345966737224993 0 0 0
2558 2 14.632462216031838 7.843079508678005 4.976241145279268 0 0 0
2559 2 17.494822917833584 6.125588365948037 8.324375880736897 0 0 0
2560 2 17.467376280749882 6.109482390208025 4.954617260911849 0 0 0
2561 2 20.32702222385197 4.403043730496885 8.306132016718067 0 0 0
2562 2 20.30469398663186 4.387084440547706 4.936492833234447 0 0 0
2575 2 20.414027484662903 7.719981085746778 8.295911214280753 0 0 0
2576 2 20.3934563160538 7.707219632256144 4.925969803226368 0 0 0
17 1 21.035733841448696 0.6430406074240068 29.785891498440243 0 0 -1
23 1 20.937741598739315 3.973348216166595 29.803483615670984 0 0 -1
24 1 23.854050868896206 2.360638171685239 29.82788589028186 0 0 -1
25 1 26.77009908938052 0.7369240321368405 29.848140154983067 0 0 -1
30 1 20.848505603026545 7.298947745342586 29.829339362146268 0 0 -1
31 1 23.76405924735768 5.68792635481343 29.848902432883477 0 0 -1
32 1 26.679168781492262 4.065373961368979 29.864309631469833 0 0 -1
33 1 29.59449992796429 2.4333535206499177 29.876798891629 0 0 -1
40 1 23.684235077616655 9.010661525225622 29.874101001845098 0 0 -1
41 1 26.597756079008953 7.389802399065963 29.88583771169062 0 0 -1
42 1 29.511093674280875 5.758937600749306 29.894563641312896 0 0 -1
52 1 29.438274240095915 9.081094641763633 29.914414974009198 0 0 -1
645 3 22.140119966557982 1.0489668394511926 6.62064440268788 0 0 0
650 3 22.235241485751985 4.363322627114728 6.608868854278815 0 0 0
651 3 25.071566307790825 2.659364369524706 6.600301158126267 0 0 0
652 3 27.90830138501538 0.9638598674565638 6.597964441968004 0 0 0
657 3 22.321349608032456 7.681277574042238 6.5993643582306705 0 0 0
658 3 25.158939427397762 5.9764690433454275 6.5903003410655066 0 0 0
659 3 27.99694449259965 4.280622077525668 6.5879328844656175 0 0 0
660 3 30.834831799486224 2.5917331309247933 6.591622838787544 0 0 0
667 3 28.07624260794656 7.6001166004984615 6.5797797825447155 0 0 0
668 3 30.916317506051694 5.910770217980048 6.582299853435326 0 0 0
1295 2 22.92794761877844 0.6726728700474514 1.486387405294264 0 0 0
1307 2 22.83156929992351 3.998546988384006 1.5036723632883948 0 0 0
1309 2 25.751624136503942 2.379365858861573 1.5234495054220887 0 0 0
1311 2 28.670959957341804 0.7504424498348906 1.539820079581209 0 0 0
1321 2 22.745233662246083 7.322425168796582 1.5280730269497032 0 0 0
1323 2 25.663905521883652 5.7041172299335985 1.54345494800942 0 0 0
1325 2 28.58167436646342 4.075499124486722 1.5553690905604731 0 0 0
1341 2 25.58730556677552 9.026991243079662 1.5667822965573144 0 0 0
1343 2 28.502837946202376 7.399312231225291 1.5754372023940832 0 0 0
2563 2 23.15930535549998 2.6911220412215338 8.293260584422319 0 0 0
2564 2 23.143695390928798 2.6758519110445715 4.923839593006683 0 0 0
2565 2 25.99198781212442 0.9886051725681898 8.28649310648302 0 0 0
2566 2 25.983546775657718 0.974680280326325 4.917327280143444 0 0 0
2577 2 23.24761375421898 6.007504021412395 8.282740622097357 0 0 0
2578 2 23.233400649363087 5.9943749175240475 4.912973616005133 0 0 0
2579 2 26.08150846667174 4.304991832171661 8.276098045595443 0 0 0
2580 2 26.07423574977485 4.291879993956025 4.906556296687086 0 0 0
2581 2 28.91570734192201 2.610638390924147 8.275859328433219 0 0 0
2582 2 28.91502814491372 2.5980702293837785 4.906542522734703 0 0 0
2595 2 26.1619270649868 7.623534649272736 8.267780786884986 0 0 0
2596 2 26.155280840382915 7.613715435299535 4.897959754478235 0 0 0
2597 2 28.998285580771263 5.9291878415375585 8.266603679137859 0 0 0
2598 2 28.99789444837095 5.918443759009607 4.896970451376807 0 0 0
34 1 32.510718285576196 0.7942671131431379 29.888001552544086 0 0 -1
43 1 32.42504605997908 4.120387829442891 29.901812443834128 0 0 -1
44 1 35.34040586652493 2.476538753737017 29.90894426498471 0 0 -1
45 1 38.25793629642802 0.8296600362796768 29.916674481265726 0 0 -1
53 1 32.34925158629191 7.443761361540571 29.918925384851647 0 0 -1
54 1 35.2611821735086 5.8004895150566975 29.9230414607582 0 0 -1
55 1 38.17497698618328 4.153513535822321 29.927515133418954 0 0 -1
56 1 41.09151419134394 2.50493707234478 29.93233321847188 0 0 -1
66 1 35.1927128536509 9.122443677286789 29.93795176001883 0 0 -1
67 1 38.102079737330385 7.476075181813184 29.940267612280753 0 0 -1
68 1 41.01370250764255 5.827409387347939 29.94274260040846 0 0 -1
661 3 33.67203314112999 0.9076979900784878 6.600188468575514 0 0 0
669 3 33.75581310661937 4.22685621963236 6.590251058891759 0 0 0
670 3 36.59404393566539 2.546376401282886 6.602303331639187 0 0 0
671 3 39.430382063323336 0.8674479718872813 6.616839096848726 0 0 0
679 3 33.830271253082906 7.547497424431957 6.581090406489732 0 0 0
680 3 36.67181885676267 5.8670319099899855 6.5914390912790255 0 0 0
681 3 39.51160277564576 4.1887444289621465 6.60510956261904 0 0 0
692 3 39.583667647798606 7.510193618761961 6.593015206185093 0 0 0
1327 2 31.499065916917402 2.439050749095668 1.5653599934809848 0 0 0
1329 2 34.416943534741385 0.7972510049641094 1.5749170337858398 0 0 0
1345 2 31.417620070979797 5.763182562580172 1.5820000984442961 0 0 0
1347 2 34.33261780730555 4.121083618160917 1.58790512171264 0 0 0
1349 2 37.24901495913082 2.47531587682035 1.59411195171692 0 0 0
1351 2 40.16805980528291 0.8279622791830173 1.6007960321096208 0 0 0
1365 2 31.347388122693104 9.086351046776919 1.6001872276997489 0 0 0
1367 2 34.25884488171546 7.444691352127337 1.6036055578141226 0 0 0
1369 2 37.171218119533876 5.7986846686883755 1.6070553990614005 0 0 0
1371 2 40.08586297679336 4.150416459357552 1.6108031024020262 0 0 0
1395 2 40.01422706713181 7.473737368031159 1.6223265362042831 0 0 0
2583 2 31.749979772983483 0.9223368119191644 8.28115008808646 0 0 0
2584 2 31.754916506367348 0.9108867445764451 4.912022765741577 0 0 0
2599 2 31.834759897552637 4.241505990079436 8.271467518129446 0 0 0
2600 2 31.839752904455402 4.230226092321577 4.9019935791260645 0 0 0
2601 2 34.67084515159598 2.5583405487396336 8.281185435721385 0 0 0
2602 2 34.68000015927064 2.547058367867702 4.91182762359578 0 0 0
2603 2 37.506027046281524 0.8776015892710792 8.29424388063629 0 0 0
2604 2 37.51787840189126 0.8670865452161114 4.924966891440469 0 0 0
2619 2 31.91056161100846 7.561805882819093 8.262905258526477 0 0 0
2620 2 31.91475192859195 7.55283937204143 4.8931890807783205 0 0 0
2621 2 34.74984781139258 5.879131708200145 8.271078386753869 0 0 0
2622 2 34.758003826119456 5.868592097555538 4.901448238099388 0 0 0
2623 2 37.58824918517182 4.199595799229056 8.283307837421585 0 0 0
2624 2 37.59912264972756 4.1879758687253394 4.913728988438219 0 0 0
2625 2 40.425112963413206 2.521192978442997 8.298104675852011 0 0 0
2626 2 40.43731319377628 2.509340846268462 4.928558768403283 0 0 0
2645 2 37.66163771424143 7.521280792927361 8.27233371264749 0 0 0
2646 2 37.67067974053479 7.510917659877873 4.902564110937254 0 0 0
2647 2 40.502717051772294 5.843955475333785 8.285363822379491 0 0 0
2648 2 40.5132175964087 5.8316696194310165 4.915600761555801 0 0 0
69 1 43.92856445212244 4.1784349115487744 29.944683948970187 0 0 -1
82 1 43.855738215147326 7.5002674243925505 29.95379291612457 0 0 -1
682 3 42.34890739721158 2.510865661242686 6.6205565205220305 0 0 0
693 3 42.425468046598056 5.832891410999476 6.60672971709829 0 0 0
707 3 45.33648935691567 7.477026116310883 6.605993910048601 0 0 0
1373 2 43.00411780251065 2.5018264602336955 1.6143169026752917 0 0 0
1397 2 42.92686058075144 5.824263051682417 1.6238591767599921 0 0 0
1425 2 45.77118588601552 7.498432182381468 1.6324147683851549 0 0 0
2649 2 43.341657792727 4.166629206936668 8.30029902977645 0 0 0
2650 2 43.35240465206389 4.153289491888891 4.930535104809011 0 0 0
2675 2 43.41478136404444 7.489366169388932 8.28580785174768 0 0 0
2676 2 43.42345698343737 7.476423690458848 4.915909315796182 0 0 0
19 1 9.261105760573914 10.300802085875672 29.687119304596866 0 0 -1
26 1 9.173916409572017 13.618620295909874 29.734049611307025 0 0 -1
640 3 7.975996422717264 9.71781239061185 6.715574662975804 0 0 0
914 3 8.064908767118213 13.03819238536763 6.700178343295422 1 0 0
1297 2 8.232652602396465 11.908113155631986 1.3734463863637412 0 0 0
2541 2 6.066418671804896 9.79427009969032 8.410528317496828 0 0 0
2542 2 6.050682996352029 9.775214959856521 5.0413995231300275 0 0 0
2553 2 8.992409944753925 11.356193530086713 8.384667139392814 0 0 0
2554 2 8.970787960286415 11.338379089555643 5.015248287917191 0 0 0
2567 2 9.072328942660578 14.678647516012687 8.371623372475211 0 0 0
2568 2 9.056010002149813 14.662790651892568 5.002034428677051 0 0 0
27 1 12.094481142149913 12.05525022361062 29.753701967776987 0 0 -1
28 1 15.013934060549683 10.482178271598409 29.779138620522907 0 0 -1
36 1 12.017147000635287 15.370050933135248 29.796925425998708 0 0 -1
37 1 14.93623891410574 13.798535117632142 29.817014125664706 0 0 -1
38 1 17.853861813693335 12.21553013441545 29.8386749301419 0 0 -1
47 1 14.86931021842334 17.109940074822145 29.852895109520617 0 0 -1
48 1 17.78674148819932 15.528828298443921 29.870126144072717 0 0 -1
49 1 20.70215862975051 13.935269147098387 29.886211967457882 0 0 -1
61 1 20.645057749660946 17.246154020594396 29.910129682166268 0 0 -1
646 3 10.898138332963843 11.284455864536401 6.685968532591025 0 0 0
647 3 13.731333331184267 9.538572777201372 6.665517549458163 0 0 0
653 3 10.979069375319455 14.607560000779767 6.675599004942284 0 0 0
654 3 13.813759674646128 12.860578928160146 6.656857297589411 0 0 0
655 3 16.64876163929601 11.12313318521423 6.635092305975207 0 0 0
656 3 19.48457115102414 9.396592436670858 6.614843752898334 0 0 0
662 3 13.885754805934255 16.18717524320569 6.653000627786501 0 0 0
663 3 16.721887757712743 14.448369557899698 6.632136627174034 0 0 0
664 3 19.558873922917805 12.720171148531204 6.611337811263383 0 0 0
673 3 16.784839202933885 17.778320510071847 6.634160663388568 0 0 0
674 3 19.622733596573955 16.048278971329534 6.613223645026333 0 0 0
1299 2 11.150084603927137 10.34910533241586 1.3936842580789401 0 0 0
1313 2 11.067062458858809 13.666369263578595 1.4377155723209751 0 0 0
1315 2 13.985565781944736 12.099444398945327 1.4599547387865233 0 0 0
1317 2 16.905399616233876 10.520642582137134 1.4848724544929843 0 0 0
1331 2 10.99597670376636 16.981122333362656 1.4821268237213767 0 0 0
1333 2 13.91384049630955 15.415209035539599 1.4989979110718539 0 0 0
1335 2 16.83292553453311 13.8381293107782 1.5191055987709166 0 0 0
1337 2 19.752127480392183 12.247818014388278 1.5385050832281597 0 0 0
1355 2 16.77200312600881 17.151850227841585 1.5504693739159943 0 0 0
1357 2 19.69032001718246 15.563662179644378 1.5662304606981439 0 0 0
2555 2 11.82816190972984 9.60319200451912 8.36749407153196 0 0 0
2556 2 11.800343558314133 9.586724642604251 4.997923339465203 0 0 0
2569 2 11.91025583171908 12.924290601943627 8.356745155576885 0 0 0
2570 2 11.88674954285021 12.910717060040492 4.986977486675086 0 0 0
2571 2 14.746092832440043 11.178642009527673 8.33618150872216 0 0 0
2572 2 14.719659352845422 11.16618538739011 4.9662355633502235 0 0 0
2573 2 17.580412546192264 9.443602455476892 8.314572166895475 0 0 0
2574 2 17.55530779016946 9.431242761413506 4.94455732123048 0 0 0
2585 2 11.981252039274167 16.24914622922329 8.34997145855523 0 0 0
2586 2 11.963256675892652 16.239565401513907 4.980127840785197 0 0 0
2587 2 14.819020673899935 14.502086136662097 8.331138424794492 0 0 0
2588 2 14.796664490429151 14.494467830193251 4.961090578196272 0 0 0
2589 2 17.65517469689467 12.765396600982244 8.309722376207336 0 0 0
2590 2 17.632816092051623 12.758346216213118 4.939568531109037 0 0 0
2591 2 20.490579593770974 11.040253926726235 8.290194717270083 0 0 0
2592 2 20.47176040456489 11.032674467793454 4.9200676123497935 0 0 0
2607 2 14.881492227774977 17.83036995802817 8.330843245424264 0 0 0
2608 2 14.863417507467961 17.827171001526512 4.960793050053029 0 0 0
2609 2 17.719378424036172 16.091931551588686 8.310208919160848 0 0 0
2610 2 17.699691853301783 16.08999618520193 4.940017325416329 0 0 0
2611 2 20.55656541126566 14.364819664393417 8.289895658102116 0 0 0
2612 2 20.53912785522033 14.36267472070749 4.91968813192869 0 0 0
2633 2 20.612860125693686 17.694295908361443 8.294285255753502 0 0 0
2634 2 20.59625349216996 17.696360193854346 4.924079952752642 0 0 0
39 1 20.769788994263628 10.6196010634937 29.858324491922026 0 0 -1
50 1 23.615541421072017 12.328792853331507 29.899078353141135 0 0 -1
51 1 26.527331202247787 10.710169621140718 29.908238455974228 0 0 -1
62 1 23.557718584877534 15.642457706120096 29.9207762436141 0 0 -1
63 1 26.468044148514778 14.026572719530913 29.92822667116809 0 0 -1
64 1 29.37670128602762 12.3998984862049 29.932860091252465 0 0 -1
76 1 26.41892895208185 17.339244209833552 29.943928964342962 0 0 -1
77 1 29.32580148037582 15.71552709506851 29.94780183265298 0 0 -1
665 3 22.39702862673355 11.003187497140381 6.594449223136901 0 0 0
666 3 25.236280340705207 9.296955826915719 6.5836971124743435 0 0 0
675 3 22.46208278329003 14.329223546961018 6.59483023608696 0 0 0
676 3 25.302960290835433 12.621003402549972 6.581797956961154 0 0 0
677 3 28.14504920782023 10.922509512021385 6.575322840135192 0 0 0
678 3 30.987743196764104 9.232001669465397 6.575349120101259 0 0 0
686 3 22.517360411569506 17.659354693425307 6.599661914502319 0 0 0
687 3 25.359498959542066 15.948641701671036 6.584401553643618 0 0 0
688 3 28.203459295746505 14.24787170277639 6.5750520934914585 0 0 0
689 3 31.048686949657704 12.555519715219425 6.571940565114871 0 0 0
701 3 28.252544954328464 17.57616738174167 6.5782229930635125 0 0 0
702 3 31.099834211761404 15.881345477351251 6.5720132950774355 0 0 0
1339 2 22.670428505829413 10.643800605572821 1.5546682655952808 0 0 0
1359 2 22.60734996455789 13.961985374568064 1.5795632661724106 0 0 0
1361 2 25.522439037920805 12.347342721542654 1.5893574131552182 0 0 0
1363 2 28.435588905798866 10.721374588256415 1.5958664659605164 0 0 0
1383 2 22.555030186055248 17.27649038319359 1.6002462306558036 0 0 0
1385 2 25.46867357186384 15.66457034456745 1.6084677254982818 0 0 0
1387 2 28.379729836215258 14.041041866636368 1.613712456395478 0 0 0
1413 2 28.33396787720618 17.3578539126866 1.6273986773714568 0 0 0
2593 2 23.326023183067598 9.326642278880776 8.275703531746407 0 0 0
2594 2 23.312892315511853 9.317977717980739 4.905702097958383 0 0 0
2613 2 23.39395873069811 12.649384308364025 8.273614010864788 0 0 0
2614 2 23.38132114126718 12.64598251936968 4.903486830534698 0 0 0
2615 2 26.23211551880514 10.944863562847779 8.263459933696208 0 0 0
2616 2 26.225381806081664 10.939672831592208 4.893469547222906 0 0 0
2617 2 29.071105212265127 9.249677393850126 8.260036525998958 0 0 0
2618 2 29.07022054886507 9.242552381552239 4.890195030730436 0 0 0
2635 2 23.45194107279496 15.976409756256974 8.276345961372245 0 0 0
2636 2 23.439095267662214 15.977556290069957 4.906180878444617 0 0 0
2637 2 26.292150594265145 14.26965334192441 8.263670442857013 0 0 0
2638 2 26.284557132087848 14.268981703602005 4.893602442259481 0 0 0
2639 2 29.13369772432247 12.572698625952198 8.257333889216456 0 0 0
2640 2 29.131552454328386 12.569726762147496 4.887379505365586 0 0 0
2663 2 26.343032105730572 17.59832476548445 8.267627524134296 0 0 0
2664 2 26.333928966160183 17.600922466093795 4.8975415939557365 0 0 0
2665 2 29.186671728170584 15.898749655054562 8.258385696281962 0 0 0
2666 2 29.18263380196492 15.899263914833869 4.8883851542976835 0 0 0
65 1 32.284592664208084 10.764447317526562 29.935725803551843 0 0 -1
78 1 32.230983299344125 14.082581091645805 29.949866646733376 0 0 -1
79 1 35.135489248157256 12.442501489495282 29.951090957769203 0 0 -1
80 1 38.04039139605853 10.797415514348776 29.95217360570416 0 0 -1
81 1 40.9467782323354 9.149354605937555 29.953256029544686 0 0 -1
93 1 32.18728906917272 17.398338935840393 29.96027699795372 0 0 -1
94 1 35.08880606890018 15.760797361119042 29.961155202691266 0 0 -1
95 1 37.98973073216591 14.117631601220472 29.96165990850955 0 0 -1
96 1 40.89117641655001 12.470836928942175 29.962018914764336 0 0 -1
111 1 37.94890666785094 17.436817768044303 29.968240080101282 0 0 -1
112 1 40.84614776862393 15.791918411493526 29.968304058217605 0 0 -1
690 3 33.89439321664932 10.86971809720962 6.574529308356458 0 0 0
691 3 36.73968789959615 9.18855404625149 6.581898949663886 0 0 0
703 3 33.94838347882822 14.193579656521512 6.571238679717395 0 0 0
704 3 36.797285392160404 12.511028710725089 6.5751365220851055 0 0 0
705 3 39.64557556846493 10.831894226701314 6.582827278441978 0 0 0
717 3 33.99336745071873 17.519095413436023 6.570822796860935 0 0 0
718 3 36.845318772383536 15.834519093266257 6.571453071763839 0 0 0
719 3 39.69751636747735 14.153947085562946 6.575661658174059 0 0 0
735 3 39.74057720647244 17.476440492828683 6.571545444600463 0 0 0
1389 2 31.288699353123835 12.40793617033958 1.6167715584256 0 0 0
1391 2 34.196566482165686 10.767555520589058 1.6187397372280887 0 0 0
1393 2 37.10460643814628 9.122137193991186 1.6204867281389606 0 0 0
1415 2 31.24067739716154 15.727382118532566 1.6299492459141833 0 0 0
1417 2 34.145414307833775 14.089067416731572 1.631251514896355 0 0 0
1419 2 37.04940705812024 12.445069168380622 1.632110931262011 0 0 0
1421 2 39.95405691851007 10.797400313434226 1.6328855331115464 0 0 0
1447 2 34.10401673503397 17.408793626997383 1.6402916940968317 0 0 0
1449 2 37.00469175193069 15.766950187813617 1.6408431468205442 0 0 0
1451 2 39.904969259541716 14.12081016086589 1.641122013834185 0 0 0
1483 2 39.86560705713544 17.443541997844324 1.6466997131169798 0 0 0
2641 2 31.976275552820315 10.88367537224695 8.257224135066167 0 0 0
2642 2 31.978930382386544 10.878198090027835 4.887365715692513 0 0 0
2643 2 34.81920645237726 9.200538526552661 8.262568030620269 0 0 0
2644 2 34.825622803153706 9.192537186768044 4.892770713671899 0 0 0
2667 2 32.03201258420181 14.207634838656295 8.255023844747644 0 0 0
2668 2 32.032569195563305 14.205632704713118 4.885097838516483 0 0 0
2669 2 34.8784239776929 12.523050149809558 8.256986970532404 0 0 0
2670 2 34.882607514896776 12.518280791443088 4.887106232772935 0 0 0
2671 2 37.725008990965115 10.84305540743278 8.263405734412029 0 0 0
2672 2 37.73172815856226 10.835403312984043 4.893537983775771 0 0 0
2673 2 40.57078386779861 9.16577747964533 8.273342955125427 0 0 0
2674 2 40.57898095977052 9.155299852194288 4.903465877991828 0 0 0
2695 2 32.07879535878278 17.534041958250132 8.255808564483203 0 0 0
2696 2 32.07693542330964 17.534584162837948 4.8858577432320285 0 0 0
2697 2 34.92809502073802 15.847119667350631 8.254523941907948 0 0 0
2698 2 34.92981348509977 15.8452359422054 4.884612168430337 0 0 0
2699 2 37.778407927146674 14.165432913077936 8.257487390960108 0 0 0
2700 2 37.78263271179563 14.160831653232995 4.887584617481141 0 0 0
2701 2 40.62870774739184 12.487180602506209 8.263876648886601 0 0 0
2702 2 40.63441109096026 12.479653613897023 4.893958876650431 0 0 0
2731 2 37.822809476963144 17.48882236531903 8.254484097025008 0 0 0
2732 2 37.82465147078404 17.486742426040273 4.8845767395872635 0 0 0
2733 2 40.676991705361296 15.80869739000894 8.257611307921398 0 0 0
2734 2 40.68034901623223 15.8041997650958 4.887693787722505 0 0 0
97 1 43.79427655459477 10.822324839593586 29.961859158869395 0 0 -1
98 1 46.700186290768 9.173996793930414 29.960122007578455 0 0 -1
113 1 43.74398347082733 14.144640927175825 29.967838037607095 0 0 -1
114 1 46.64357773313684 12.496841266763909 29.966048080332904 0 0 -1
131 1 43.70364507437277 17.467229113424125 29.9716289981472 0 0 -1
132 1 46.597772345520546 15.820631180678554 29.969892614378203 0 0 -1
133 1 49.493703512188624 14.174712999299182 29.965849097635882 0 0 -1
152 1 49.451525095993475 17.50058784155898 29.968308155253386 0 0 -1
706 3 42.49228961118153 9.154456347926422 6.593428021959794 0 0 0
720 3 42.5489565715354 12.475685361267226 6.582693932749947 0 0 0
721 3 45.3986305801489 10.798077616321049 6.591866724994643 0 0 0
736 3 42.596115121652055 15.796710734510393 6.575332394121196 0 0 0
737 3 45.45080676445903 14.118241420626607 6.581046842095104 0 0 0
738 3 48.3036054284096 12.439381271667678 6.588282931210562 0 0 0
754 3 45.49404758631364 17.437676978842276 6.574040228534522 0 0 0
755 3 48.352058256803666 15.757929054370203 6.5781114968840075 0 0 0
775 3 51.25361907384003 17.3930916032755 6.57469349908516 0 0 0
1423 2 42.86082457844575 9.147918848662838 1.6333098072816388 0 0 0
1453 2 42.806277227822726 12.472192896979783 1.6410126484828242 0 0 0
1455 2 45.71009502987668 10.822831501140598 1.6397693247952398 0 0 0
1485 2 42.76232595457026 15.796546042426945 1.6463832033040149 0 0 0
1487 2 45.66033054443521 14.148173956935466 1.6450693478065639 0 0 0
1489 2 48.56110110490866 12.500116345147932 1.6416258274782418 0 0 0
1523 2 45.62056909963884 17.473998298866803 1.6483012404787076 0 0 0
1525 2 48.515286969030925 15.82704963540054 1.6452009372596255 0 0 0
1565 2 51.37020780657022 17.510644921736738 1.6414336175122084 0 0 0
2703 2 43.47792013311444 10.810599961150187 8.272916242142221 0 0 0
2704 2 43.48420379793084 10.800100424421311 4.902968311997992 0 0 0
2705 2 46.3249555150409 9.133887322085855 8.283855175323852 0 0 0
2706 2 46.33109927990562 9.120671788771062 4.913868216359118 0 0 0
2735 2 43.53098981036151 14.130946859636941 8.263173938639365 0 0 0
2736 2 43.53498213522414 14.123742503791403 4.893228576830387 0 0 0
2737 2 46.38364411788326 12.45387240786414 8.270617134078144 0 0 0
2738 2 46.387633095392786 12.443812660573702 4.900630643978542 0 0 0
2769 2 43.57488973593009 17.450939325635517 8.256943329070285 0 0 0
2770 2 43.577008955454644 17.44690452772377 4.8870208318507915 0 0 0
2771 2 46.432510264006346 15.77253648488626 8.2611890462288 0 0 0
2772 2 46.4346928968942 15.766206746454102 4.891233960168591 0 0 0
2773 2 49.288525117879146 14.09380776917597 8.266729232646933 0 0 0
2774 2 49.29051159435551 14.084928078256818 4.896727462696353 0 0 0
2811 2 49.33391658905419 17.410219118813092 8.258424954575544 0 0 0
2812 2 49.334739873204285 17.40554931009776 4.888471125572855 0 0 0
46 1 11.950434021068041 18.680428310482775 29.83796538093891 0 0 -1
59 1 14.812286123571527 20.41675369994279 29.883928720909115 0 0 -1
60 1 17.729809656626472 18.837281766634103 29.897107116130297 0 0 -1
72 1 14.76357765133627 23.719561398834053 29.90829964984542 0 0 -1
73 1 17.681522213271627 22.141379908821442 29.91795062609834 0 0 -1
74 1 20.597049050407993 20.552650407509432 29.928438896099674 0 0 -1
88 1 17.639884266757875 25.441717771471154 29.931868064247368 0 0 -1
89 1 20.55617302690449 23.855242457853 29.940394112711605 0 0 -1
105 1 20.52028499044909 27.154414118334543 29.94582733870601 0 0 -1
672 3 13.94786102068347 19.51839952481774 6.6533408754330585 0 0 0
684 3 16.83883045518011 21.112793301283343 6.6394270290513475 0 0 0
685 3 19.677230029709605 19.380810564134897 6.619116724278392 0 0 0
697 3 16.885600053002044 24.451372804968653 6.645497192621317 0 0 0
698 3 19.724047931009522 22.717458319509273 6.62675230852424 0 0 0
712 3 19.765157777454867 26.05780025607942 6.633703324883056 0 0 0
957 3 11.049742174232513 17.934924202229794 6.669121267408711 1 0 0
1000 3 14.001357583974738 22.853962174161513 6.656065303756781 1 0 0
1353 2 13.853535146548735 18.727485284155424 1.53490088779809 0 0 0
1377 2 13.803095038702724 22.036214658196045 1.5651035981311772 0 0 0
1379 2 16.72122550295437 20.461616859374555 1.576570808351843 0 0 0
1381 2 19.638944506231958 18.87552756492902 1.5891498269685904 0 0 0
1405 2 16.678500075754815 23.767531559412543 1.5960343393600112 0 0 0
1407 2 19.59601557492484 22.18339682657579 1.6059658185613717 0 0 0
1435 2 16.64148040922701 27.06984242924561 1.608322461158882 0 0 0
1437 2 19.559227567115027 25.487462936836305 1.6161549382319995 0 0 0
2605 2 12.042005942232578 19.57848509634104 8.347088501901627 0 0 0
2606 2 12.029810446058839 19.572566801220855 4.9772688848342375 0 0 0
2629 2 14.934905109120425 21.16385226261445 8.33386549502904 0 0 0
2630 2 14.92078792641643 21.1634434595747 4.963891390940428 0 0 0
2631 2 17.774186775946443 19.423715635518555 8.31483525025356 0 0 0
2632 2 17.756791389417565 19.425333549704103 4.944684488514737 0 0 0
2655 2 14.981117072395717 24.502334968630414 8.337946788905878 0 0 0
2656 2 14.970330915080439 24.502528924175582 4.968106662112136 0 0 0
2657 2 17.821304896473663 22.760725412445144 8.321404264434905 0 0 0
2658 2 17.80572714529178 22.763622453793246 4.951347496895917 0 0 0
2659 2 20.6609913780676 21.028834911539388 8.301482829190332 0 0 0
2660 2 20.644709902807442 21.03299631427934 4.9313297864801235 0 0 0
2685 2 17.862664676189976 26.10246455656796 8.327436350097463 0 0 0
2686 2 17.848521073771295 26.104360897635747 4.957513365682848 0 0 0
2687 2 20.7027941520119 24.36813648123289 8.309127179751922 0 0 0
2688 2 20.686540091804 24.372094303266433 4.939057332124808 0 0 0
75 1 23.5095173108382 18.95196370432426 29.937481094887755 0 0 -1
90 1 23.469065785205437 22.25769149961122 29.948452524042633 0 0 -1
91 1 26.37827311831272 20.64847821266186 29.954561557490628 0 0 -1
92 1 29.284102820303097 19.0282065797062 29.9583475874027 0 0 -1
106 1 23.434239722175665 25.56001327060096 29.95349367387414 0 0 -1
107 1 26.344009499957924 23.954553300867488 29.959932780596098 0 0 -1
108 1 29.24964902777802 22.33814431124245 29.96431086147158 0 0 -1
126 1 29.22032384781109 25.645498876103296 29.965743522985374 0 0 -1
699 3 22.564429541856367 20.993377009409546 6.607064507244236 0 0 0
700 3 25.407263369688543 19.27975932897529 6.590150982590665 0 0 0
713 3 22.605219428035582 24.33097756326983 6.614787557808492 0 0 0
714 3 25.44809434436332 22.61414661083387 6.597122125527401 0 0 0
715 3 28.2939916634156 20.907276658721297 6.583336842513264 0 0 0
716 3 31.14263304372456 19.209430890550063 6.574574707855653 0 0 0
730 3 25.48398767775663 25.951563117299823 6.603422293352397 0 0 0
731 3 28.329743261333046 24.241044007178772 6.588709326687856 0 0 0
732 3 31.178924317422293 22.539692436766735 6.57822093355166 0 0 0
749 3 31.210647726119355 25.87204490219568 6.5816130777865185 0 0 0
1409 2 22.511636187902518 20.5871509230695 1.6154061486328384 0 0 0
1411 2 25.424401028581677 18.97835251220469 1.6227078968824047 0 0 0
1439 2 22.47492488665073 23.894058935622194 1.6245320957634346 0 0 0
1441 2 25.38748010576594 22.288654539576974 1.6315603756039512 0 0 0
1443 2 28.296332333043303 20.67163461508385 1.6363600089791457 0 0 0
1445 2 31.201603565081463 19.04437547889881 1.6390453787141004 0 0 0
1471 2 22.442624220000784 27.197414855036573 1.6275549359293762 0 0 0
1473 2 25.35565090555493 25.595604690280176 1.6349319106828946 0 0 0
1475 2 28.264608555152808 23.98241991584819 1.6405237576592306 0 0 0
1477 2 31.169362663943197 22.358845563091513 1.6440053323529449 0 0 0
1513 2 31.14177350930413 25.670874348763277 1.6449311686891912 0 0 0
2661 2 23.501270678153883 19.30802024742058 8.282512479770032 0 0 0
2662 2 23.487620100723753 19.311969436597913 4.91236311421499 0 0 0
2689 2 23.543671809051396 22.64411319803405 8.290059429063643 0 0 0
2690 2 23.528885167014725 22.64872954832353 4.919951399083883 0 0 0
2691 2 26.38633091904146 20.930952686350142 8.273710888367209 0 0 0
2692 2 26.375338394473932 20.93499289877537 4.903634326592527 0 0 0
2693 2 29.23136862386722 19.228058609026345 8.262092316289085 0 0 0
2694 2 29.22506004771335 19.230637748871132 4.892079249628484 0 0 0
2721 2 23.580995642048023 25.984263424418153 8.296900573167946 0 0 0
2722 2 23.565077635932077 25.987627713867912 4.926855944328067 0 0 0
2723 2 26.42385013023324 24.267305418721552 8.28005486571048 0 0 0
2724 2 26.41092670852333 24.270968063152612 4.910003119400584 0 0 0
2725 2 29.26950780963167 22.560571345265615 8.266898344468675 0 0 0
2726 2 29.260860944107066 22.563590605947912 4.896886090420304 0 0 0
2759 2 29.30290873483294 25.89602748340586 8.27130421269002 0 0 0
2760 2 29.292152503721738 25.898118484719454 4.901305726456471 0 0 0
109 1 32.15172764507499 20.71187979724817 29.966736259497715 0 0 -1
110 1 35.05113255900961 19.07745595092313 29.96782753660458 0 0 -1
127 1 32.122241942996915 24.023315084593154 29.96935926611526 0 0 -1
128 1 35.02051590073443 22.39256009314184 29.97127039276577 0 0 -1
129 1 37.91612635586309 20.755033934292996 29.972069583246732 0 0 -1
130 1 40.810138320835215 19.112637045840106 29.972183474805163 0 0 -1
147 1 34.994873886035464 25.706150714809294 29.971674912248652 0 0 -1
148 1 37.88934720484035 24.07230684145552 29.97345593838465 0 0 -1
149 1 40.78118072147027 22.433003555924802 29.974043514992303 0 0 -1
170 1 40.75719157522731 25.753015284016342 29.974184923920948 0 0 -1
733 3 34.03101413089671 20.846240528595 6.572236410248426 0 0 0
734 3 36.88521237768793 19.159060007164708 6.570268768606619 0 0 0
750 3 34.063211474097834 24.174975929903646 6.574271943705874 0 0 0
751 3 36.91875380665956 22.48465422361709 6.570583306942107 0 0 0
752 3 39.77638712451953 20.799427643175584 6.569802764284035 0 0 0
770 3 36.947828598365945 25.81129235407191 6.571388589204008 0 0 0
771 3 39.806793541420454 24.122926197350605 6.569504341468098 0 0 0
1479 2 34.070422557092314 20.726549128752552 1.6457842854493874 0 0 0
1481 2 36.9687576070094 19.08747355603293 1.646518737444921 0 0 0
1515 2 34.04248701671502 24.04235109306634 1.647912172425714 0 0 0
1517 2 36.93954274424688 22.40656825319169 1.6493830614638956 0 0 0
1519 2 39.83405438478282 20.76540916863235 1.6498685615451363 0 0 0
1555 2 36.914919168533245 25.724318175421242 1.6496646728837163 0 0 0
1557 2 39.80819548901513 24.086436136802078 1.6509871636989475 0 0 0
2727 2 32.11818763348262 20.863003374319565 8.258409095486158 0 0 0
2728 2 32.11387160212839 20.864736046673606 4.888448964881856 0 0 0
2729 2 34.96954290601688 19.173010910450294 8.254489104569798 0 0 0
2730 2 34.968829579468164 19.17301521664133 4.884567835548084 0 0 0
2761 2 32.15197959189219 24.19441332505971 8.26148817175832 0 0 0
2762 2 32.1454266202363 24.196030958012997 4.891525843848681 0 0 0
2763 2 35.00447179557135 22.500765552059846 8.255776092271933 0 0 0
2764 2 35.00158952224622 22.501479522304393 4.885850700234042 0 0 0
2765 2 37.85975898606259 20.813425165417595 8.253624540251753 0 0 0
2766 2 37.85955785336708 20.812901364966674 4.883719917062857 0 0 0
2767 2 40.716920931285784 19.130696090701136 8.254250932566789 0 0 0
2768 2 40.71833632779978 19.128600792918494 4.8843465219074 0 0 0
2801 2 35.03470551773065 25.83026437073627 8.257295442928177 0 0 0
2802 2 35.030082691367824 25.83069670008174 4.887368372695591 0 0 0
2803 2 37.89104821832233 24.13924333961234 8.25391086894733 0 0 0
2804 2 37.889296955425834 24.13928901033902 4.88400622508905 0 0 0
2805 2 40.750202051692945 22.453326356653136 8.252997774679482 0 0 0
2806 2 40.7502472092772 22.452736927560952 4.883101446053752 0 0 0
2845 2 40.778680215139865 25.776557948917684 8.252962455303749 0 0 0
2846 2 40.77800259987521 25.77665649261648 4.883066466075697 0 0 0
150 1 43.671432174564 20.79007983999786 29.97363381075276 0 0 -1
151 1 46.561174873364784 19.145334807386117 29.971978355399276 0 0 -1
171 1 43.645264267568734 24.113174867136568 29.974303136575674 0 0 -1
172 1 46.53175346395023 22.47090968844304 29.972868196640626 0 0 -1
173 1 49.417708041396764 20.828007150204762 29.96942551907694 0 0 -1
193 1 46.50734878342445 25.797332753483285 29.972966244422878 0 0 -1
194 1 49.39006781912596 24.156911255716093 29.96982016627826 0 0 -1
753 3 42.63514906684726 19.11763989164826 6.571155251333623 0 0 0
772 3 42.667826355426385 22.438533392610594 6.569431172084725 0 0 0
773 3 45.529969486825394 20.75650079074723 6.570478178951805 0 0 0
774 3 48.39224304037819 19.075238052301245 6.572240781946541 0 0 0
792 3 42.69602420809714 25.75940665582504 6.569307590485434 0 0 0
793 3 45.5604366697601 24.074765293535606 6.569598084022407 0 0 0
794 3 48.425959382105965 22.39142014600402 6.57015312897155 0 0 0
795 3 51.29162440321132 20.707752072158385 6.570836861540157 0 0 0
815 3 48.45514469803989 25.706508343329876 6.571069017594664 0 0 0
816 3 51.32405343569153 24.020765509553893 6.571124309045445 0 0 0
1521 2 42.727287457414114 19.120662233339687 1.6495900669157875 0 0 0
1559 2 42.699098273631556 22.444464701901058 1.6510842090284958 0 0 0
1561 2 45.588870948626834 20.80009237035341 1.6499368816802522 0 0 0
1563 2 48.478793171303494 19.154937930111352 1.64706131957383 0 0 0
1601 2 42.6756203433684 25.768065257810555 1.6511934723170658 0 0 0
1603 2 45.56306738755843 24.12648162618949 1.6504762660132568 0 0 0
1605 2 48.44947414821177 22.483662466551188 1.647832977862056 0 0 0
1607 2 51.336053909906994 20.84123133835913 1.6426119874394123 0 0 0
1647 2 48.42507415083213 25.81334064943492 1.6479758265984754 0 0 0
1649 2 51.308134258442365 24.173257902987118 1.6430905863018554 0 0 0
2807 2 43.61115688571164 20.77089903548447 8.253774767192235 0 0 0
2808 2 43.612027424903346 20.76935459749323 4.883872391115925 0 0 0
2809 2 46.472799693984214 19.09039193649184 8.255670671488126 0 0 0
2810 2 46.4737964170896 19.087496664125364 4.88574924110783 0 0 0
2847 2 43.641613681600525 24.09092663309292 8.252864676769398 0 0 0
2848 2 43.641959589093666 24.091047563919595 4.8829693333032615 0 0 0
2849 2 46.50625173088609 22.407706645820515 8.25348714050953 0 0 0
2850 2 46.5068289423002 22.407532234054816 4.883584710660319 0 0 0
2851 2 49.371440807032904 20.72536572163827 8.254466214862553 0 0 0
2852 2 49.37184590171392 20.72446192653402 4.884547795488413 0 0 0
2891 2 46.53477892736691 25.724519229214906 8.253845771444123 0 0 0
2892 2 46.53574444464822 25.72630710331006 4.883943290966933 0 0 0
2893 2 49.40299829536785 24.039450280010094 8.254181874139794 0 0 0
2894 2 49.4038166952135 24.04157571898434 4.884275391450218 0 0 0
174 1 52.304238327609866 19.18633946433907 29.963037613923074 0 0 -1
195 1 52.27222616625405 22.51706249270611 29.963809282828475 0 0 -1
216 1 52.24535741133762 25.849880429986385 29.96419324189405 0 0 -1
217 1 55.12378257127945 24.214270892699002 29.954907256275096 0 0 -1
817 3 54.19311308949369 22.33355743379166 6.570986447262367 0 0 0
838 3 54.22516835052924 25.642953597955927 6.574405005450112 0 0 0
1651 2 54.19132238040571 22.534764818532523 1.6347551550283728 0 0 0
1693 2 54.16378343489418 25.870684053832523 1.6354196399127368 0 0 0
2853 2 52.235901880086836 19.042298163275195 8.25587285392462 0 0 0
2854 2 52.236264251566126 19.0401450882515 4.885926170775569 0 0 0
2895 2 52.27160636723451 22.354206577674358 8.254345420352264 0 0 0
2896 2 52.272234600258635 22.35615212528972 4.884432632911584 0 0 0
2937 2 52.30228008590066 25.66454169505884 8.256836382841701 0 0 0
2938 2 52.30398343744683 25.669814069799276 4.886928698811871 0 0 0
2939 2 55.17417559873749 23.97539732677679 8.256417451063422 0 0 0
2940 2 55.17587591965411 23.98082903213169 4.8865259855658385 0 0 0
104 1 17.602746034581166 28.738897115406274 29.938772436761784 0 0 -1
123 1 20.487245051283065 30.45061053513605 29.945010987663338 0 0 -1
142 1 20.454981218923564 33.744243383633645 29.938691475939255 0 0 -1
728 3 19.80259841464017 29.401400837624735 6.637992097667255 0 0 0
1043 3 16.92714381371855 27.79353267676366 6.6499607488275 1 0 0
1087 3 19.838378136629817 32.74786891243808 6.638485941500339 1 0 0
1469 2 19.526300776851663 28.78796758090266 1.6197401026672333 0 0 0
1505 2 19.49513700001853 32.085104190689066 1.6172518365141197 0 0 0
2717 2 17.9002299556202 29.44812795525356 8.330832393742009 0 0 0
2718 2 17.887327667296027 29.447322027108605 4.961087704095461 0 0 0
2719 2 20.740164244493634 27.711578821403005 8.315042038267856 0 0 0
2720 2 20.723928117431818 27.713442356087565 4.945088255475643 0 0 0
2753 2 20.774972933005696 31.05837450382705 8.317722186055223 0 0 0
2754 2 20.75902781938796 31.05707418373787 4.947934940539842 0 0 0
2791 2 20.809073431046112 34.40768954058482 8.31659505326056 0 0 0
2792 2 20.793898654769322 34.403170563752454 4.947038863216694 0 0 0
124 1 23.402893452701676 28.859258967609758 29.952696290638126 0 0 -1
125 1 26.313994744736178 27.25769934757058 29.960068631999672 0 0 -1
143 1 23.372940515340684 32.15571557406092 29.946408112228724 0 0 -1
144 1 26.286133588025365 30.55810051522977 29.955079248963905 0 0 -1
145 1 29.194024989632943 28.950378697869542 29.962678869726698 0 0 -1
164 1 23.342335643972312 35.449660377553776 29.935344036907324 0 0 -1
165 1 26.25836936771197 33.855915583710384 29.94522340485713 0 0 -1
166 1 29.168694575914902 32.25285676021348 29.955116471646434 0 0 -1
187 1 29.14225039886992 35.55300360694266 29.94311224290761 0 0 -1
729 3 22.64175062361156 27.671820950397226 6.620829942527062 0 0 0
746 3 22.67601651912845 31.015610101981864 6.623858818983854 0 0 0
747 3 25.516921147054408 29.291795376255028 6.6076341125806755 0 0 0
748 3 28.361762855584598 27.577327220340052 6.592928660308682 0 0 0
765 3 22.70996364403837 34.36209688959697 6.623427967047586 0 0 0
766 3 25.548827487106383 32.63468166758004 6.609072958237534 0 0 0
767 3 28.391966151016817 30.916025556736024 6.595144167953431 0 0 0
768 3 31.239707947664385 29.206430156363222 6.583795707439471 0 0 0
786 3 25.581629679475583 35.980089652691134 6.607876447456941 0 0 0
787 3 28.422256590144656 34.25707799255157 6.595205296787366 0 0 0
1507 2 22.412616284215925 30.497395600972364 1.6247106782562657 0 0 0
1509 2 25.32676445745249 28.89936202298574 1.6329014925860896 0 0 0
1511 2 28.236616971139888 27.290338190519783 1.6399361949336124 0 0 0
1545 2 22.38296392943485 33.79409547154948 1.6165929201570464 0 0 0
1547 2 25.29884135417586 32.20001396351654 1.6256987440464572 0 0 0
1549 2 28.21032377319598 30.595486256448 1.634638447261514 0 0 0
1551 2 31.116750719384136 28.980570667955494 1.6418373710200442 0 0 0
1589 2 25.270028807842404 35.4975785102125 1.6138134612567907 0 0 0
1591 2 28.183821351424527 33.897887707409 1.624723675536965 0 0 0
1593 2 31.09233111064915 32.287992807872236 1.6346239940267837 0 0 0
1635 2 31.066613677714372 35.59315657906772 1.6231441779900053 0 0 0
2755 2 23.615079060084852 29.327864280659725 8.30142817595064 0 0 0
2756 2 23.59835484681132 29.328703375979682 4.931481730138319 0 0 0
2757 2 26.457414945740254 27.606954249232714 8.285061877790957 0 0 0
2758 2 26.442841843106834 27.60887562602876 4.915056986040344 0 0 0
2793 2 23.647743291953677 32.674245537086534 8.30280836474616 0 0 0
2794 2 23.630781577642605 32.672165609969205 4.9330128400918785 0 0 0
2795 2 26.488830061606755 30.94938507085711 8.287734691895912 0 0 0
2796 2 26.473132606724697 30.948925216403797 4.917813477909241 0 0 0
2797 2 29.33337844148646 29.234057837685267 8.274224395284035 0 0 0
2798 2 29.320964892279065 29.23440407187837 4.9042615547174515 0 0 0
2833 2 23.680838697018466 36.02273519194655 8.301097688457686 0 0 0
2834 2 23.664345051897815 36.01828113523187 4.931514089019625 0 0 0
2835 2 26.51992637262378 34.29406615737012 8.287836214873499 0 0 0
2836 2 26.50377525161477 34.291419427360495 4.918045838228304 0 0 0
2837 2 29.3627333835842 32.574251029555676 8.275187209824642 0 0 0
2838 2 29.349244543388444 32.57274890105648 4.905292174798719 0 0 0
2879 2 29.392863766312118 35.91617850475943 8.274435454620878 0 0 0
2880 2 29.378929435267917 35.91350637641742 4.904646364532492 0 0 0
146 1 32.096734202513716 27.33270938070688 29.96822787620086 0 0 -1
167 1 32.07314672506671 30.64008533382309 29.96326968389819 0 0 -1
168 1 34.97214707567889 29.01823255148194 29.96903411246232 0 0 -1
169 1 37.86649910397377 27.38863901828091 29.972533701912475 0 0 -1
188 1 32.04941482325591 33.945449684974605 29.954283365278663 0 0 -1
189 1 34.95028786830051 32.32878769101714 29.963088414668036 0 0 -1
190 1 37.845539052558735 30.704016416446898 29.969122591683583 0 0 -1
191 1 40.73610826349466 29.072670156614386 29.972590253108603 0 0 -1
210 1 34.92717291067008 35.63779807006326 29.953334596906696 0 0 -1
211 1 37.824383031102485 34.018421203823465 29.962690629996082 0 0 -1
212 1 40.71586589143652 32.39197300780033 29.968828482155597 0 0 -1
233 1 40.694295621454046 35.71093669381313 29.96201385688024 0 0 -1
769 3 34.091858316515 27.505270977511078 6.575920080486891 0 0 0
788 3 31.267983841733408 32.54282617535372 6.58437542109515 0 0 0
789 3 34.11881457104115 30.83711866259915 6.576590796122784 0 0 0
790 3 36.97429422071538 29.138968556086265 6.571947119896463 0 0 0
791 3 39.83366488489272 27.44693493519684 6.5698178765278294 0 0 0
809 3 31.297398163494023 35.88122938958531 6.583623683874499 0 0 0
810 3 34.145966946351756 34.170531157935784 6.576240502926521 0 0 0
811 3 37.000006260523946 32.46768555913469 6.571941959660578 0 0 0
812 3 39.858847570893765 30.77143916933883 6.570209485657314 0 0 0
832 3 37.02689998271188 35.79745220979969 6.571596135588748 0 0 0
833 3 39.88422664315018 34.09642042976825 6.570564080883697 0 0 0
1553 2 34.018093862876825 27.356307550926584 1.6467746128611882 0 0 0
1595 2 33.9952329055669 30.668522351566693 1.642254894785282 0 0 0
1597 2 36.89283617521296 29.040863706966636 1.6473498315501722 0 0 0
1599 2 39.7859378794965 27.40677097479581 1.6502019959016492 0 0 0
1637 2 33.971960943623074 33.97906637930973 1.6340266150230809 0 0 0
1639 2 36.87131700469726 32.35634202170353 1.6421137384909996 0 0 0
1641 2 39.76526817406789 30.726608679858526 1.6473093016538942 0 0 0
1681 2 36.848375312912694 35.67088828856072 1.6333081024619063 0 0 0
1683 2 39.74418473503757 34.04616017101241 1.6416957566465673 0 0 0
2799 2 32.18199132694154 27.52803425199118 8.263931945914157 0 0 0
2800 2 32.17361337730776 27.528604058052007 4.893977788082128 0 0 0
2839 2 32.21003486173201 30.863560805880706 8.265085342592354 0 0 0
2840 2 32.20035017093515 30.86272020258433 4.89515698977076 0 0 0
2841 2 35.06206441941282 29.161294754635595 8.25825868604156 0 0 0
2842 2 35.056215314074805 29.160871056224515 4.888336177021728 0 0 0
2843 2 37.91851606044693 27.466149008064782 8.254470952825598 0 0 0
2844 2 37.91577983566605 27.466036488290804 4.8845650569689 0 0 0
2881 2 32.2379814474016 34.200650677645264 8.26488980679692 0 0 0
2882 2 32.22752833056427 34.19872232550492 4.895011110471075 0 0 0
2883 2 35.088401558406176 32.4935844642187 8.258344104251748 0 0 0
2884 2 35.08183970673585 32.492293364528955 4.888436829238233 0 0 0
2885 2 37.94400855201989 30.79392948814787 8.254769648059154 0 0 0
2886 2 37.940845661329 30.793358181552165 4.884862387312986 0 0 0
2887 2 40.80421899674857 29.10023826525626 8.253449839488944 0 0 0
2888 2 40.80346434802217 29.10049998989249 4.883548123643707 0 0 0
2925 2 35.1156801369048 35.82681128494997 8.257812493019095 0 0 0
2926 2 35.10884193906823 35.82530589687366 4.887931239600339 0 0 0
2927 2 37.96944900470657 34.122308589418864 8.254733626455616 0 0 0
2928 2 37.96632590201269 34.121525684629596 4.88482591398162 0 0 0
2929 2 40.82871344498831 32.42413246346483 8.254110339681871 0 0 0
2930 2 40.82844389357601 32.42445028959981 4.884196036000261 0 0 0
2971 2 40.85418309768406 35.74793511130047 8.255051376025097 0 0 0
2972 2 40.85478519516124 35.748734530896144 4.885114029817306 0 0 0
192 1 43.62303328256698 27.436510958546606 29.97382418259193 0 0 -1
213 1 43.60265717891713 30.76011102343664 29.971955123789485 0 0 -1
214 1 46.48582197167195 29.124620340713037 29.972279411934412 0 0 -1
215 1 49.3663867521554 27.48728211778356 29.969790288140832 0 0 -1
234 1 43.5820112426589 34.08402028952392 29.96795367204639 0 0 -1
235 1 46.46504643587178 32.45283258161074 29.970297418008396 0 0 -1
236 1 49.34448765712361 30.819159652183536 29.969133446836203 0 0 -1
257 1 46.442816557782066 35.782053231476596 29.96591330395095 0 0 -1
258 1 49.322190380004216 34.152627463023094 29.96704661351729 0 0 -1
259 1 52.19805098128212 32.521788329848455 29.96391889771936 0 0 -1
280 1 52.17318063042377 35.860985862534086 29.961762257788756 0 0 -1
813 3 42.72161101559435 29.08024125372813 6.570092999523118 0 0 0
814 3 45.58735384210654 27.392465407784766 6.570619625003525 0 0 0
834 3 42.74644897019546 32.40099164166678 6.571401423426292 0 0 0
835 3 45.612604507310756 30.70955172336232 6.5729570105039015 0 0 0
836 3 48.48172949103137 29.02047445934337 6.574266216899179 0 0 0
837 3 51.352894618777455 27.33215510570792 6.5747627770949615 0 0 0
855 3 42.77248151265452 35.72160585175382 6.573251782630436 0 0 0
856 3 45.638088930925726 34.02594724965289 6.576306136192653 0 0 0
857 3 48.50762426545738 32.3332473189161 6.579199553485683 0 0 0
858 3 51.38010406533159 30.641887161427842 6.581031279520008 0 0 0
878 3 48.534782147366016 35.64474002994407 6.585535047786136 0 0 0
879 3 51.40761725749354 33.94990102712773 6.589310728337449 0 0 0
1643 2 42.654782541768924 29.091683652949268 1.649898773462588 0 0 0
1645 2 45.540999121757665 27.453361771603696 1.6501268315003625 0 0 0
1685 2 42.634557102223795 32.41559525767522 1.6467354476721616 0 0 0
1687 2 45.52057673666772 30.781034173958897 1.648643372292477 0 0 0
1689 2 48.4033942423454 29.14424721066262 1.6475257526918077 0 0 0
1691 2 51.284112219885856 27.506915318670547 1.6432458909580636 0 0 0
1727 2 42.612866311659964 35.7401151009984 1.640722090764621 0 0 0
1729 2 45.499712585657534 34.10986604928382 1.6452422352264326 0 0 0
1731 2 48.38228993962603 32.476758134648215 1.6459750709206846 0 0 0
1733 2 51.261730885868666 30.84253591033545 1.6429259510553227 0 0 0
1775 2 48.359575491047714 35.81130387063442 1.642196791892787 0 0 0
1777 2 51.23877225736851 34.18053988053325 1.6413614096350362 0 0 0
2889 2 43.66815060797647 27.410947701433642 8.253424911840606 0 0 0
2890 2 43.6687118055696 27.412052753933647 4.883524240662224 0 0 0
2931 2 43.69267052946876 30.73077795525675 8.254894736022951 0 0 0
2932 2 43.6941241501211 30.732481483359226 4.884977469930873 0 0 0
2933 2 46.560318716594736 29.04071552881448 8.256042712747119 0 0 0
2934 2 46.562441004281 29.043876989770244 4.886123407296547 0 0 0
2935 2 49.430574203197764 27.352463656367934 8.256794580729386 0 0 0
2936 2 49.432620650199794 27.356899117840833 4.886877316103762 0 0 0
2973 2 43.71714284625516 34.05015415388985 8.257048056475549 0 0 0
2974 2 43.72000118988835 34.05246162531842 4.887101642542609 0 0 0
2975 2 46.584835083886034 32.35609300174353 8.259594836023018 0 0 0
2976 2 46.58874503453551 32.36029860328271 4.889644729402144 0 0 0
2977 2 49.456163470537376 30.6642812492508 8.261634611898538 0 0 0
2978 2 49.46014384480568 30.670449727621765 4.891689509432251 0 0 0
3017 2 46.61040287267679 35.67038381706005 8.264306592636327 0 0 0
3018 2 46.61646822800789 35.675626738029415 4.894311476346392 0 0 0
3019 2 49.481805776325075 33.97472087768211 8.268203979553451 0 0 0
3020 2 49.488196138026474 33.98222482066812 4.898217707352873 0 0 0
237 1 52.22136879219703 29.184775430139805 29.964366926511556 0 0 -1
238 1 55.09671798320137 27.551472199374317 29.955732274369026 0 0 -1
260 1 55.07146901546164 30.891291593991138 29.95647935700038 0 0 -1
261 1 57.943529117410506 29.26292337681601 29.944681441811547 0 0 -1
281 1 55.0458096715836 34.233726915316886 29.956544247748415 0 0 -1
282 1 57.916236926803734 32.607714338972784 29.94657818348095 0 0 -1
304 1 57.88754183857371 35.95540624796578 29.947760589832498 0 0 -1
305 1 60.75578031300891 34.33397933587625 29.93618485104645 0 0 -1
859 3 54.25458284734171 28.950249890776956 6.581435845794214 0 0 0
860 3 57.13010338342222 27.256665462181378 6.580695194507276 0 0 0
880 3 54.283321506262936 32.25544623931718 6.591252360076677 0 0 0
881 3 57.16091029494129 30.55975212494723 6.5912447857488505 0 0 0
901 3 54.313322463323814 35.558547144001196 6.6030101369174234 0 0 0
902 3 57.191926818763775 33.86047728449045 6.6043696301231005 0 0 0
903 3 60.07218814775592 32.16033221241238 6.603327832193024 0 0 0
924 3 60.10597041217281 35.45716054889171 6.61859379758601 0 0 0
1735 2 54.139072940853744 29.208868456654283 1.635949955077728 0 0 0
1737 2 57.015296859427586 27.577399012871414 1.624805359831897 0 0 0
1779 2 54.11487913546606 32.549672138579254 1.6360251616745312 0 0 0
1781 2 56.98887069045422 30.920344465145025 1.6262032304533651 0 0 0
1821 2 54.08891312288938 35.89349045154697 1.6346324864472892 0 0 0
1823 2 56.96184792601441 34.26638233817879 1.6271516448235905 0 0 0
1825 2 59.83268445659131 32.641629420870025 1.6150380509740025 0 0 0
1869 2 59.80208790432031 35.99239702962616 1.6176502625204399 0 0 0
2979 2 52.32997489039553 28.973287507494813 8.262548523724762 0 0 0
2980 2 52.33347695292568 28.981137848797292 4.892623221080198 0 0 0
2981 2 55.20504807519272 27.281643809665127 8.262291823055538 0 0 0
2982 2 55.20809808309115 27.29056550990368 4.892406255965886 0 0 0
3021 2 52.356741673991536 32.28036190234108 8.270759326222924 0 0 0
3022 2 52.36257218508406 32.29010659822225 4.9008014035507275 0 0 0
3023 2 55.23397165958664 30.585919864838136 8.271544400644215 0 0 0
3024 2 55.23889812002432 30.59744853727003 4.901643649112204 0 0 0
3025 2 58.11219671515642 28.88994930011422 8.270821647069646 0 0 0
3026 2 58.11652050546155 28.902400696239752 4.901011977172109 0 0 0
3063 2 52.384687468131254 35.585679776538264 8.280809622877808 0 0 0
3064 2 52.39303390072138 35.596683606737145 4.910809469375978 0 0 0
3065 2 55.26302971524917 33.88826424862139 8.283265209930901 0 0 0
3066 2 55.270072301370945 33.90145327050002 4.91333747599874 0 0 0
3067 2 58.143371466360605 32.18999203190089 8.283366291484507 0 0 0
3068 2 58.148982274168475 32.20468033337528 4.913554490165087 0 0 0
3109 2 58.1756593781271 35.48814622645581 8.29786728815954 0 0 0
3110 2 58.18245017645239 35.50370584715847 4.928046086134347 0 0 0
3111 2 61.058497406217484 33.786052753177216 8.296428890504243 0 0 0
3112 2 61.06326629706773 33.8024611388016 4.9268017671962365 0 0 0
1264 2 2.827847001777479 1.7605558146514886 27.870959086446618 0 0 -1
1266 2 5.765676693483789 0.1964479529601194 27.887682618362486 0 0 -1
1270 2 5.652182711251539 3.5308441774487096 27.89749985225977 0 0 -1
1272 2 8.585529034320329 1.965026971978232 27.922695116426244 0 0 -1
1276 2 5.543956699248431 6.8619456483595265 27.924185627415618 0 0 -1
1278 2 8.476470327610652 5.299385877020473 27.943265591558877 0 0 -1
1286 2 8.373457355017887 8.628980202272004 27.9780063671853 0 0 -1
1870 2 59.789961129951536 35.99673966866305 28.266858675718158 0 0 -1
1274 2 11.513945165307275 0.3916376569564098 27.960038478995706 0 0 -1
1280 2 11.404710777336458 3.7293190326883243 27.974558134505287 0 0 -1
1282 2 14.327888931395274 2.149398939492535 28.013312025097584 0 0 -1
1284 2 17.246123116917452 0.5578881668446166 28.054546331207966 0 0 -1
1288 2 11.30091479380768 7.061587365957732 28.003637898750736 0 0 -1
1290 2 14.22386154428033 5.484428152374881 28.036610801716044 0 0 -1
1292 2 17.14232215392783 3.8954644418140476 28.071874451481495 0 0 -1
1294 2 20.057259755862393 2.293801230311817 28.105428416136085 0 0 -1
1302 2 14.126772984149238 8.812744250407432 28.070165650638426 0 0 -1
1304 2 17.04512589624588 7.226248229055222 28.099950622991763 0 0 -1
1306 2 19.96012955283496 5.626931863358476 28.128037961754465 0 0 -1
1320 2 19.871464125291 8.95291729153609 28.156917258304397 0 0 -1
1296 2 22.97010591379171 0.6798332327888833 28.135060619216166 0 0 -1
1308 2 22.873121375920395 4.014868780382507 28.152208420920665 0 0 -1
1310 2 25.785522044178734 2.391260167432515 28.172081543953766 0 0 -1
1312 2 28.69850026447691 0.7581096525698497 28.188610635216655 0 0 -1
1322 2 22.784134984212084 7.343223815520849 28.176586830390573 0 0 -1
1324 2 25.695920730575608 5.721576122218242 28.19201526905859 0 0 -1
1326 2 28.608045876273003 4.0897524835127905 28.204037308384084 0 0 -1
1342 2 25.61591077306144 9.045712747490498 28.215374623567236 0 0 -1
1344 2 28.526507942243136 7.415950467898091 28.22409083010069 0 0 -1
1328 2 31.521411665534206 2.4500261873887403 28.214175280121143 0 0 -1
1330 2 34.436570304735284 0.8048319044828626 28.22391446578921 0 0 -1
1346 2 31.437875533922124 5.777668897447411 28.230746247474034 0 0 -1
1348 2 34.35073411456796 4.1331802061197145 28.23676969599746 0 0 -1
1350 2 37.2655611477795 2.484784588435717 28.24313298809749 0 0 -1
1352 2 40.18268799661531 0.8347138908023983 28.25002775849868 0 0 -1
1366 2 31.364530273040153 9.100816217184747 28.248946015535992 0 0 -1
1368 2 34.27432722133769 7.457824749202149 28.252430232243196 0 0 -1
1370 2 37.185645142898125 5.810217029546022 28.255972208255407 0 0 -1
1372 2 40.09900853595084 4.1601492225978065 28.25985489853061 0 0 -1
1396 2 40.02509163739959 7.483718242521968 28.271289868898652 0 0 -1
1374 2 43.014875983610025 2.509733067831786 28.2635579138822 0 0 -1
1398 2 42.93604839295121 5.833322243738926 28.27293799312032 0 0 -1
1426 2 45.77581217390982 7.506565123856919 28.281505788744727 0 0 -1
1298 2 8.277982016036843 11.953119216967671 28.022643415607675 0 0 -1
1300 2 11.2042999751693 10.387623806777794 28.042721547743994 0 0 -1
1314 2 11.116331633537987 13.707085860891363 28.086895574520792 0 0 -1
1316 2 14.038315990154903 12.133977366702354 28.10886568447318 0 0 -1
1318 2 16.956562457517865 10.54974898797058 28.13355527953031 0 0 -1
1332 2 11.037976557723562 17.02014146300468 28.131527210394225 0 0 -1
1334 2 13.959525936160766 15.448329872691973 28.148111456992595 0 0 -1
1336 2 16.877846326844182 13.866156829530107 28.167953551057902 0 0 -1
1338 2 19.792775820727407 12.27186884468818 28.187178283309027 0 0 -1
1356 2 16.80924674866858 17.17607732222787 28.199532759012424 0 0 -1
1358 2 19.724514551960596 15.584370198457894 28.215080585385145 0 0 -1
1340 2 22.70507191760411 10.664861116586483 28.203259419058718 0 0 -1
1360 2 22.636689092021474 13.980309311356036 28.228291730666367 0 0 -1
1362 2 25.546675728697238 12.364100151397547 28.238045919023193 0 0 -1
1364 2 28.455600370120187 10.736970513707384 28.244575506000594 0 0 -1
1384 2 22.578629533732936 17.290325446087206 28.24913542054544 0 0 -1
1386 2 25.488171808182866 15.677452023656103 28.25728151359754 0 0 -1
1388 2 28.39570917020547 14.053464286988419 28.262512039535935 0 0 -1
1414 2 28.346069357646492 17.366124657086285 28.27629270228423 0 0 -1
1390 2 31.30228989232633 12.420013342055393 28.26558657826869 0 0 -1
1392 2 34.20886948037346 10.779146273801747 28.267582039728914 0 0 -1
1394 2 37.116241837869545 9.133011763528016 28.269375024261812 0 0 -1
1416 2 31.250797400987175 15.735921824374095 28.278834353594846 0 0 -1
1418 2 34.15450308887897 14.09774966974652 28.28014035522575 0 0 -1
1420 2 37.05807814690198 12.453676017243875 28.28101356769423 0 0 -1
1422 2 39.96232042816827 10.805769212343831 28.28182086685908 0 0 -1
1448 2 34.1102614757262 17.414163582217963 28.289228036532645 0 0 -1
1450 2 37.01062347167943 15.77272818707518 28.28977818510498 0 0 -1
1452 2 39.910692437862544 14.12678532692632 28.290063493092028 0 0 -1
1484 2 39.869136755254026 17.447126688770943 28.295660034340777 0 0 -1
1424 2 42.86798484650395 9.156054918948811 28.28230611511828 0 0 -1
1454 2 42.81129919752797 12.47833459211192 28.28997952801643 0 0 -1
1456 2 45.71326611826298 10.829378209404402 28.288782208727223 0 0 -1
1486 2 42.7653594376053 15.800533865812238 28.29534914162839 0 0 -1
1488 2 45.66198968806167 14.152697663816047 28.294052550153708 0 0 -1
1490 2 48.55990885149781 12.505665475491451 28.290634797878585 0 0 -1
1524 2 45.62083233033298 17.47676430459806 28.297278299897485 0 0 -1
1526 2 48.51326476209434 15.830700068914153 28.29418203408235 0 0 -1
1566 2 51.36404040577232 17.51414970860332 28.290389221004414 0 0 -1
1354 2 13.890612195830741 18.756411181714643 28.184257661796753 0 0 -1
1378 2 13.830957416170927 22.05911813891767 28.214702663161066 0 0 -1
1380 2 16.75012944864923 20.48034417242732 28.22586163644791 0 0 -1
1382 2 19.666127206423482 18.89121536487357 28.238195980328744 0 0 -1
1406 2 16.6991413114572 23.77989889688035 28.245531548460704 0 0 -1
1408 2 19.616264291690577 22.193237606635854 28.255192359598986 0 0 -1
1436 2 16.654460531583936 27.0757125970011 28.257980833197646 0 0 -1
1438 2 19.57308539311087 25.49122495688482 28.265521794085938 0 0 -1
1410 2 22.52963566233258 20.595672734038544 28.264446689145643 0 0 -1
1412 2 25.43933634023802 18.98648859698143 28.271643811524257 0 0 -1
1440 2 22.487887178580053 23.89700040478759 28.27368867785215 0 0 -1
1442 2 25.398436818913513 22.29177676103273 28.280589143639546 0 0 -1
1444 2 28.30511491685791 20.675482337938163 28.28532719405066 0 0 -1
1446 2 31.20873722163404 19.049067564949215 28.287988975307904 0 0 -1
1472 2 22.451309008596578 27.19484753464827 28.27678484707493 0 0 -1
1474 2 25.363425799354307 25.59370921427583 28.284016576575503 0 0 -1
1476 2 28.270871244225212 23.981851427700338 28.28953293690491 0 0 -1
1478 2 31.174256919859076 22.3597442339169 28.292983217965947 0 0 -1
1514 2 31.14528665754716 25.668043093161764 28.293918815687768 0 0 -1
1480 2 34.0744728638342 20.728698782897446 28.29475099260874 0 0 -1
1482 2 36.97246393915351 19.090505098563284 28.29548109227521 0 0 -1
1516 2 34.04513947994828 24.04143530694809 28.2968899739516 0 0 -1
1518 2 36.94170918304111 22.40711390843362 28.298358437066362 0 0 -1
1520 2 39.83592656226835 20.766938235431812 28.2988415012551 0 0 -1
1556 2 36.91630958763048 25.722493295408423 28.29863905693802 0 0 -1
1558 2 39.80905344833278 24.086181856176097 28.299962695279557 0 0 -1
1522 2 42.72868044000249 19.12284318959123 28.298562897741785 0 0 -1
1560 2 42.699330451686166 22.445256460533614 28.3000598356979 0 0 -1
1562 2 45.58800424848013 20.801622745512343 28.29891328012012 0 0 -1
1564 2 48.47593852262074 19.157225213501672 28.29603283500073 0 0 -1
1602 2 42.675237500512374 25.767640223572364 28.300169069390808 0 0 -1
1604 2 45.561442516277296 24.127159764808148 28.299450808418886 0 0 -1
1606 2 48.44592409337982 22.485171071964853 28.29680059939767 0 0 -1
1608 2 51.32956230695731 20.843672820392428 28.29155962279888 0 0 -1
1648 2 48.42108110806765 25.814350266008518 28.296941382694925 0 0 -1
1650 2 51.30132721823676 24.17522251849919 28.292035532794213 0 0 -1
1652 2 54.18070711008587 22.537880726770922 28.28366117410194 0 0 -1
1694 2 54.153275792301116 25.87349402892921 28.28433427159808 0 0 -1
1470 2 19.53451347117224 28.785911844352153 28.269201638904732 0 0 -1
1506 2 19.498386101932482 32.07800762268033 28.266768008202778 0 0 -1
1508 2 22.417736258645245 30.48969884918446 28.27397797523764 0 0 -1
1510 2 25.33215476244896 28.892579224655623 28.282009248411025 0 0 -1
1512 2 28.241219171683973 27.285390005779696 28.288958532486603 0 0 -1
1546 2 22.384972705358074 33.78205425334468 28.26586944515321 0 0 -1
1548 2 25.30244653035232 32.188667127797935 28.27480303002172 0 0 -1
1550 2 28.214015170756383 30.586204025120093 28.28365112816313 0 0 -1
1552 2 31.119716593988088 28.973957840545406 28.29081400898857 0 0 -1
1590 2 25.27205878290533 35.48229957196864 28.262896356498555 0 0 -1
1592 2 28.18706126973335 33.88441026167184 28.27370869610398 0 0 -1
1594 2 31.095406500122987 32.277453224493996 28.283573254363503 0 0 -1
1636 2 31.07008957291305 35.57850789833621 28.272051279406803 0 0 -1
1554 2 34.020181602013466 27.352316395983205 28.295745375808885 0 0 -1
1596 2 33.99750728001328 30.661221680871925 28.291203996608104 0 0 -1
1598 2 36.89419818040858 29.03649174277718 28.296313280746517 0 0 -1
1600 2 39.7864543708361 27.404707306200425 28.299175805067105 0 0 -1
1638 2 33.97493664720236 33.96800688955293 28.282940559281403 0 0 -1
1640 2 36.87326443269309 32.34891139256328 28.291054277656755 0 0 -1
1642 2 39.76605370761809 30.722306396381992 28.296273833242015 0 0 -1
1682 2 36.85124266510431 35.65953506157915 28.28220780201818 0 0 -1
1684 2 39.745681857288616 34.03874493590129 28.29063719973144 0 0 -1
1644 2 42.654325729504464 29.089793126197307 28.298874258259268 0 0 -1
1646 2 45.539038442967566 27.453184004190366 28.2991013768563 0 0 -1
1686 2 42.634483252759225 32.411490337747495 28.295703515945853 0 0 -1
1688 2 45.51869247821974 30.779476235036185 28.29762033936987 0 0 -1
1690 2 48.39927821613694 29.144537884679885 28.296495313261374 0 0 -1
1692 2 51.27715877385803 27.50855341053384 28.29219469183576 0 0 -1
1728 2 42.613448382243305 35.73247278261064 28.289669474199684 0 0 -1
1730 2 45.498232232990965 34.105802021628485 28.294218334814193 0 0 -1
1732 2 48.37838226611011 32.47549898789457 28.29495702540965 0 0 -1
1734 2 51.25491428372338 30.843402577500974 28.2918950009811 0 0 -1
1776 2 48.35616971660153 35.80697886079757 28.291195943594694 0 0 -1
1778 2 51.2324422625969 34.179497959131105 28.29036768726003 0 0 -1
1736 2 54.128831716625555 29.211397536045958 28.28489033206601 0 0 -1
1738 2 57.00121287801106 27.581481436327508 28.273702279546434 0 0 -1
1780 2 54.10524047665966 32.55126161345523 28.285017017666895 0 0 -1
1782 2 56.975717992001165 30.924139549041918 28.275164530984405 0 0 -1
1822 2 54.08035673158834 35.89274148667276 28.283705692106626 0 0 -1
185 1 23.309034028176136 38.74142222581703 29.920682269733827 0 0 -1
186 1 26.228621219305452 37.15132330570726 29.93103641567722 0 0 -1
207 1 26.194741294671566 40.44459379242174 29.913378851687 0 0 -1
208 1 29.112511402412682 38.85093929435144 29.926863555388472 0 0 -1
228 1 26.154489065087848 43.736168051047414 29.893317286989916 0 0 -1
229 1 29.07714588818921 42.14690919811331 29.906699992019004 0 0 -1
807 3 25.61728224349487 39.32786234272327 6.605010819658299 0 0 0
808 3 28.454589287402854 37.60042888135226 6.593722275733332 0 0 0
829 3 28.49101876451398 40.94596119008272 6.592068952905955 0 0 0
850 3 28.533702730361167 44.293394180479886 6.5922805608646025 0 0 0
1130 3 22.745512402387106 37.711044350205576 6.62001975151919 1 0 0
1167 3 25.657789884050658 42.67773262860993 6.602194605415208 1 0 0
1587 2 22.35186026643673 37.08758666872668 1.6042587256171277 0 0 0
1631 2 25.238547809165905 38.79210611822936 1.5981008276842863 0 0 0
1633 2 28.155265396446303 37.19754078882095 1.6104473639708432 0 0 0
1673 2 25.202627077712904 42.08384549526062 1.5797396596674895 0 0 0
1675 2 28.122819956728286 40.494532918378624 1.5922736422861434 0 0 0
1677 2 31.037686234641544 38.89609619815883 1.6072651424665243 0 0 0
1717 2 28.08458260360932 43.789187814202926 1.5707967679566999 0 0 0
1719 2 31.003554524120823 42.19697520738148 1.5868632565869807 0 0 0
2875 2 23.71627496255496 39.37265887267853 8.29724143442893 0 0 0
2876 2 23.701006723901223 39.36726740142445 4.927925338665759 0 0 0
2877 2 26.552610300134766 37.64045900010428 8.28594177205299 0 0 0
2878 2 26.536743366683417 37.63667086508263 4.91633343103328 0 0 0
2919 2 26.58888740598672 40.98799676165792 8.28341444690227 0 0 0
2920 2 26.57407156268981 40.98487888596162 4.914030439924586 0 0 0
2921 2 29.425787185602957 39.25938190679184 8.272971072681226 0 0 0
2922 2 29.41204416897682 39.257000078289416 4.903324302398222 0 0 0
2961 2 26.630850338870474 44.33605723596682 8.282278770343735 0 0 0
2962 2 26.617885160904862 44.33595991966647 4.913136487257351 0 0 0
2963 2 29.463665958021572 42.60334487850382 8.272519424861882 0 0 0
2964 2 29.450775624603498 42.603377913512595 4.9030377856389995 0 0 0
209 1 32.02337184154962 37.24882524744044 29.940996208832406 0 0 -1
230 1 31.992663491261677 40.550310688819934 29.92309282831212 0 0 -1
231 1 34.90048794654503 38.94527926131281 29.93903449601354 0 0 -1
232 1 37.80079272437115 37.33184873949704 29.952326094943302 0 0 -1
252 1 31.954716650545407 43.85014892105212 29.9001842754283 0 0 -1
253 1 34.86764971904181 42.251330583971495 29.919199959322345 0 0 -1
254 1 37.77226007161215 40.64433005372848 29.936692748144957 0 0 -1
255 1 40.66900496478149 39.029588720934925 29.950717700716368 0 0 -1
275 1 37.735951731311886 43.95595940304489 29.914058437276328 0 0 -1
276 1 40.63727722231944 42.34796670593737 29.932952221988316 0 0 -1
830 3 31.329998946685144 39.22161865733761 6.5825414762238035 0 0 0
831 3 34.17530987461832 37.50552201973944 6.57547688868794 0 0 0
851 3 31.3680033778027 42.56387363076226 6.582858860858468 0 0 0
852 3 34.20904224879168 40.84206467596542 6.57563337993712 0 0 0
853 3 37.057092420113804 39.128267520215815 6.571788157633136 0 0 0
854 3 39.91182447097911 37.42186106837727 6.571303442014262 0 0 0
873 3 34.24958247088333 44.180018131135846 6.578752187220351 0 0 0
874 3 37.09297342133542 42.46008392794865 6.574126187368755 0 0 0
875 3 39.943922155623945 40.74773357355865 6.573500109478128 0 0 0
896 3 39.98310590418748 44.07398542343187 6.578911179259363 0 0 0
1679 2 33.94631470740095 37.28800270775164 1.6215829460770386 0 0 0
1721 2 33.91622569333778 40.595447404762844 1.6042408083255704 0 0 0
1723 2 36.82191519265614 38.984660001672424 1.619937197796975 0 0 0
1725 2 39.720597772110665 37.36566655939495 1.6322885480217795 0 0 0
1765 2 33.879440681171076 43.901619706748804 1.5811368760555171 0 0 0
1767 2 36.789620829177935 42.29784246246247 1.6006393984999898 0 0 0
1769 2 39.69219990449359 40.685369385697676 1.6174995963427592 0 0 0
1811 2 39.65636385293973 44.00543601269768 1.5952640310361188 0 0 0
2923 2 32.267826858650366 37.53892270849828 8.263974312995847 0 0 0
2924 2 32.25710541619524 37.53697661013286 4.894169412549105 0 0 0
2965 2 32.30175838733916 40.877939472424906 8.263703392635138 0 0 0
2966 2 32.29123044792656 40.87778512048931 4.893988026924372 0 0 0
2967 2 35.146050160227254 39.16058936403635 8.257609225734555 0 0 0
2968 2 35.13926241722058 39.16025780190195 4.887758312099408 0 0 0
2969 2 37.996925846442814 37.45094289035369 8.254871603870294 0 0 0
2970 2 37.99414856733311 37.4508533591821 4.8849574632391315 0 0 0
3007 2 32.34213366759175 44.21721243321036 8.266126080619832 0 0 0
3008 2 32.332291026453866 44.22122067293459 4.896504598279404 0 0 0
3009 2 35.18191334104242 42.494478105365324 8.259412089439232 0 0 0
3010 2 35.175418073467355 42.497406288173984 4.889588645968298 0 0 0
3011 2 38.02879840712418 40.77942303783702 8.256380832681044 0 0 0
3012 2 38.02647717300211 40.78164818919541 4.886448351726423 0 0 0
3013 2 40.882895987962186 39.07127207812573 8.256951435943446 0 0 0
3014 2 40.884489766619495 39.07360961923355 4.886973268905935 0 0 0
3053 2 38.067717218564574 44.10734135187419 8.261152630678477 0 0 0
3054 2 38.06579381024476 44.1140848717765 4.891190821900464 0 0 0
3055 2 40.91745153710407 42.39374912869619 8.261146921568455 0 0 0
3056 2 40.919839830218 42.399315747733894 4.891108412758321 0 0 0
256 1 43.55881143585658 37.40829425650563 29.96049672673635 0 0 -1
277 1 43.53050297597136 40.73297511685376 29.947605893918407 0 0 -1
278 1 46.416732306492236 39.112353806102895 29.957349674483737 0 0 -1
279 1 49.29721235090831 37.48777296982101 29.962055709644403 0 0 -1
299 1 43.49420235936283 44.058052874365146 29.926717600917 0 0 -1
300 1 46.38411509543367 42.44373344464505 29.942141133284945 0 0 -1
301 1 49.26707328108478 40.82462133262026 29.95198536019273 0 0 -1
302 1 52.14442935788951 39.202394952469305 29.9561105914084 0 0 -1
322 1 49.22905960861341 44.16303134296794 29.934059197589047 0 0 -1
323 1 52.109310222447164 42.54590078499998 29.944521815277866 0 0 -1
876 3 42.80185483511603 39.0420349699355 6.576170842801426 0 0 0
877 3 45.665835566092184 37.34157429046531 6.580713639519595 0 0 0
897 3 42.83701653795643 42.362252637741506 6.581285631709331 0 0 0
898 3 45.69811363179499 40.65639385541235 6.586656542900238 0 0 0
899 3 48.56530893057683 38.95490079167952 6.593183772219535 0 0 0
900 3 51.43742496211263 37.256155470047474 6.599075708868649 0 0 0
919 3 45.73748135562015 43.9704515818209 6.595105172719616 0 0 0
920 3 48.60154848474387 42.263771849790906 6.602362256391069 0 0 0
921 3 51.47167109203525 40.56069238085324 6.609890184725923 0 0 0
942 3 51.512684313025574 43.863718600904484 6.6215162332613495 0 0 0
1771 2 42.58744735314549 39.065573364559285 1.6302827966927778 0 0 0
1773 2 45.47619670296014 37.440253768367725 1.6385222198875633 0 0 0
1813 2 42.555734668064275 42.39221967478351 1.6132246498075329 0 0 0
1815 2 45.44756490218445 40.77254623951067 1.6264033893819019 0 0 0
1817 2 48.33289336527561 39.148294066262665 1.634378780463975 0 0 0
1819 2 51.212944929230666 37.52135055594616 1.637098745281622 0 0 0
1859 2 45.4110054144042 44.1068491924434 1.6062030954764686 0 0 0
1861 2 48.29959467513534 42.487957957418494 1.6200298708121428 0 0 0
1863 2 51.18176557873154 40.86526898826799 1.6279940006432863 0 0 0
1905 2 51.142490526489944 44.21223973020981 1.6113429999785285 0 0 0
3015 2 43.743729112272796 37.368748062417644 8.26008443039079 0 0 0
3016 2 43.74822229117069 37.37214741340616 4.890091865610926 0 0 0
3057 2 43.77490135430314 40.686200851425454 8.264722561699951 0 0 0
3058 2 43.78085506528842 40.6917310806903 4.894663202068747 0 0 0
3059 2 46.63934166834656 38.98329611223509 8.270327118162836 0 0 0
3060 2 46.647509662066554 38.98995341056485 4.900271201607156 0 0 0
3061 2 49.50968782181232 37.28358228436551 8.276189719653878 0 0 0
3062 2 49.518574280297145 37.29222749526314 4.906151355858845 0 0 0
3099 2 43.81346891984401 44.002221788107455 8.272242688162098 0 0 0
3100 2 43.82024692185034 44.011423098503705 4.902103174216272 0 0 0
3101 2 46.674300192574606 42.29457367792268 8.278217347289267 0 0 0
3102 2 46.683955153335624 42.30345653317314 4.908088221533054 0 0 0
3103 2 49.54226217297861 40.59069457801611 8.285488520207078 0 0 0
3104 2 49.55315578668022 40.60054426127368 4.915392139026805 0 0 0
3145 2 49.582255785350256 43.89599542184875 8.296284896768505 0 0 0
3146 2 49.593968709534494 43.90744737647905 4.926134559961691 0 0 0
303 1 55.01750151529297 37.57876391698789 29.95460561464195 0 0 -1
324 1 54.9842333457085 40.92628707758668 29.94865501353995 0 0 -1
325 1 57.855240487290644 39.30583789818372 29.9467197900818 0 0 -1
326 1 60.723682268856166 37.68616081113455 29.93939383267631 0 0 -1
346 1 54.94360172541835 44.275953641193475 29.93614321711921 0 0 -1
347 1 57.81710829661664 42.6586771929918 29.94130105506641 0 0 -1
348 1 60.68722939346978 41.04086835502667 29.940195330430324 0 0 -1
369 1 60.644342992290134 44.39750568172046 29.93629638929911 0 0 -1
922 3 54.34658117404217 38.85961874620961 6.615788210789022 0 0 0
923 3 57.22506443069826 37.158965620601286 6.6188173840115 0 0 0
943 3 54.38520996384507 42.15886848129907 6.628635930322737 0 0 0
944 3 57.26227189962339 40.45545096239667 6.633131368525352 0 0 0
945 3 60.142569125062295 38.75191422280392 6.633948797824713 0 0 0
965 3 57.305557780583335 43.75035716631019 6.645828270001859 0 0 0
966 3 60.18383593994478 42.045028770743855 6.6474308281111405 0 0 0
1865 2 54.0588066762182 39.240640515904644 1.6300604516213946 0 0 0
1867 2 56.931904977507685 37.61580742102624 1.6264409168066234 0 0 0
1907 2 54.02203289571165 42.59118782253536 1.6199689508363306 0 0 0
1909 2 56.89667691326133 40.96874131835809 1.6221792425955606 0 0 0
1911 2 59.76760811758537 39.34660600873555 1.6184729625444798 0 0 0
1913 2 62.6358745472033 37.72636057860342 1.6098623827200527 0 0 0
1953 2 56.8537169774171 44.324914929463866 1.6119545895948801 0 0 0
1955 2 59.726990872973595 42.70411514148028 1.6154700630104604 0 0 0
1957 2 62.59693386751069 41.083936959656455 1.6131124576090055 0 0 0
1999 2 62.55142850056629 44.44423120205994 1.6121475518207462 0 0 0
3105 2 52.41608547826314 38.889189589265726 8.292068697552196 0 0 0
3106 2 52.42661219702573 38.9008750743298 4.922025291635365 0 0 0
3107 2 55.29436655098925 37.18876058298541 8.29644739076197 0 0 0
3108 2 55.303317701640644 37.20255801193312 4.926490310835582 0 0 0
3147 2 52.45343487809397 42.19091303082175 8.303981498808108 0 0 0
3148 2 52.46511429709071 42.20286547155384 4.933903890164806 0 0 0
3149 2 55.33026427840423 40.487559906655974 8.309965727809791 0 0 0
3150 2 55.34031171838192 40.500864599520064 4.9399914996271965 0 0 0
3151 2 58.21117350138675 38.784703831831166 8.312821006440831 0 0 0
3152 2 58.21855153675756 38.79955250993301 4.942998654750305 0 0 0
3153 2 61.094564622612 37.08113986472469 8.312038065005696 0 0 0
3154 2 61.09898910167478 37.097052429566745 4.942431581070666 0 0 0
3191 2 55.37313057669073 43.78488519859567 8.322723102328858 0 0 0
3192 2 55.3827732164071 43.79679177830461 4.952762409822595 0 0 0
3193 2 58.25208321768437 42.08000425817464 8.326555092138868 0 0 0
3194 2 58.25889967996899 42.09254312979064 4.956760549793378 0 0 0
3195 2 61.13449700611948 40.37518018521094 8.326531421752312 0 0 0
3196 2 61.13781753852619 40.38855057827858 4.956962677222123 0 0 0
3237 2 61.180235796595966 43.66859377503398 8.33789388914134 0 0 0
3238 2 61.18135200354372 43.67762989052537 4.968392185627026 0 0 0
349 1 63.55541713371339 39.424049574728734 29.934008447834096 0 0 -1
370 1 63.515067724614184 42.78122619158694 29.93735167055799 0 0 -1
393 1 66.34091046638869 44.52323601792217 29.939413822650987 0 0 -1
2414 2 79.08527592508483 71.43758835977803 28.234149063678753 0 0 -1
967 3 63.06486477553169 40.33923297291825 6.644868697862311 0 0 0
988 3 63.109910595121086 43.630755578888184 6.654992202961012 0 0 0
2001 2 65.42207766157811 42.82493239672443 1.6124037624138925 0 0 0
3239 2 64.0625024939849 41.96252236806389 8.334106170172138 0 0 0
3240 2 64.06003615881548 41.971885121516806 4.96487745696687 0 0 0
251 1 29.033694147494735 45.44136035569641 29.882975637101023 0 0 -1
272 1 28.97972657672129 48.73499674698265 29.85594933846139 0 0 -1
1198 3 28.584821896140173 47.642187405912686 6.596757312803014 1 0 0
1761 2 28.038547369499604 47.08217500379896 1.5465613498197412 0 0 0
1763 2 30.962087375957076 45.49616836837716 1.5617740031769172 0 0 0
1805 2 30.91104553259716 48.794280224398165 1.531811403781507 0 0 0
1849 2 30.84828759480625 52.092029622655296 1.4970148793996456 0 0 0
3005 2 29.50874141716141 45.947510235634304 8.275356878985134 0 0 0
3006 2 29.497468040948675 45.95241374151792 4.906044778757515 0 0 0
3047 2 29.563191173942165 49.291388654892465 8.283823570852281 0 0 0
3048 2 29.554484024598136 49.30324861204311 4.914672334508431 0 0 0
273 1 31.906839217801288 47.148795186391276 29.87182582955706 0 0 -1
274 1 34.82582240405591 45.556190319556485 29.8926439961352 0 0 -1
295 1 31.84653760589234 50.4469432207549 29.837712384269068 0 0 -1
296 1 34.772162121753524 48.86027993296187 29.858265953005343 0 0 -1
297 1 37.68883197272261 47.26692425068912 29.882559725254023 0 0 -1
298 1 40.59607906113894 45.66611070862039 29.906338796727958 0 0 -1
316 1 31.772066877630852 53.74545438265576 29.798155765237702 0 0 -1
317 1 34.70433629334917 52.16418594379611 29.815663778798783 0 0 -1
318 1 37.62810432760298 50.57751342958095 29.84086217492273 0 0 -1
319 1 40.54234697345688 48.98405982241881 29.868699217821128 0 0 -1
340 1 37.5519006698578 53.888076475000716 29.78918006376954 0 0 -1
341 1 40.47360920340761 52.30183513160764 29.819105235901098 0 0 -1
872 3 31.413759232343594 45.90768119716261 6.586888068195043 0 0 0
893 3 31.469585716444357 49.25244962337899 6.597035918849815 0 0 0
894 3 34.2994701195741 47.51904347718323 6.587302873251142 0 0 0
895 3 37.13716935731869 45.792748684508226 6.580846719165962 0 0 0
915 3 34.361064896268026 50.85855186748701 6.603468077391007 0 0 0
916 3 37.19233277180848 49.1259557228288 6.594347456159017 0 0 0
917 3 40.032144569576815 47.4005152347921 6.589744286824866 0 0 0
936 3 34.43595382289922 54.197737009363415 6.6280679750391895 0 0 0
937 3 37.26063810687876 52.4592339406394 6.616293245148704 0 0 0
938 3 40.09360453249125 50.72716126702653 6.608044210129355 0 0 0
959 3 40.16919307718008 54.053690724336924 6.6346940571754045 0 0 0
1223 3 31.537390691072183 52.597285892011016 6.614907826143597 1 0 0
1807 2 33.83352218782662 47.20683954717116 1.5513247560864332 0 0 0
1809 2 36.748904643688284 45.61060935080545 1.573782229979539 0 0 0
1851 2 33.77603131072527 50.51145276261339 1.5141402518149487 0 0 0
1853 2 36.69704397703263 48.92303814107576 1.5378616500871307 0 0 0
1855 2 39.610181799723414 47.32581757621802 1.5633692593231832 0 0 0
1893 2 33.70497325285875 53.81564542411105 1.4699039802911587 0 0 0
1895 2 36.63159237014491 52.23496660495956 1.4922889478449413 0 0 0
1897 2 39.55082200909044 50.646103840177794 1.5202477400908787 0 0 0
1941 2 39.47614910293888 53.96539604865988 1.4661273627596123 0 0 0
3049 2 32.39137120773294 47.55629157123128 8.273671660604888 0 0 0
3050 2 32.38284747645346 47.56686767489851 4.904148432174721 0 0 0
3051 2 35.22585840099252 45.82805425200821 8.265498075735657 0 0 0
3052 2 35.21989753276441 45.83670362344775 4.895701407828243 0 0 0
3091 2 32.45168223896867 50.894923282726744 8.28844245943448 0 0 0
3092 2 32.44536034267111 50.913602134342014 4.91903751193933 0 0 0
3093 2 35.280446105801346 49.161067944942864 8.278254361825844 0 0 0
3094 2 35.27540050288605 49.17755044434749 4.908507118409506 0 0 0
3095 2 38.11647245502554 47.43443158680699 8.271497512285862 0 0 0
3096 2 38.114827511662554 47.448002869815866 4.901519953319152 0 0 0
3097 2 40.9607207515431 45.715081427133505 8.269547533240749 0 0 0
3098 2 40.963426941117156 45.725965536966285 4.899446666982281 0 0 0
3133 2 32.524551274014755 54.23319094374196 8.311179568360838 0 0 0
3134 2 32.5215790488908 54.259611731855074 4.941920763623223 0 0 0
3135 2 35.347726134482144 52.49363033258684 8.299270139805138 0 0 0
3136 2 35.34426924885284 52.518683652585956 4.929633078052852 0 0 0
3137 2 38.177592082975785 50.76077776059132 8.289486815398018 0 0 0
3138 2 38.17623227773109 50.78274223891956 4.919550709825706 0 0 0
3139 2 41.01554219916607 49.035289968355535 8.28423570607259 0 0 0
3140 2 41.01796434860579 49.0534032645676 4.914117294915085 0 0 0
3179 2 38.25268033458879 54.0869792098355 8.315909978954567 0 0 0
3180 2 38.25195462680208 54.1170736036917 4.946120727103948 0 0 0
3181 2 41.08414021263854 52.35491090246678 8.306697885102738 0 0 0
3182 2 41.085822878299155 52.381077010428164 4.9366579081887005 0 0 0
320 1 43.44681671313862 47.383416830123714 29.89510177766123 0 0 -1
321 1 46.34202477960895 45.776036732407704 29.91737825863252 0 0 -1
342 1 43.385500989492535 50.7088239610388 29.850817200284734 0 0 -1
343 1 46.287516548662836 49.1088749226649 29.880435502103275 0 0 -1
344 1 49.18033951642856 47.502585406333296 29.905375834480882 0 0 -1
345 1 52.065199359872395 45.891118736157765 29.924160815461516 0 0 -1
363 1 43.30839581873606 54.033921810365406 29.794062477555347 0 0 -1
364 1 46.21821466406322 52.44162376799216 29.830230128764246 0 0 -1
365 1 49.11832321119596 50.8425233950501 29.863921397268477 0 0 -1
366 1 52.00953874722286 49.23728236796153 29.89251732332142 0 0 -1
387 1 49.041338116383855 54.18182712264359 29.810013544615007 0 0 -1
388 1 51.94027745708189 52.58325294573317 29.848623064351166 0 0 -1
918 3 42.88068987202873 45.68226889739021 6.5902856486471 0 0 0
939 3 42.93561694909449 49.002140676334186 6.605089037252704 0 0 0
940 3 45.786658965170986 47.28391970532475 6.607438708403067 0 0 0
941 3 48.64605573402243 45.5715617153013 6.613663533501357 0 0 0
960 3 43.00402209705305 52.32195750066719 6.6271540073038935 0 0 0
961 3 45.84814388368212 50.597108709275645 6.625094813600203 0 0 0
962 3 48.701371688939346 48.87868831452678 6.62800735960162 0 0 0
963 3 51.56287987109475 47.165676887834515 6.63406248566786 0 0 0
982 3 45.92360887419655 53.910410629327785 6.648848810286953 0 0 0
983 3 48.769569433536915 52.18575287638896 6.646322968858006 0 0 0
984 3 51.624478216040664 50.46725934656925 6.648038613200191 0 0 0
1005 3 51.69901564123684 53.769317575927815 6.664099448006252 0 0 0
1857 2 42.51480049208975 45.72003831476886 1.5869293809033898 0 0 0
1899 2 42.4615741922873 49.04852435160839 1.549026465549504 0 0 0
1901 2 45.36341999640932 47.44274345348903 1.5750942745473833 0 0 0
1903 2 48.25672446933586 45.83005937466782 1.5962450281445342 0 0 0
1943 2 42.393406650006966 52.37655626633902 1.4985402464974413 0 0 0
1945 2 45.30183674612669 50.77905763027728 1.5311050928802559 0 0 0
1947 2 48.20123873387891 49.17358126818 1.5604367234354255 0 0 0
1949 2 51.09220675054182 47.561515231048574 1.5843521537140703 0 0 0
1987 2 45.22413444416622 54.1138744419613 1.4745142814238432 0 0 0
1989 2 48.13056297995965 52.51660122108662 1.5115973013464001 0 0 0
1991 2 51.02817706606881 50.911396873676395 1.5451243534455514 0 0 0
2035 2 50.9485768881271 54.259352747912565 1.4940554345313908 0 0 0
3141 2 43.862391876361585 47.31676759957449 8.284323383056321 0 0 0
3142 2 43.86896799564889 47.3313865595487 4.914126316953032 0 0 0
3143 2 46.71818338515873 45.604135616130804 8.28896463211929 0 0 0
3144 2 46.728112377266235 45.616426702476915 4.9187682815614195 0 0 0
3183 2 43.9243140006578 50.63025139970488 8.302585369216402 0 0 0
3184 2 43.92952580435218 50.65163572481705 4.932410853552189 0 0 0
3185 2 46.773827592425064 48.91225991475446 8.303818599515461 0 0 0
3186 2 46.78238954388185 48.92923722707102 4.9336089319483145 0 0 0
3187 2 49.632483842214704 47.19966622411112 8.30910931612379 0 0 0
3188 2 49.6431867221375 47.21345744728703 4.938938974801211 0 0 0
3225 2 44.00087823595123 53.943695309352705 8.327767340029835 0 0 0
3226 2 44.00382925384735 53.97183971305729 4.957754810181689 0 0 0
3227 2 46.8434239193752 52.219768029144554 8.323830771976102 0 0 0
3228 2 46.8489560773485 52.24218371860619 4.953724610303389 0 0 0
3229 2 49.695428735034106 50.50230156438322 8.324737942930783 0 0 0
3230 2 49.70297742826637 50.519273336074335 4.954634227618124 0 0 0
3271 2 49.77259392142703 53.80503574357495 8.343769750961261 0 0 0
3272 2 49.77511862869194 53.82551751695055 4.973851174241964 0 0 0
367 1 54.89320213980753 47.62706008357775 29.914429772758364 0 0 -1
368 1 57.77091904590609 46.01329051405141 29.928973138455184 0 0 -1
389 1 54.8308784333602 50.97848422732804 29.881690969875965 0 0 -1
390 1 57.714565075583764 49.368646896546444 29.907437448928377 0 0 -1
391 1 60.593010560399165 47.75514607501687 29.925197306839802 0 0 -1
411 1 57.64631198160539 52.72337641972583 29.875634531049922 0 0 -1
412 1 60.53138782673125 51.11254079451325 29.90495910233043 0 0 -1
964 3 54.43142162254688 45.45672978866868 6.64079620543079 0 0 0
985 3 54.48738905776162 48.753899747150065 6.652021434412445 0 0 0
986 3 57.356951575347395 47.044351820741205 6.655835026966188 0 0 0
987 3 60.231636337544245 45.33714170844007 6.657290146346044 0 0 0
1006 3 54.55492852500825 52.05129716297559 6.662762643606616 0 0 0
1007 3 57.41832993883216 50.33833383230659 6.663009340703636 0 0 0
1008 3 60.28779100660847 48.62909552727005 6.662679813621937 0 0 0
1028 3 57.49108094156474 53.63331980128638 6.668334934784841 0 0 0
1029 3 60.353890174522334 51.92187113910419 6.664201053220998 0 0 0
1951 2 53.975903652149114 45.944657411531786 1.601663413161596 0 0 0
1993 2 53.91776197613148 49.29971255667478 1.5727864793021107 0 0 0
1995 2 56.80057289926328 47.683364100518766 1.5932739532535514 0 0 0
1997 2 59.67801224515904 46.06426318500437 1.6062187537977488 0 0 0
2037 2 53.845460397542794 52.65407225982792 1.5324626175498008 0 0 0
2039 2 56.73505112333021 51.04221736233402 1.5644126226923325 0 0 0
2041 2 59.61858422236155 49.425614571866646 1.5884929317784353 0 0 0
2043 2 62.49739767826134 47.80618881019016 1.6045013633279683 0 0 0
2083 2 59.54698673096337 52.785951154879285 1.561196657289206 0 0 0
2085 2 62.43302220993804 51.16803073014984 1.5882122260593527 0 0 0
3189 2 52.49938195897289 45.49101126373613 8.31622858750793 0 0 0
3190 2 52.510456530384474 45.50316616254384 4.946145153636164 0 0 0
3231 2 52.55645043264164 48.78989743417371 8.328903901101414 0 0 0
3232 2 52.56465054002963 48.80264712220233 4.9588772084828685 0 0 0
3233 2 55.42535766210504 47.08106183974253 8.333980466665665 0 0 0
3234 2 55.43252156971755 47.091216332493126 4.964083921584353 0 0 0
3235 2 58.300559296127716 45.37438575548959 8.337579024327445 0 0 0
3236 2 58.305168005308026 45.383462660568 4.967855648074744 0 0 0
3273 2 52.62655332692367 52.08837083646412 8.34252785169086 0 0 0
3274 2 52.62962066935054 52.10239316076122 4.972640446038712 0 0 0
3275 2 55.48899472981654 50.37660422967021 8.343719838887766 0 0 0
3276 2 55.491443257066436 50.38543758826181 4.973939106258944 0 0 0
3277 2 58.35859814071747 48.668189661590326 8.34515059593715 0 0 0
3278 2 58.35914071873389 48.673643522037125 4.975531713443115 0 0 0
3279 2 61.23362729770095 46.96167462030777 8.344714420661008 0 0 0
3280 2 61.231288960036935 46.96553069183429 4.975302659794282 0 0 0
3317 2 55.565268053885 53.672360444954485 8.352715588752584 0 0 0
3318 2 55.56123751442767 53.680878008158516 4.983072851726321 0 0 0
3319 2 58.42770960709409 51.96189399295243 8.349729411087685 0 0 0
3320 2 58.422614044165 51.96476092028639 4.9802201838069236 0 0 0
3321 2 61.29627341585713 50.254659865627666 8.346873708289593 0 0 0
3322 2 61.28941408620098 50.2539727788609 4.977553151217002 0 0 0
3365 2 61.36931307208941 53.54798705247227 8.34577404473394 0 0 0
3366 2 61.357424990827305 53.54468480052706 4.976540747365032 0 0 0
392 1 63.46791733288018 46.13950362142218 29.93539906414709 0 0 -1
413 1 63.41209863413646 49.49777333916513 29.925681436292116 0 0 -1
414 1 66.29012007447919 47.88066922696669 29.938636786894932 0 0 -1
435 1 63.345942380183715 52.8547730194194 29.906728926772807 0 0 -1
436 1 66.23042258449726 51.23710977154697 29.92925663692298 0 0 -1
437 1 69.11307852582597 49.61704668662125 29.94416150066919 0 0 -1
458 1 69.04985109763781 52.96956149830848 29.933522201296395 0 0 -1
1009 3 63.16172389476152 46.922085175980044 6.659951134484585 0 0 0
1010 3 66.03855885311087 45.21578503498598 6.6538555182705466 0 0 0
1030 3 63.2219593022559 50.214127835860246 6.659750152367261 0 0 0
1031 3 66.09371213976381 48.50852509878567 6.653557048176457 0 0 0
1052 3 63.29201187621536 53.50780920769122 6.656052183535025 0 0 0
1053 3 66.15735728717205 51.80278618421767 6.648859961349836 0 0 0
1054 3 69.02553380346981 50.09970212334815 6.6410139789540725 0 0 0
1075 3 69.09211939279731 53.3979964247981 6.634436420965426 0 0 0
2045 2 65.37281031184742 46.18577801840016 1.6133342667517252 0 0 0
2087 2 65.31501711906843 49.54708405256817 1.6067635618783815 0 0 0
2089 2 68.19425167159474 47.925008055851315 1.6181651749544885 0 0 0
2131 2 65.24693894611875 52.90690155517338 1.5912005983501971 0 0 0
2133 2 68.13360048800405 51.2831754149362 1.6111353211875044 0 0 0
2177 2 70.95476874038934 53.01110782333097 1.6152113278281797 0 0 0
3281 2 64.11216635064048 45.25576616796123 8.340992837217948 0 0 0
3282 2 64.10663843800685 45.25934923943122 4.971829492126814 0 0 0
3323 2 64.16920043931874 48.549132735271954 8.342443243094985 0 0 0
3324 2 64.16020510994095 48.546985431701394 4.973351611347541 0 0 0
3325 2 67.04460332494907 46.84399890813952 8.335432999776454 0 0 0
3326 2 67.03373035751892 46.84198451194253 4.966597541482231 0 0 0
3367 2 64.23501293759674 51.84277701886352 8.339384119906333 0 0 0
3368 2 64.22250826427756 51.83658610668197 4.970366149469888 0 0 0
3369 2 67.10401755164042 50.13911343438829 8.33228783442891 0 0 0
3370 2 67.09091696341135 50.13227422536608 4.963507088501981 0 0 0
3411 2 67.17191288588022 53.43488295311673 8.326053195979865 0 0 0
3412 2 67.15735670893855 53.42563812084878 4.957340347100155 0 0 0
3413 2 70.03564787806403 51.73387986958126 8.31836812766237 0 0 0
3414 2 70.02215376200967 51.725162173976265 4.949868622170842 0 0 0
339 1 34.62122268518286 55.46857410529367 29.766033554458385 0 0 -1
360 1 34.52356918795205 58.77406556806632 29.71304740560545 0 0 -1
361 1 37.46003706756492 57.19898688689657 29.730429291666756 0 0 -1
362 1 40.38877166576664 55.619444171459165 29.75918502619069 0 0 -1
383 1 37.3545950236918 60.51059411965149 29.670845993616418 0 0 -1
384 1 40.28886843368121 58.936945925457714 29.694218690881343 0 0 -1
405 1 40.177376077181876 62.254440393648366 29.632806475119857 0 0 -1
958 3 37.34305821271693 55.79199675537681 6.646448428940907 0 0 0
979 3 37.438704815143446 59.1236758924988 6.681674028860323 0 0 0
980 3 40.25903874021914 57.37983147600806 6.668232110063515 0 0 0
1001 3 40.36113770386851 60.70536017577914 6.7041130782861575 0 0 0
1242 3 34.5242465878505 57.535717968687564 6.659468969112192 1 0 0
1255 3 37.544657474396935 62.45391566214778 6.716080777683293 1 0 0
1937 2 33.61949779373614 57.11926254261327 1.4208207851812031 0 0 0
1939 2 36.551042963179114 55.54583406355917 1.4384657573042952 0 0 0
1981 2 36.455668872708365 58.85478425469752 1.3807356271003357 0 0 0
1983 2 39.38556093178905 57.28234864690625 1.4042607020494506 0 0 0
2025 2 36.34811206221516 62.1612101793907 1.3262694256948218 0 0 0
2027 2 39.280935200984565 60.59576774884545 1.3415400547461045 0 0 0
3177 2 35.42857868584092 55.82630412801538 8.328200354518268 0 0 0
3178 2 35.42770982717995 55.85827003963539 4.958757928406811 0 0 0
3219 2 35.52219977974107 59.15991304921811 8.361918396507415 0 0 0
3220 2 35.52492335134838 59.19432068954361 4.992727746190911 0 0 0
3221 2 38.3417481490964 57.41411324790538 8.349142066556674 0 0 0
3222 2 38.34240515970897 57.44929107575525 4.979650163338134 0 0 0
3223 2 41.16739401618641 55.67507457601707 8.336729230509272 0 0 0
3224 2 41.16833629050747 55.70791492528614 4.966926330896361 0 0 0
3263 2 38.44284540727059 60.74324518083259 8.384597462865372 0 0 0
3264 2 38.445572603696306 60.77780711513661 5.015464158563356 0 0 0
3265 2 41.26424227201697 58.997264175868864 8.371412129004538 0 0 0
3266 2 41.264926594409154 59.03248109604958 5.002019219203681 0 0 0
3307 2 41.37157529857913 62.32241033855652 8.405197931864015 0 0 0
3308 2 41.37238591221397 62.35383513998455 5.03615420218711 0 0 0
385 1 43.21546373034863 57.35835823206465 29.728538923932362 0 0 -1
386 1 46.13314054049395 55.77354056048114 29.768705459053063 0 0 -1
406 1 43.10909155911762 60.68193794042666 29.66193269852134 0 0 -1
407 1 46.033472456762624 59.10399825777731 29.701807188126345 0 0 -1
408 1 48.94944219998349 57.519464385271775 29.747550726393115 0 0 -1
409 1 51.856573090844705 55.92772609395867 29.7943921919886 0 0 -1
429 1 45.922656110349266 62.432726756957706 29.638766046979974 0 0 -1
430 1 48.84484237371335 60.85475138220874 29.684154031875842 0 0 -1
431 1 51.75939682522426 59.26961987592879 29.735313053607193 0 0 -1
452 1 51.651622881788285 62.60843262985246 29.67970613073545 0 0 -1
981 3 43.086919137000905 55.641797282221816 6.656433435998397 0 0 0
1002 3 43.183450714278614 58.961718057457084 6.690273472754793 0 0 0
1003 3 46.01323254618684 57.224206490848644 6.677782198553139 0 0 0
1004 3 48.85163735847917 55.49342248620377 6.668836523365026 0 0 0
1023 3 43.290544402590086 62.281729204800875 6.723287106549403 0 0 0
1024 3 46.11514133264862 60.53877069528404 6.70846801666463 0 0 0
1025 3 48.946862686209236 58.80225924609803 6.694144852879461 0 0 0
1026 3 51.78673423615223 57.07266117651995 6.682350905248833 0 0 0
1047 3 49.05259534578291 62.11254799564079 6.718713627160157 0 0 0
1048 3 51.886179696267526 60.37784109467929 6.701408097279637 0 0 0
1985 2 42.30886074756263 55.7024240475014 1.4372489550194243 0 0 0
2029 2 42.20872506119149 59.02427637603454 1.3707688544976686 0 0 0
2031 2 45.130027508147144 57.44488490535966 1.409181749505374 0 0 0
2033 2 48.04351408444981 55.85657991791605 1.451765427706814 0 0 0
2071 2 42.09672439855934 62.34120182467284 1.308152959658493 0 0 0
2073 2 45.02203939999932 60.770293660671996 1.3429494044551127 0 0 0
2075 2 47.94130400588078 59.19108561095305 1.3868706445045784 0 0 0
2077 2 50.853459054733776 57.60262383875586 1.4349793864017522 0 0 0
2119 2 47.82784148358168 62.519012689979064 1.3259202614605132 0 0 0
2121 2 50.74533593025784 60.939238048142535 1.3751542379858532 0 0 0
3267 2 44.09200808959575 57.258678847150506 8.358657408606408 0 0 0
3268 2 44.092452773343965 57.29116075504758 4.988986269478838 0 0 0
3269 2 46.92779263689443 55.528086372964374 8.34903006793235 0 0 0
3270 2 46.92915784209873 55.55520058614074 4.979176054732989 0 0 0
3309 2 44.19547930795481 60.57677428069146 8.391395026993685 0 0 0
3310 2 44.19375350903423 60.60859825605227 5.022139372726018 0 0 0
3311 2 47.02576366416132 58.83899414031736 8.377501994880017 0 0 0
3312 2 47.02273301083824 58.867754479724404 5.008000378481302 0 0 0
3313 2 49.86382110049998 57.10949433509928 8.36586463120241 0 0 0
3314 2 49.86034377134014 57.1323882921736 4.996203359128216 0 0 0
3355 2 47.13417417460417 62.153741525114995 8.405120094363824 0 0 0
3356 2 47.12723343049946 62.179224220867425 5.035943590751925 0 0 0
3357 2 49.96699517790177 60.41734112838178 8.388937132199068 0 0 0
3358 2 49.9576793717209 60.43952139354878 5.019558080605006 0 0 0
410 1 54.75519619146915 54.32881678624018 29.838151058554054 0 0 -1
432 1 54.666056665315914 57.6767118571671 29.78710366182703 0 0 -1
433 1 57.56526899435099 56.076037725136636 29.834882167465373 0 0 -1
434 1 60.458085080956906 54.46829497027732 29.87529380084797 0 0 -1
453 1 54.56512482150246 61.02128786289584 29.73500419694545 0 0 -1
454 1 57.471966722762026 59.42548984603292 29.78954055322835 0 0 -1
455 1 60.37270742968426 57.821166807987574 29.83857197662055 0 0 -1
476 1 57.3686634145629 62.77113104564723 29.746555532356588 0 0 -1
477 1 60.27641976094515 61.170315126283334 29.800062793819656 0 0 -1
1027 3 54.63498962152879 55.349888549530085 6.673908345068954 0 0 0
1049 3 54.72716991279 58.65044544463302 6.685863361731923 0 0 0
1050 3 57.57564973286816 56.930225286229266 6.673317903269729 0 0 0
1051 3 60.430975248305415 55.21643163449661 6.663729906006523 0 0 0
1070 3 54.829494109864356 61.953375821563874 6.697424415937566 0 0 0
1071 3 57.671116530887986 60.22966455340168 6.678623912810309 0 0 0
1072 3 60.51905230521852 58.51352643597188 6.663210620414792 0 0 0
1094 3 60.616682381549424 61.81357272738624 6.663117836132242 0 0 0
2079 2 53.75814593383902 56.00492669881512 1.482534908915089 0 0 0
2081 2 56.655716542337444 54.39887182189111 1.5255395991006853 0 0 0
2123 2 53.65696879639034 59.34979462941913 1.4281395018239451 0 0 0
2125 2 56.56255964420939 57.750648582374495 1.4796595756373976 0 0 0
2127 2 59.46234960770032 56.142666391925594 1.5254412440094354 0 0 0
2129 2 62.35687555740172 54.527424811518905 1.5628770245733108 0 0 0
2165 2 53.54523747872733 62.687470306948384 1.3769876825567375 0 0 0
2167 2 56.45751009181788 61.09563847065301 1.4326996291220842 0 0 0
2169 2 59.36530874607527 59.49347581090356 1.4852116030658833 0 0 0
2171 2 62.2685271012864 57.88199617760086 1.5306516679477666 0 0 0
2213 2 59.258419436116185 62.83711270545306 1.4469467880922289 0 0 0
2215 2 62.16925055306332 61.22999284961112 1.4964844954628473 0 0 0
3315 2 52.710358185360874 55.38770007502504 8.357663123374643 0 0 0
3316 2 52.70673864757944 55.403317013361175 4.987962592641557 0 0 0
3359 2 52.80683505723691 58.68950056464683 8.374067316357282 0 0 0
3360 2 52.79617993209504 58.705658376632684 5.004565901124313 0 0 0
3361 2 55.654110322703126 56.96961475584508 8.36195267615213 0 0 0
3362 2 55.64289062758908 56.978453212367846 4.992449453921797 0 0 0
3363 2 58.50856054615465 55.25634585812975 8.352814259417777 0 0 0
3364 2 58.497065822849095 55.258257802575834 4.983410225328049 0 0 0
3401 2 52.91330372629194 61.995175855155594 8.389835611577347 0 0 0
3402 2 52.89639773569925 62.008969874724755 5.020560986671258 0 0 0
3403 2 55.753927079497025 60.26990993622585 8.371460201421709 0 0 0
3404 2 55.73601709344344 60.27814034242184 5.0021201135820235 0 0 0
3405 2 58.60060876950181 58.5528782832931 8.355863814366968 0 0 0
3406 2 58.58300516477645 58.554694060326284 4.986582382317331 0 0 0
3407 2 61.4530844803691 56.842607061731215 8.343608283784416 0 0 0
3408 2 61.43644706952075 56.838733545778304 4.974479450169795 0 0 0
3449 2 58.70190825640582 61.85298151804816 8.358915011222276 0 0 0
3450 2 58.67932676058733 61.85369524100511 4.989785750416712 0 0 0
3451 2 61.54671389256275 60.13995974233892 8.341859465491634 0 0 0
3452 2 61.52628614571044 60.13616460017587 4.972859679316648 0 0 0
456 1 63.26838269230939 56.20929481028488 29.879214701760645 0 0 -1
457 1 66.1603004238646 54.59146800874685 29.91062835155272 0 0 -1
478 1 63.17959496642392 59.56039976216347 29.84668006152988 0 0 -1
479 1 66.07911891203133 57.94283024722459 29.884699447029735 0 0 -1
480 1 68.97608925351399 56.31954316425062 29.91423893670668 0 0 -1
481 1 71.8716421762366 54.692644085636395 29.936441442977543 0 0 -1
497 1 63.081431420206656 62.907535756978504 29.81516839546031 0 0 -1
498 1 65.9877531946669 61.290569359712315 29.856212274999727 0 0 -1
499 1 68.8917751300593 59.666389919242135 29.889677935768916 0 0 -1
500 1 71.79435998368157 58.037228309698115 29.916385449182112 0 0 -1
517 1 68.79857020195514 63.009751562894266 29.865508405271427 0 0 -1
518 1 71.7072965391167 61.378916942643016 29.893837174238918 0 0 -1
1073 3 63.37261042415632 56.803922558860684 6.651361263353408 0 0 0
1074 3 66.23071926004651 55.099328630614636 6.642194501953897 0 0 0
1095 3 63.46326093748988 60.102994965086936 6.6474333920381214 0 0 0
1096 3 66.3141208890857 58.39870899052445 6.63598071792046 0 0 0
1097 3 69.1683277132712 56.69891625641302 6.627800656375661 0 0 0
1098 3 72.0248334759659 55.00173190547507 6.621602229298329 0 0 0
1116 3 66.40649326860283 61.70118530325965 6.631128139803935 0 0 0
1117 3 69.25396147114387 60.00272619308436 6.622680584965241 0 0 0
1118 3 72.1036338155405 58.30786334481005 6.617536096667332 0 0 0
1137 3 72.1910830237365 61.616546954866465 6.615094905464873 0 0 0
2173 2 65.16736275709917 56.26299682566134 1.567249445603987 0 0 0
2175 2 68.06243644753044 54.63862788374024 1.595046243563887 0 0 0
2217 2 65.07640477221788 59.61340612636496 1.5383043532632288 0 0 0
2219 2 67.97994084589338 57.989426211366066 1.5718303570515597 0 0 0
2221 2 70.88047226382133 56.360389943901566 1.597806495786522 0 0 0
2255 2 64.97608410611339 62.95701760029701 1.5101459598584224 0 0 0
2257 2 67.88700848231154 61.33417179608395 1.546106121868429 0 0 0
2259 2 70.79514326771624 59.704623860832186 1.5754117551800233 0 0 0
2295 2 70.70063166864125 63.04308596627614 1.5534940765758023 0 0 0
3409 2 64.3105812269636 55.1372369258005 8.3340796803127 0 0 0
3410 2 64.29502739014949 55.12953212038915 4.965150361138708 0 0 0
3453 2 64.39599926794517 58.43366233668218 8.328854286264061 0 0 0
3454 2 64.37829659679699 58.42629169059009 4.960037861766718 0 0 0
3455 2 67.2491473353907 56.732067067986264 8.319266278833375 0 0 0
3456 2 67.2341140877412 56.72285282293584 4.950643049358901 0 0 0
3457 2 70.10519340704316 55.03319655568754 8.311899085065303 0 0 0
3458 2 70.09252587025878 55.0240786236629 4.943459434493562 0 0 0
3493 2 64.49006231176682 61.73348015467924 8.324600242672624 0 0 0
3494 2 64.4712916577493 61.72644033786704 4.955893574639325 0 0 0
3495 2 67.33551792819908 60.03191836873467 8.3136432947231 0 0 0
3496 2 67.32097819398354 60.02376374733523 4.945115887615997 0 0 0
3497 2 70.18386726630735 58.33455001744714 8.306410758941874 0 0 0
3498 2 70.17303255220546 58.32664678326376 4.9380459087604835 0 0 0
3535 2 70.27103138143434 61.63908272920069 8.302449297914883 0 0 0
3536 2 70.2626533638877 61.63223196292207 4.934129486115246 0 0 0
519 1 74.6155804621486 59.74427638599834 29.91762103284615 0 0 -1
535 1 74.52611119487192 63.080824467447165 29.898357842706503 0 0 -1
1138 3 75.03601047201272 59.92609571514882 6.614053955612402 0 0 0
2261 2 73.7012076098906 58.070832164834634 1.599088588397867 0 0 0
2297 2 73.61303836467303 61.40823428265468 1.5785270359976604 0 0 0
2331 2 76.43370926530622 63.10152576857211 1.5826364160365023 0 0 0
3499 2 73.03437382376106 56.63936942907917 8.301582635510698 0 0 0
3500 2 73.02648695404841 56.63309220189114 4.933355520742744 0 0 0
3537 2 73.11474086642528 59.945892370996845 8.299228335228136 0 0 0
3538 2 73.11018889624586 59.941070048307736 4.931032899773171 0 0 0
3573 2 76.0424536317029 61.566194275745794 8.299077608429737 0 0 0
3574 2 76.044346680812 61.564760344970324 4.930922685625618 0 0 0
404 1 37.23970910694645 63.82303908727275 29.618808174928223 0 0 -1
427 1 40.059113539879036 65.57192428199484 29.583898988178674 0 0 -1
448 1 39.93843691081424 68.88929845696809 29.553206374837806 0 0 -1
1022 3 40.47158963771813 64.0301524510643 6.735865583886882 0 0 0
1044 3 40.58607928022662 67.35419010127369 6.758281657432286 0 0 0
2069 2 39.16664095171811 63.9055183265393 1.2869698773666138 0 0 0
2113 2 39.04761016189444 67.21279123780522 1.247946972914806 0 0 0
3305 2 38.552350245374335 64.07451288650735 8.415949213855587 0 0 0
3306 2 38.55716184322361 64.10229430789553 5.047005182191289 0 0 0
3351 2 41.485124922751275 65.64993271482345 8.432126432838697 0 0 0
3352 2 41.48601699732158 65.67241368341584 5.063197147423246 0 0 0
3393 2 41.60085570408448 68.97821272715433 8.44866927241049 0 0 0
3394 2 41.60180322210674 68.98963942928964 5.079750049689817 0 0 0
428 1 42.993701808501214 64.00465027260306 29.603991967748197 0 0 -1
449 1 42.87402847282436 67.32655367859299 29.562500699469137 0 0 -1
450 1 45.805360816125315 65.75981261902247 29.588846258886846 0 0 -1
451 1 48.731506884472246 64.18756220855776 29.629258319898646 0 0 -1
471 1 42.753834767383296 70.64766452445434 29.540922420066728 0 0 -1
472 1 45.68587544603 69.08543278514969 29.55777867439258 0 0 -1
473 1 48.61394549052689 67.51812912316777 29.590591633643037 0 0 -1
474 1 51.53739621241435 65.94423129070388 29.636199438039164 0 0 -1
492 1 48.495995350619275 70.84665242877915 29.57184848211372 0 0 -1
493 1 51.42096416882645 69.27728819927023 29.610691326431173 0 0 -1
1045 3 43.403842227136195 65.6017310053625 6.749538559658615 0 0 0
1046 3 46.22557471162795 63.85413182787784 6.735581352123528 0 0 0
1066 3 43.51935207543717 68.92160552410529 6.765550093419469 0 0 0
1067 3 46.34025410059588 67.17008321592074 6.7544463510687605 0 0 0
1068 3 49.16486127022214 65.42419295701758 6.73791462807121 0 0 0
1069 3 51.99427203592656 63.68500828037285 6.718038754687113 0 0 0
1089 3 46.45560397345518 70.48643477707601 6.7632003107419685 0 0 0
1090 3 49.27964971337127 68.73690993779022 6.748428110527829 0 0 0
1091 3 52.107041706264866 66.99395755206996 6.728461467327812 0 0 0
1110 3 49.39368452995185 72.05054306105671 6.749626819739579 0 0 0
2115 2 41.978117487597544 65.65402786547446 1.2584914940039897 0 0 0
2117 2 44.90514439087639 64.09007640231677 1.2855937377194544 0 0 0
2157 2 41.85731814077696 68.96464312418715 1.2272560621628188 0 0 0
2159 2 44.784391270855565 67.40595140434002 1.2447155243369026 0 0 0
2161 2 47.70834546155253 65.84132874928878 1.277896169684869 0 0 0
2163 2 50.628742747616236 64.26902471452475 1.3235096997670106 0 0 0
2203 2 44.66342108639113 70.71992892936937 1.2236517876627355 0 0 0
2205 2 47.58722404640601 69.16012955857386 1.2484054584207416 0 0 0
2207 2 50.508608538909684 67.59356878537713 1.2875183656491638 0 0 0
2245 2 50.38879885741818 70.91495036286332 1.270917031443976 0 0 0
3353 2 44.30734756067601 63.898342985630876 8.420352804587456 0 0 0
3354 2 44.303804705141694 63.923828946966424 5.051345657641893 0 0 0
3395 2 44.42329793424723 67.22213322047773 8.440773743384918 0 0 0
3396 2 44.41813171704224 67.23766457462364 5.071833103402938 0 0 0
3397 2 47.24880332798038 65.47201725669672 8.42694055413474 0 0 0
3398 2 47.23854896260061 65.48962662466666 5.057934992336596 0 0 0
3399 2 50.07848731902796 63.72932884093189 8.409162729488546 0 0 0
3400 2 50.0642050717478 63.746443240430224 5.040032934438869 0 0 0
3439 2 44.53973280084624 70.54646330712625 8.450819032809349 0 0 0
3440 2 44.533224640963184 70.5514118750839 5.0818958358707755 0 0 0
3441 2 47.365639236695884 68.7922683270425 8.439650437106947 0 0 0
3442 2 47.352546997364826 68.79987933206968 5.07070346949394 0 0 0
3443 2 50.19417277113531 67.0446935547719 8.422576897475688 0 0 0
3444 2 50.175805562475645 67.05336249854628 5.053585841235712 0 0 0
3481 2 47.48145279244646 72.1130551120941 8.442711789216686 0 0 0
3482 2 47.46602399494375 72.11110037685243 5.073789935224244 0 0 0
3483 2 50.310350253039594 70.36189846304539 8.42714395130664 0 0 0
3484 2 50.28860906134988 70.3612399758993 5.058209132044451 0 0 0
475 1 54.45571694364031 64.36228780518702 29.690083485520972 0 0 -1
494 1 54.34201758403674 67.69987348254081 29.65968167085191 0 0 -1
495 1 57.25901349234245 66.11287243940055 29.713595802312103 0 0 -1
496 1 60.17204161561609 64.51537556001504 29.76687654451616 0 0 -1
512 1 54.2280207975864 71.03425418349988 29.64783940316079 0 0 -1
513 1 57.14718865450025 69.4508697238354 29.69644250044444 0 0 -1
514 1 60.063493088362144 67.8563439621335 29.745734913636266 0 0 -1
530 1 59.95492369413242 71.1933054171536 29.740583894221608 0 0 -1
1092 3 54.9386155179408 65.25869120014579 6.705677892050835 0 0 0
1093 3 57.775059014439115 63.53187738801558 6.683013464191467 0 0 0
1111 3 52.22071049642133 70.30443606699824 6.730551896138577 0 0 0
1112 3 55.050606217969815 68.56617065873404 6.707661669232148 0 0 0
1113 3 57.88391559835574 66.83679127052854 6.68381811251787 0 0 0
1114 3 60.72101697332292 65.11665544661639 6.661914219493194 0 0 0
1131 3 55.16184917357508 71.87567620059279 6.702398598837538 0 0 0
1132 3 57.99379960434845 70.1442322289648 6.678962391122505 0 0 0
1133 3 60.82832369934975 68.42264655761694 6.657246381216275 0 0 0
1150 3 60.93472332842849 71.73144546821803 6.648065009136396 0 0 0
2209 2 53.42764082582718 66.01852976086977 1.3372125604790377 0 0 0
2211 2 56.344352084532005 64.43337097126256 1.3922857391714654 0 0 0
2247 2 53.30874412426705 69.34482496342736 1.3146034389199195 0 0 0
2249 2 56.22776398038377 67.76494270951297 1.3654060335598288 0 0 0
2251 2 59.14580368665929 66.1737600948437 1.417836568244262 0 0 0
2253 2 62.06219643356685 64.5708278996386 1.4670714843080312 0 0 0
2285 2 56.11200481097538 71.09229249785689 1.3560714690041027 0 0 0
2287 2 59.0320677432032 69.50489549925274 1.4034365433313365 0 0 0
2289 2 61.951735633636474 67.90529094928965 1.4487815349510273 0 0 0
2321 2 61.84240231070504 71.23513279611976 1.445398166653171 0 0 0
3445 2 53.02601522531682 65.30505873858868 8.401630263601096 0 0 0
3446 2 53.0040977260786 65.31286353491338 5.032557860843059 0 0 0
3447 2 55.86175793038254 63.574402059057874 8.379482151489091 0 0 0
3448 2 55.838454966702 63.57936131856699 5.010333769796751 0 0 0
3485 2 53.14101730924781 68.61816277886356 8.406443727185273 0 0 0
3486 2 53.11518011854089 68.61775686190354 5.0374732693036695 0 0 0
3487 2 55.97384061244493 66.8830913844319 8.383130644037779 0 0 0
3488 2 55.94656719085626 66.88191842453894 5.014118935078313 0 0 0
3489 2 58.8093159066162 65.15752655615863 8.360159679103804 0 0 0
3490 2 58.78322999525638 65.15468783999712 4.991168578144308 0 0 0
3491 2 61.647961658481904 63.44138162031025 8.340152470585666 0 0 0
3492 2 61.625038119683964 63.436359692943164 4.971275146844322 0 0 0
3523 2 53.25478414564345 71.93308698124734 8.403369446500415 0 0 0
3524 2 53.22601933062531 71.9246960657079 5.03440329296362 0 0 0
3525 2 56.086341064585476 70.19486922948438 8.380350584224566 0 0 0
3526 2 56.056328488651495 70.18649803526507 5.011345402425705 0 0 0
3527 2 58.919059929165606 68.46617167334459 8.357183162638233 0 0 0
3528 2 58.89083767997136 68.45777758039786 4.98821714874024 0 0 0
3529 2 61.75351773213629 66.7473232400369 8.33654569335509 0 0 0
3530 2 61.729365706433455 66.7389103374108 4.967710701834001 0 0 0
3561 2 59.02736203891175 71.77773504300683 8.34897816211215 0 0 0
3562 2 58.99819957157894 71.76393830827631 4.979863507150614 0 0 0
3563 2 61.85957403155534 70.05709123702104 8.32923481982088 0 0 0
3564 2 61.835231708385294 70.04426709778186 4.960273043561612 0 0 0
515 1 62.97722370723753 66.25051932480795 29.791565646808376 0 0 -1
516 1 65.88874909400258 64.63437988705459 29.831646358060127 0 0 -1
531 1 62.871095351281014 69.5893702001946 29.781209013143307 0 0 -1
532 1 65.78587760255189 67.97419704907367 29.81711133734803 0 0 -1
533 1 68.69966314890097 66.34950030868256 29.848026323040088 0 0 -1
534 1 71.61290789060598 64.717552355862 29.87475517221938 0 0 -1
547 1 65.68342854634528 71.31000116486076 29.816032904842494 0 0 -1
548 1 68.59920177015869 69.6855957323816 29.84186419553307 0 0 -1
549 1 71.51496675863942 68.05306891016679 29.864455351457593 0 0 -1
562 1 71.41789623303868 71.38538196409921 29.86550676996788 0 0 -1
1115 3 63.561978838991486 63.40522505331489 6.644072082932666 0 0 0
1134 3 63.665535180657535 66.71054947524966 6.63939935023538 0 0 0
1135 3 66.5053159553511 65.0067336481583 6.626562700309751 0 0 0
1136 3 69.34733004959264 63.3094149069041 6.618767926030225 0 0 0
1151 3 63.77004292510059 70.0188087164334 6.631575820951355 0 0 0
1152 3 66.6070127759184 68.31517652015863 6.62026728969294 0 0 0
1153 3 69.44538986005621 66.61878984606174 6.614247877413466 0 0 0
1154 3 72.28483315062843 64.92758132867857 6.612781383178817 0 0 0
1168 3 66.7075391767359 71.62637055085835 6.611160078002631 0 0 0
1169 3 69.54423928775849 69.93063757434643 6.607348588015698 0 0 0
1170 3 72.38134479954786 68.2407131056857 6.608474576682234 0 0 0
1184 3 72.47648093343636 71.55577116048468 6.601110653818328 0 0 0
2291 2 64.8701083327566 66.29396655391191 1.4893134366078313 0 0 0
2293 2 67.7864620398139 64.67248806710032 1.5240805863766433 0 0 0
2323 2 64.76304979589193 69.6255851191932 1.4808544255520188 0 0 0
2325 2 67.68252044141701 68.00520239032416 1.5115144341850968 0 0 0
2327 2 70.60054778569202 66.37611342708911 1.537990654084883 0 0 0
2355 2 67.57993212393592 71.33397524383888 1.511540649584341 0 0 0
2357 2 70.49955406531902 69.70502304460197 1.5331519011462373 0 0 0
3531 2 64.59021996210944 65.03765953332899 8.320279522414621 0 0 0
3532 2 64.5713788867602 65.02929608628949 4.951620153759306 0 0 0
3533 2 67.42941374269827 63.33561251034945 8.309060867756944 0 0 0
3534 2 67.41610365088758 63.32764748285134 4.940581604680507 0 0 0
3565 2 64.69296927177328 68.34613424370264 8.313936966809752 0 0 0
3566 2 64.67480891559904 68.33474292224477 4.9451830836085895 0 0 0
3567 2 67.52791509994452 66.64357886278077 8.303860299081446 0 0 0
3568 2 67.516238578719 66.6339712623608 4.935313085519059 0 0 0
3569 2 70.36455573280065 64.94751327728528 8.298803572517256 0 0 0
3570 2 70.35877737040559 64.94008657978466 4.9304331398537 0 0 0
3597 2 64.79440103651106 71.65794798012588 8.304560030684481 0 0 0
3598 2 64.77739230295043 71.64355192950498 4.935525099809359 0 0 0
3599 2 67.62726226813454 69.95526384289334 8.29636348392949 0 0 0
3600 2 67.61729408742187 69.94300576532919 4.9275753327355964 0 0 0
3601 2 70.46108638307156 68.25968918024029 8.293524385468276 0 0 0
3602 2 70.4576269051272 68.25004484916356 4.924952307349656 0 0 0
3629 2 70.55660217120077 71.5747159975397 8.285583365785744 0 0 0
3630 2 70.55488692356948 71.56274785811732 4.916658852859559 0 0 0
550 1 74.43118206989162 66.41490342628134 29.885109944792564 0 0 -1
551 1 77.3483038065393 64.77354763024638 29.904657974473594 0 0 -1
563 1 74.33504159896356 69.74642739178172 29.881533674379764 0 0 -1
564 1 77.25351361223358 68.10353334059234 29.897349175049982 0 0 -1
576 1 77.159933036844 71.43156354432126 29.899246004218796 0 0 -1
577 1 80.07981256813716 69.78549730588466 29.91108116843068 0 0 -1
1155 3 75.12494134369882 63.23945982847598 6.614459769717261 0 0 0
1171 3 75.21849669940869 66.55448083691562 6.613200787589337 0 0 0
1172 3 78.05534697324053 64.86993379773628 6.619730071452164 0 0 0
1185 3 75.31273262586109 69.87093401472532 6.608448328969325 0 0 0
1186 3 78.14812280789899 68.18834527713283 6.61825332128913 0 0 0
1199 3 78.23947815883912 71.50751442299907 6.612067842083439 0 0 0
1200 3 81.07377443978724 69.82725194993657 6.625340651466587 0 0 0
2329 2 73.51738306390088 64.74075282035528 1.5614064334790114 0 0 0
2359 2 73.41854862281743 68.06926190122606 1.5526063109295791 0 0 0
2361 2 76.33756391550386 66.42908851245038 1.5710379178473688 0 0 0
2385 2 73.32143858321675 71.39525947117531 1.5543447758980922 0 0 0
2387 2 76.2408616715118 69.75420988628186 1.5684104842038264 0 0 0
2389 2 79.16163302377922 68.11053195705861 1.5826778093609324 0 0 0
2413 2 79.06783833389409 71.43338864147633 1.584923780998256 0 0 0
3571 2 73.20281871989178 63.2557508668724 8.297734554361801 0 0 0
3572 2 73.20169175059398 63.25103709929471 4.929495569255341 0 0 0
3603 2 73.2958768074912 66.56911098634097 8.295098370813795 0 0 0
3604 2 73.2976961705692 66.56253283236704 4.926685666665717 0 0 0
3605 2 76.13151839734404 64.88139475228238 8.299558802214861 0 0 0
3606 2 76.13689776869896 64.87838322288994 4.931244855133677 0 0 0
3631 2 73.39012880328428 69.8853230425453 8.289595517615231 0 0 0
3632 2 73.39402339653088 69.87587581280265 4.920862740586341 0 0 0
3633 2 76.2238779345326 68.1993117222032 8.297067112316638 0 0 0
3634 2 76.23177069194952 68.19298789982231 4.928463024725051 0 0 0
3635 2 79.05767119605122 66.51465682937416 8.306116652309246 0 0 0
3636 2 79.06759681136106 66.51213445265161 4.937585171729608 0 0 0
3659 2 76.31546923871059 71.51895593738878 8.290613852023224 0 0 0
3660 2 76.32461377524514 71.50928953115924 4.921625379797505 0 0 0
3661 2 79.1489392939593 69.8363843202396 8.30250069311387 0 0 0
3662 2 79.16054447175965 69.82933931062699 4.933605344550588 0 0 0
3685 2 82.07134247367051 71.47830685053978 8.308795119694679 0 0 0
3686 2 82.08418121227825 71.4696501610237 4.939577517072358 0 0 0
1588 2 22.35078537193073 37.07246678150795 28.253530503041986 0 0 -1
1632 2 25.238643881776355 38.773868025761736 28.24715616369456 0 0 -1
1634 2 28.158018326182304 37.18017846747884 28.259390632753853 0 0 -1
1674 2 25.199747585615736 42.063828622832176 28.22877238868139 0 0 -1
1676 2 28.124358818603838 40.47375610175992 28.241168536836888 0 0 -1
1678 2 31.0412733908421 38.87715316585633 28.256113693949178 0 0 -1
1718 2 28.083379460335586 43.76550254081782 28.219645101986004 0 0 -1
1720 2 31.00619354139932 42.17352025050333 28.235639399764516 0 0 -1
1680 2 33.95008261936447 37.27254104329175 28.270442579167984 0 0 -1
1722 2 33.92024691745979 40.574743082995305 28.253024336970345 0 0 -1
1724 2 36.825580565868556 38.96814411535549 28.268770347879865 0 0 -1
1726 2 39.72294860814458 37.353748765297695 28.281184735992227 0 0 -1
1766 2 33.88241435491897 43.87468396603999 28.22982148447233 0 0 -1
1768 2 36.79335570471593 42.27459144746946 28.249374390035133 0 0 -1
1770 2 39.69512067950707 40.66705131542768 28.26631758882857 0 0 -1
1812 2 39.65909835006964 43.9784996476623 28.243972431852605 0 0 -1
1772 2 42.58869669629313 39.05243628650032 28.279185401652065 0 0 -1
1774 2 45.475305602888284 37.431883884346156 28.28748775677235 0 0 -1
1814 2 42.55735700677566 42.371099713604416 28.262048910437315 0 0 -1
1816 2 45.44729063527352 40.75740067204728 28.275337128570985 0 0 -1
1818 2 48.33023069226957 39.13867505474038 28.28339250106282 0 0 -1
1820 2 51.20749465006119 37.516540750502244 28.286157299989853 0 0 -1
1860 2 45.41126082661917 44.08207121429092 28.255084768455532 0 0 -1
1862 2 48.297914852359646 42.47023890778792 28.269048717394234 0 0 -1
1864 2 51.1776608526164 40.85417198559688 28.277114323220715 0 0 -1
1906 2 51.140356842162646 44.19197914884895 28.260524191232363 0 0 -1
1866 2 54.051950620603435 39.23544946156484 28.279241549894564 0 0 -1
1868 2 56.92222625550046 37.6157421053478 28.275648815735344 0 0 -1
1908 2 54.017675390612006 42.578919822146325 28.269274437252506 0 0 -1
1910 2 56.88994353753937 40.96368748340064 28.271565796780735 0 0 -1
1912 2 59.758795831665765 39.347846626653606 28.26790330757233 0 0 -1
1914 2 62.6258978435016 37.732961566162295 28.259308927638592 0 0 -1
1954 2 56.85100912837288 44.31226532910189 28.261531624856353 0 0 -1
1956 2 59.72246619084544 42.6998720662818 28.265145355014624 0 0 -1
1958 2 62.591287855963714 41.08689862953073 28.26284079844344 0 0 -1
2000 2 62.550859734985615 44.44102556584204 28.262132451252178 0 0 -1
2002 2 65.42111424512748 42.829228769001894 28.262427452460134 0 0 -1
1762 2 28.032373577956776 47.055965988961944 28.195382417728936 0 0 -1
1764 2 30.96189533291666 45.467942543035804 28.210474414436714 0 0 -1
1806 2 30.905532785473536 48.76111710447531 28.18046700209599 0 0 -1
1850 2 30.834914027869274 52.05423947765833 28.145694173296278 0 0 -1
1808 2 33.83344478046179 47.1727747364169 28.19991196617626 0 0 -1
1810 2 36.751353690206535 45.57897172407873 28.22240008690613 0 0 -1
1852 2 33.77054415275599 50.469967731494634 28.162684218023895 0 0 -1
1854 2 36.69641074570313 48.8818639997742 28.186387165156546 0 0 -1
1856 2 39.611597919670466 47.28828139157651 28.211970258936002 0 0 -1
1894 2 33.691997332982695 53.76784947134012 28.118503158736825 0 0 -1
1896 2 36.626074216893855 52.18451277456271 28.14080138583078 0 0 -1
1898 2 39.549680306443015 50.59717315919939 28.168789085573323 0 0 -1
1942 2 39.47154051435194 53.90666649403302 28.114701180281614 0 0 -1
1858 2 42.51625481329327 45.68834826202207 28.235660735036134 0 0 -1
1900 2 42.46224628702879 49.00448241167633 28.19768775007279 0 0 -1
1902 2 45.36413509598748 47.40582478592476 28.223925591804075 0 0 -1
1904 2 48.256368341220195 45.801374383489105 28.245260886012822 0 0 -1
1944 2 42.392889557705914 52.32044132571398 28.147188996141924 0 0 -1
1946 2 45.30314196387235 50.729045242025705 28.179916728181595 0 0 -1
1948 2 48.202787177099594 49.13202419645372 28.20945689495631 0 0 -1
1950 2 51.092935494384164 47.529618980636194 28.23358917218813 0 0 -1
1988 2 45.22656004912047 54.05274938580353 28.12336781626471 0 0 -1
1990 2 48.13495741585053 52.46260178946977 28.16065408973129 0 0 -1
1992 2 51.03300776477308 50.867010229763835 28.19442100419908 0 0 -1
2036 2 50.959003794898315 54.204512229649914 28.143408547765873 0 0 -1
1952 2 53.97510116338349 45.922639176258706 28.25109310080684 0 0 -1
1994 2 53.92187681680744 49.26618220611973 28.222321230433526 0 0 -1
1996 2 56.8031938550218 47.66082577231974 28.24301466209057 0 0 -1
1998 2 59.67886055586415 46.05201234810971 28.256111302774865 0 0 -1
2038 2 53.8560729640512 52.60940630036905 28.18206208842039 0 0 -1
2040 2 56.744451713090854 51.0088611649826 28.214241589927713 0 0 -1
2042 2 59.625939946705785 49.403516885021695 28.238508208100768 0 0 -1
2044 2 62.50261970131929 47.79443141168528 28.25464563829317 0 0 -1
2084 2 59.56193317855612 52.75393777953647 28.21119582842726 0 0 -1
2086 2 62.444695134989864 51.14645669505593 28.23836686855179 0 0 -1
2046 2 65.37657500324988 46.182901489404884 28.263548407621283 0 0 -1
2088 2 65.32375376865801 49.53499734516584 28.257026999755645 0 0 -1
2090 2 68.20113590623477 47.920981324908766 28.26849090912305 0 0 -1
2132 2 65.26095892531488 52.88520265109146 28.241363599846842 0 0 -1
2134 2 68.14390082046206 51.2695612425169 28.26140798028585 0 0 -1
2178 2 70.9648223528138 52.99529904847639 28.265433270379557 0 0 -1
1938 2 33.597938138573724 57.068502554605395 28.069538776191933 0 0 -1
1940 2 36.53943401679337 55.48883605676999 28.08707684843164 0 0 -1
1982 2 36.437801904108824 58.79705514779481 28.029508904842185 0 0 -1
1984 2 39.37732704097344 57.2188373004001 28.05298807102297 0 0 -1
2026 2 36.32468387546816 62.11064546975612 27.97514234852122 0 0 -1
2028 2 39.26957187749322 60.535604264703544 27.990434469509562 0 0 -1
1986 2 42.307275946374894 55.63784206879469 28.085986518556272 0 0 -1
2030 2 42.20670555340068 58.958600184672214 28.019689053188046 0 0 -1
2032 2 45.13449366704151 57.378462991584854 28.058159401550004 0 0 -1
2034 2 48.05199404632551 55.79405882896521 28.100892174521174 0 0 -1
2072 2 42.09472143961112 62.28379750252761 27.957119423444716 0 0 -1
2074 2 45.02926335644744 60.707537439795 27.992018823578462 0 0 -1
2076 2 47.9549375293984 59.12756942605169 28.03605073284516 0 0 -1
2078 2 50.870832947595595 57.54287678981867 28.084333759778517 0 0 -1
2120 2 47.846774376596414 62.46376390248985 27.9750275933321 0 0 -1
2122 2 50.77022574259371 60.88285810448404 28.024420455560275 0 0 -1
2080 2 53.77673604632649 55.95258822699973 28.13211360511427 0 0 -1
2082 2 56.67328515446037 54.35623300085878 28.175342766405702 0 0 -1
2124 2 53.68441962484086 59.29631491987624 28.077586347502088 0 0 -1
2126 2 56.589285365881295 57.70325921474371 28.129308625527436 0 0 -1
2128 2 59.485758494207616 56.1033334635081 28.175286455804954 0 0 -1
2130 2 62.375602230932174 54.496951231762836 28.212895114420444 0 0 -1
2166 2 53.58136996001426 62.64101417849053 28.026238392569695 0 0 -1
2168 2 56.49359232286696 61.05045954391089 28.08210474467204 0 0 -1
2170 2 59.39758788802549 59.45218331999202 28.134796616713928 0 0 -1
2172 2 62.29476063926988 57.846311406476126 28.18042383705458 0 0 -1
2214 2 59.29920490864312 62.80089937504831 28.096233192066993 0 0 -1
2216 2 62.20303421273681 61.195122469342145 28.145948126452595 0 0 -1
2174 2 65.18707794216215 56.233817019607024 28.21719537750247 0 0 -1
2176 2 68.07653290561058 54.61622504055519 28.245143030477927 0 0 -1
2218 2 65.10215639422645 59.58152135306353 28.187961934669506 0 0 -1
2220 2 67.99839867498741 57.961682810206334 28.221676693586257 0 0 -1
2222 2 70.89331249692322 56.33753983337133 28.24782595135654 0 0 -1
2256 2 65.00779790043516 62.928813242444285 28.159495491139165 0 0 -1
2258 2 67.91025297357106 61.306691372033875 28.1956649012874 0 0 -1
2260 2 70.81159668221744 59.67927054887373 28.22518509754504 0 0 -1
2296 2 70.72113769292562 63.021058051913364 28.20300086499752 0 0 -1
2262 2 73.712788744536 58.04877472261619 28.249067661319582 0 0 -1
2298 2 73.62807496308847 61.386720071557235 28.228271904594784 0 0 -1
2332 2 76.44827283970596 63.08508451509602 28.232383028168172 0 0 -1
2070 2 39.15265997342447 63.8573373109684 27.93583097845236 0 0 -1
2114 2 39.031305126065874 67.18246395662624 27.896632591942655 0 0 -1
2116 2 41.97601838299218 65.6126136848042 27.907267287654893 0 0 -1
2118 2 44.914955653800696 64.04003836958341 27.934532580859454 0 0 -1
2158 2 41.854911527857354 68.94297673409434 27.875830266432786 0 0 -1
2160 2 44.79610736773614 67.37444335025855 27.89340924903524 0 0 -1
2162 2 47.73171929041701 65.80197090418245 27.926785086587966 0 0 -1
2164 2 50.66053058176016 64.22450814870216 27.97259910283561 0 0 -1
2204 2 44.67657677077481 70.70875551286129 27.87219871293975 0 0 -1
2206 2 47.614020414724486 69.14045560269709 27.897096736981776 0 0 -1
2208 2 50.5459382053114 67.56673460847509 27.936406029741 0 0 -1
2246 2 50.430401644008874 70.90777897883943 27.919700932829024 0 0 -1
2210 2 53.471194961798275 65.98629562803973 27.98626272030533 0 0 -1
2212 2 56.38894609759871 64.39795129197641 28.041444266662108 0 0 -1
2248 2 53.3579999736372 69.33077736520413 27.963510320668185 0 0 -1
2250 2 56.27915608074906 67.74492136761515 28.014374230017335 0 0 -1
2252 2 59.19381438808655 66.14920570267137 28.066871627623375 0 0 -1
2254 2 62.10286000487123 64.54353867454364 28.116237804976507 0 0 -1
2286 2 56.168176642383635 71.08971041321415 28.004930095497848 0 0 -1
2288 2 59.08534200110861 69.49584890840879 28.05229708247284 0 0 -1
2290 2 61.99781384240079 67.8908058746151 28.097719518694454 0 0 -1
2322 2 61.891861245079184 71.23524305850366 28.094160934742604 0 0 -1
2292 2 64.90700650830131 66.27543111331975 28.13839637699877 0 0 -1
2294 2 67.81438077966277 64.65143689816762 28.17335929117459 0 0 -1
2324 2 64.80360144351982 69.62009835069104 28.12972113206819 0 0 -1
2326 2 67.71421188594324 67.99512502188323 28.160548532684327 0 0 -1
2328 2 70.62479349270896 66.36260103312264 28.187239322059774 0 0 -1
2356 2 67.61374731495303 71.33604383259551 28.160351331376187 0 0 -1
2358 2 70.5263525576079 69.70257853351035 28.182156474284835 0 0 -1
2330 2 73.53604163681126 64.72507852446964 28.210897320640832 0 0 -1
2360 2 73.44007771177797 68.06300641877735 28.201841537407713 0 0 -1
2362 2 76.3552311940999 66.41992972458353 28.220529710585595 0 0 -1
2386 2 73.34429629721046 71.39887017532493 28.203336187300838 0 0 -1
2388 2 76.26037489597314 69.75405425703528 28.21763730540223 0 0 -1
2390 2 79.17832957537912 68.1071622769296 28.23217455027097 0 0 -1
2202 2 41.73475484661966 72.27306390412436 27.864417995572296 0 0 -1
1088 3 43.6340368562996 72.24128662765581 6.771011297051664 0 0 0
2201 2 41.73746110796682 72.27468949284726 1.215916695770914 0 0 0
946 3 63.02485964427183 37.046734334705526 6.631026569134325 0 0 0
588 1 82.90981035127939 71.46290205611959 29.924834059370966 0 0 -1
3198 2 64.01865008916226 38.682985622180844 4.953227273966635 0 0 0
3197 2 64.01861952391427 38.66925813805823 8.322509539860148 0 0 0
2415 2 81.9899182637891 69.78746421907198 1.5953592255431177 0 0 0
2416 2 82.00472759494949 69.78857626624385 28.24485886770607 0 0 -1
57 1 44.01160752367748 0.8567784516821331 29.936638350869266 0 0 -1
70 1 46.84757871788759 2.5311418294839134 29.944638659526465 0 0 -1
71 1 49.771510010567525 0.8876067784953807 29.94049799840179 0 0 -1
83 1 46.76834601018598 5.852105376665936 29.95251086696712 0 0 -1
84 1 49.685610205503224 4.206918780040966 29.94744717223049 0 0 -1
99 1 49.610064935161105 7.527852034356719 29.955046770513995 0 0 -1
683 3 45.18310976505218 0.8316448451395793 6.635900742232862 0 0 0
694 3 45.26428288052412 4.154923928598724 6.621668431047472 0 0 0
695 3 48.099391731814336 2.4744960503941256 6.636217823459102 0 0 0
696 3 50.9302148609538 0.7896814814455989 6.648729169790651 0 0 0
708 3 48.17727273955074 5.797845623148937 6.619456751355488 0 0 0
709 3 51.01381633486739 4.115001297087727 6.632676315086709 0 0 0
723 3 51.08865068258765 7.437844405669203 6.614112806210486 0 0 0
1375 2 45.92719934979456 0.854816084626972 1.6162715739482707 0 0 0
1399 2 45.84389699923573 4.1755917168457195 1.6239341106492222 0 0 0
1401 2 48.76657851704274 2.529701272805419 1.6207098621486855 0 0 0
1403 2 51.69583246823895 0.8888080231019538 1.6118215319989853 0 0 0
1427 2 48.686571458817376 5.850840731656456 1.6285294024068397 0 0 0
1429 2 51.608252233638005 4.207287471078339 1.6193587296656804 0 0 0
1459 2 51.53125450884971 7.529246732694265 1.6274464093922274 0 0 0
2627 2 43.25987347776738 0.8419651336819314 8.313659309742507 0 0 0
2628 2 43.27187094376074 0.8311696690770196 4.944143481995843 0 0 0
2651 2 46.17772408401102 2.4873305336073583 8.315502445369717 0 0 0
2652 2 46.18752192295344 2.4743247753726267 4.945746443805432 0 0 0
2653 2 49.010196674176406 0.804046724818385 8.32915254764764 0 0 0
2654 2 49.01808431080745 0.7932093704114036 4.959434025021435 0 0 0
2677 2 46.2560583623192 5.811907157213468 8.299669620853761 0 0 0
2678 2 46.26430553857613 5.797323558953998 4.929747742989222 0 0 0
2679 2 49.09367614551997 4.131355487354489 8.313635703323373 0 0 0
2680 2 49.10080523753911 4.11650786028562 4.943705139036396 0 0 0
2681 2 51.92669654973026 2.4455539149005987 8.326415389780186 0 0 0
2682 2 51.932507437941304 2.4322904641519423 4.956510608856918 0 0 0
2707 2 49.16868795950053 7.455087386534166 8.295918881795608 0 0 0
2708 2 49.174239902961034 7.439869888847808 4.925893661133406 0 0 0
2709 2 52.007954328738535 5.772034352783413 8.308356995968284 0 0 0
2710 2 52.012915405722154 5.756066543096506 4.938306187615663 0 0 0
2741 2 52.07989467586142 9.094267507477065 8.289632935970328 0 0 0
2742 2 52.083436078351525 9.07928887867702 4.919542527663224 0 0 0
85 1 52.60837176440161 2.566932576090744 29.936104294141717 0 0 -1
86 1 55.537147989735246 0.9345386870487985 29.91589132297498 0 0 -1
100 1 52.525010330710664 5.886082070144942 29.944225636060587 0 0 -1
101 1 55.44593303774463 4.2511175614601715 29.924871118540935 0 0 -1
102 1 58.373361609790926 2.625516621362254 29.89452349985168 0 0 -1
103 1 61.30724799270582 1.0115981451542377 29.85224091668697 0 0 -1
117 1 55.36507523165072 7.570674838003321 29.93460257032022 0 0 -1
118 1 58.28361149937675 5.942316581616558 29.906697109779582 0 0 -1
119 1 61.20905755158371 4.32512338010663 29.866205021103468 0 0 -1
137 1 61.120880931085125 7.642617062215692 29.882124966122394 0 0 -1
710 3 53.8454531747563 2.4263934341768154 6.644688993665061 0 0 0
711 3 56.671763407518206 0.7298290714461619 6.6550925612585035 0 0 0
724 3 53.927066525156086 5.751258791140126 6.626128932669461 0 0 0
725 3 56.76002066393838 4.0573826968830415 6.638480213158217 0 0 0
726 3 59.587074006112694 2.3539728751941307 6.6515308715903325 0 0 0
727 3 62.40825432468626 0.6392781545954409 6.6659487417921435 0 0 0
740 3 53.99917537260565 9.073077467996502 6.606719593479276 0 0 0
741 3 56.83980390367706 7.381304151353111 6.6183311496586485 0 0 0
742 3 59.674480778185135 5.680630243127277 6.6323896689945325 0 0 0
743 3 62.5027712590951 3.9689606095576813 6.649723508331001 0 0 0
759 3 59.75266916349464 9.003189791498595 6.611614539302181 0 0 0
760 3 62.589367866899074 7.29431440924481 6.628922201743071 0 0 0
1431 2 54.53709341805107 2.570300436655186 1.6022627776710812 0 0 0
1433 2 57.473189801495984 0.9427865784233631 1.5749349016985286 0 0 0
1461 2 54.451346587627654 5.889420288013831 1.6115753230366512 0 0 0
1463 2 57.37894149479367 4.257905574344068 1.5855939276966464 0 0 0
1465 2 60.31384808113411 2.6378843293957654 1.5476530343472714 0 0 0
1495 2 57.29494530979277 7.578144281880348 1.5972047994908611 0 0 0
1497 2 60.2204272530379 5.953788846617681 1.5621138235489005 0 0 0
2683 2 54.75425708525163 0.7523412650273471 8.33710287927523 0 0 0
2684 2 54.75933518160095 0.7426569049229736 4.967273678295867 0 0 0
2711 2 54.841637457801745 4.082393840265593 8.32063106574669 0 0 0
2712 2 54.846675966288956 4.067372886058047 4.950588164113637 0 0 0
2713 2 57.668876960510275 2.3838390808374488 8.332656552755969 0 0 0
2714 2 57.67536386569021 2.3716179281014216 4.962683732178112 0 0 0
2715 2 60.48941458885656 0.674394694427886 8.344899720334785 0 0 0
2716 2 60.499075490280504 0.6665620935514214 4.9750666264401415 0 0 0
2743 2 54.920805628046715 7.4073670959783655 8.300918071971202 0 0 0
2744 2 54.92500336618754 7.391206798192562 4.930782099342405 0 0 0
2745 2 57.75526001399409 5.712461562310381 8.313695123697858 0 0 0
2746 2 57.76155313236171 5.696513635725413 4.943551481732524 0 0 0
2747 2 60.582568261182665 4.0071495386370835 8.328587798184353 0 0 0
2748 2 60.59272635709426 3.992979788760156 4.958522269798421 0 0 0
2779 2 57.83259850728634 9.035392291629533 8.293322611376407 0 0 0
2780 2 57.83805550637651 9.019971752847242 4.9231291668314086 0 0 0
2781 2 60.66802562215184 7.333780930044901 8.308032718843512 0 0 0
2782 2 60.67783328286337 7.317692019348659 4.937833924851821 0 0 0
120 1 64.1412649244791 2.72105325276069 29.813472683197286 0 0 -1
121 1 67.0792366216807 1.130609240924178 29.752374267853256 0 0 -1
138 1 64.04389522349922 6.03519071206914 29.832401027965936 0 0 -1
139 1 66.97389250111273 4.44175631387402 29.77143337019488 0 0 -1
140 1 69.9096520983175 2.8616494495257503 29.70519392384475 0 0 -1
141 1 72.84920621846844 1.29209719827549 29.642857714983982 0 0 -1
158 1 66.8776845333796 7.756908137770701 29.795584106446146 0 0 -1
159 1 69.80518400849849 6.174090975259751 29.729855837185717 0 0 -1
160 1 72.73837518664966 4.603377959487978 29.663110156549028 0 0 -1
181 1 72.63540198517508 7.917426461723823 29.693325696168476 0 0 -1
744 3 65.32483034062321 2.2450845657487006 6.6706274559585 0 0 0
745 3 68.14153391449997 0.5092878192692027 6.693961823941601 0 0 0
761 3 65.4192741950919 5.573345912783019 6.651757676158327 0 0 0
762 3 68.24270985445307 3.8398958761433684 6.679320231563801 0 0 0
763 3 71.06088356841799 2.0953852267432156 6.708459085109935 0 0 0
780 3 65.50515971962795 8.897084902835148 6.630097463984698 0 0 0
781 3 68.33692410558783 7.166405230751306 6.658692655672503 0 0 0
782 3 71.16212427014423 5.423807335214263 6.691605570200812 0 0 0
802 3 71.25592698189362 8.748377564447624 6.670014467863756 0 0 0
1467 2 63.254701703441306 1.032158756158202 1.4981644975411927 0 0 0
1499 2 63.15300311656238 4.34279676580828 1.5141436873292378 0 0 0
1501 2 66.09095378120271 2.7474449297285495 1.4553649065052152 0 0 0
1503 2 69.03151130337415 1.1678758536051137 1.3916678240585165 0 0 0
1535 2 63.060580795810736 7.659942549681407 1.5328893951467255 0 0 0
1537 2 65.9897775232486 6.059075333725156 1.4765887618860918 0 0 0
1539 2 68.92367001649893 4.474367078184836 1.411610411835629 0 0 0
1541 2 71.85936315922757 2.904497845454675 1.3458166315319529 0 0 0
1577 2 68.82346654753603 7.78735873503711 1.4382120204578 0 0 0
1579 2 71.75250219206467 6.212632330216201 1.371271056573894 0 0 0
2749 2 63.40296809555079 2.2896139127192066 8.346188035742735 0 0 0
2750 2 63.41831501555948 2.2787004095770103 4.976306222892067 0 0 0
2751 2 66.2179228258407 0.5592100871832062 8.366343345931762 0 0 0
2752 2 66.23823914750807 0.552841341079141 4.996698258753029 0 0 0
2783 2 63.49599670787416 5.620437193297908 8.327287911427998 0 0 0
2784 2 63.51169457566674 5.60489728515691 4.957201041190046 0 0 0
2785 2 66.31736119150904 3.8939602835741822 8.351167706957975 0 0 0
2786 2 66.3390596793989 3.8803762195017404 4.981329473596301 0 0 0
2787 2 69.13424920544772 2.1544842953602514 8.377984841013168 0 0 0
2788 2 69.15969985816825 2.144501249801311 5.008475151440167 0 0 0
2789 2 71.94932833911727 0.40407662658049154 8.403939657581322 0 0 0
2790 2 71.97426222305816 0.3995539346088032 5.034740499452674 0 0 0
2821 2 63.58068778024657 8.94472190074992 8.305989607041349 0 0 0
2822 2 63.59583376108735 8.929026991497011 4.935805869186025 0 0 0
2823 2 66.41011233629064 7.222454587934003 8.330526953452768 0 0 0
2824 2 66.43211158942991 7.205969236439361 4.960511948228331 0 0 0
2825 2 69.23365633219255 5.486775048881743 8.360406280089556 0 0 0
2826 2 69.26074754077901 5.470983054526201 4.990728435561016 0 0 0
2827 2 72.05384014239691 3.738824382597808 8.391984244485037 0 0 0
2828 2 72.08175672913686 3.7258615485595383 5.0227077145052546 0 0 0
2865 2 69.32598626343213 8.812834182894298 8.33879010942024 0 0 0
2866 2 69.35339942265756 8.795559804517483 4.9689603003293525 0 0 0
2867 2 72.15279938820096 7.068460517384523 8.372949984364672 0 0 0
2868 2 72.18265563521823 7.0508750866950916 5.003536139341988 0 0 0
161 1 75.67503403321753 3.040977179435176 29.605148768490075 0 0 -1
162 1 78.61289269754471 1.4827624427072514 29.563750316030813 0 0 -1
182 1 75.56584997184818 6.354426881919444 29.63100590129429 0 0 -1
183 1 78.49938666279935 4.797342666521912 29.581456847296366 0 0 -1
184 1 81.43379955585893 3.2424455891058863 29.550353563636854 0 0 -1
204 1 78.39267868828692 8.112924703413558 29.613323854915965 0 0 -1
205 1 81.32304868491626 6.5594281733614 29.57506050041795 0 0 -1
764 3 73.87567765512202 0.34297527912255127 6.734149713879085 0 0 0
783 3 73.98234202940554 3.67190069318502 6.723662635122288 0 0 0
784 3 76.79965022160862 1.91449302976475 6.749093630468416 0 0 0
785 3 79.61590780003728 0.15512011244626708 6.764471323861786 0 0 0
803 3 74.08318262603827 6.99793436550517 6.70554939782245 0 0 0
804 3 76.90584952327269 5.24049759163651 6.73696099012647 0 0 0
805 3 79.7260468384321 3.479842903530373 6.759120120987252 0 0 0
806 3 82.54550428138495 1.7190054087703415 6.770209808928219 0 0 0
825 3 77.0057298879558 8.564178239393133 6.7181215402194745 0 0 0
826 3 79.83105105191277 6.803104787083733 6.745588446819839 0 0 0
827 3 82.65429463920162 5.040752512343978 6.762152838595081 0 0 0
848 3 82.75723473854103 8.361735539004544 6.747008084919688 0 0 0
1543 2 74.79435993284994 1.3451736110713972 1.2889292503155065 0 0 0
1581 2 74.68285003442259 4.650713104371635 1.308311530668321 0 0 0
1583 2 77.61263605745972 3.0965525933972655 1.2584720962095683 0 0 0
1585 2 80.54136544830904 1.5453717117219867 1.2271974806193384 0 0 0
1623 2 74.5775772696787 7.96077133446735 1.3392971204697108 0 0 0
1625 2 77.50273903559814 6.40466270472606 1.2837096900881464 0 0 0
1627 2 80.42781783789702 4.8538239997402215 1.2439816584221743 0 0 0
1629 2 83.35245195806753 3.3040585115543792 1.2235164211140381 0 0 0
1669 2 80.32026690767569 8.16439898928552 1.2757093254489522 0 0 0
1671 2 83.24133551697383 6.61533150598558 1.2480499210662324 0 0 0
2829 2 74.87298626996653 1.9818104615626495 8.419866548309054 0 0 0
2830 2 74.89674271895008 1.9740552765468078 5.050840801616071 0 0 0
2831 2 77.69218728713601 0.22006676275433384 8.439413532586952 0 0 0
2832 2 77.7085434434637 0.21904328459164263 5.070463963045203 0 0 0
2869 2 74.97711138026943 5.313427885783371 8.406178171942495 0 0 0
2870 2 75.0039765006173 5.2982214324559225 5.0371195912537505 0 0 0
2871 2 77.80056960468251 3.551754644246016 8.432627311056347 0 0 0
2872 2 77.82002689073622 3.5414262339548626 5.063690780004186 0 0 0
2873 2 80.6237617685147 1.7877539384567978 8.448832927940579 0 0 0
2874 2 80.63399405840241 1.783294750783886 5.079912007919057 0 0 0
2911 2 75.07522814637261 8.640538731210677 8.386363969421383 0 0 0
2912 2 75.10412777743207 8.621430840037172 5.01721439047536 0 0 0
2913 2 77.90382428631486 6.8803291289610975 8.417741429235981 0 0 0
2914 2 77.92610328345333 6.863363761627818 5.048795092503804 0 0 0
2915 2 80.73138901757684 5.1159286553484655 8.4398711053744 0 0 0
2916 2 80.74389957549192 5.1032405839707655 5.070952159733447 0 0 0
2957 2 80.8331223736393 8.441843347779821 8.423791071842482 0 0 0
2958 2 80.8478468251415 8.423169251859262 5.054860826880872 0 0 0
3437 2 83.44706391852344 0.024849796129124517 8.454439732508286 -1 1 0
3438 2 83.44836020100011 0.025719335220051424 5.085524720765619 -1 1 0
1 1 84.36739892594868 1.6869343724139347 29.539239725458092 -1 0 -1
3 1 84.25401182565278 5.006432896501912 29.55579633119957 -1 0 -1
7 1 87.07465795007249 6.772695648446689 29.58153857121348 -1 0 -1
227 1 84.14699670240026 8.325290336217565 29.588276561689483 0 0 -1
849 3 85.5834817258592 6.599121478229667 6.756265924951377 0 0 0
1267 2 86.16244811001887 5.065641546118129 1.2393695068709134 -1 0 0
1715 2 86.05507944396936 8.379474839192442 1.2721508583124999 0 0 0
2917 2 83.55838821783932 3.3512833494046226 8.45079946205482 0 0 0
2918 2 83.56051714235863 3.3432025852816336 5.081877954931592 0 0 0
2959 2 83.66439579188092 6.676403089038801 8.439430385978012 0 0 0
2960 2 83.66785706295842 6.661173924453419 5.070490638324567 0 0 0
3003 2 86.59792667724577 8.23517587946437 8.429662312342407 0 0 0
3004 2 86.59129614037683 8.217457760950417 5.060672522508148 0 0 0
115 1 49.54614066840245 10.850452060441745 29.961459681150522 0 0 -1
722 3 48.245528511079456 9.119419230422146 6.602540781779151 0 0 0
739 3 51.15342889856065 10.758338580625264 6.596829212002585 0 0 0
756 3 51.208097877582226 14.076680998213423 6.583337949597351 0 0 0
1457 2 48.61792874339724 9.174514776273263 1.635954473012999 0 0 0
1491 2 51.46617169759848 10.854219536660283 1.6342303188542595 0 0 0
1527 2 51.41291116801148 14.181538806974192 1.6388552461795534 0 0 0
2739 2 49.23372123320847 10.775661894759997 8.279524841287197 0 0 0
2740 2 49.237401610200315 10.762873425040194 4.90948802598029 0 0 0
2775 2 52.14154509097422 12.412875248878478 8.27360157416599 0 0 0
2776 2 52.14358797902938 12.401408039085814 4.903539029067503 0 0 0
2813 2 52.193145917267266 15.72865934994713 8.26216936012578 0 0 0
2814 2 52.19403111818833 15.721832052533863 4.892165687581868 0 0 0
116 1 52.45291091913333 9.20759746270173 29.951898708805878 0 0 -1
134 1 52.39269896384449 12.531511401866783 29.95769176266978 0 0 -1
135 1 55.29607661533934 10.893335028424236 29.942923056721877 0 0 -1
136 1 58.205120455311764 9.262791818565539 29.918611590462962 0 0 -1
153 1 52.343684635504005 15.857787701557285 29.961253410079873 0 0 -1
154 1 55.23896792217721 14.219123174072658 29.948768747660797 0 0 -1
155 1 58.13878633988679 12.587094793778707 29.928211025638653 0 0 -1
156 1 61.04453371501354 10.964440956031973 29.896779331750114 0 0 -1
175 1 55.192576155886485 17.54796843258362 29.95219057820742 0 0 -1
176 1 58.08411133673816 15.915236409958624 29.934777436514615 0 0 -1
177 1 60.98037173243752 14.290771751684677 29.908281668295217 0 0 -1
198 1 60.92745348428171 17.62158944837377 29.916258854276172 0 0 -1
757 3 54.061009050731585 12.391994994381252 6.590067446090777 0 0 0
758 3 56.90958353042864 10.70164280070282 6.599095124075226 0 0 0
776 3 54.112975986607736 15.708230127121993 6.578282017846377 0 0 0
777 3 56.9690742668241 14.018547767583557 6.5840147386573005 0 0 0
778 3 59.820591808773386 12.321673282820568 6.593438005824507 0 0 0
779 3 62.6662688222176 10.615186401956283 6.608337732006559 0 0 0
797 3 57.01909467879192 17.332259745800165 6.5747235785469025 0 0 0
798 3 59.87839448034613 15.636238849113624 6.5805963373613725 0 0 0
799 3 62.7328510453558 13.931577849804937 6.591757863003497 0 0 0
1493 2 54.37704536778753 9.212669704613925 1.6203885824922857 0 0 0
1529 2 54.31498732082857 12.53943645575959 1.6271421997014053 0 0 0
1531 2 57.22299879469717 10.903142880116745 1.6073357779340083 0 0 0
1533 2 60.13807487961218 9.275577047519715 1.5765777069596296 0 0 0
1567 2 54.26456370534913 15.869017820089917 1.6314112564956376 0 0 0
1569 2 57.16337901400982 14.232174950658848 1.6147125430430274 0 0 0
1571 2 60.06808776663826 12.602702752429527 1.5886227138872677 0 0 0
1611 2 57.11500768113234 17.56450836846874 1.6192915383390727 0 0 0
1613 2 60.01025862374308 15.934350823134041 1.597275779078605 0 0 0
2777 2 54.99006149339523 10.727562059298291 8.282202467446684 0 0 0
2778 2 54.99304986196328 10.713791337408283 4.912069904865704 0 0 0
2815 2 55.04895351880026 14.043733903443059 8.267512503045712 0 0 0
2816 2 55.050796474767964 14.034490012887586 4.897439749917206 0 0 0
2817 2 57.89970662126136 12.353134688171483 8.275586447989324 0 0 0
2818 2 57.904071104141046 12.341418262633876 4.905433057681545 0 0 0
2819 2 60.74392402549621 10.65430074504351 8.287911841029166 0 0 0
2820 2 60.752788930657445 10.640328153100889 4.917701938760985 0 0 0
2855 2 55.09817292301373 17.356710116538846 8.25832028883642 0 0 0
2856 2 55.09928799394111 17.35274247658113 4.888325956116331 0 0 0
2857 2 57.95661314291007 15.666521615082512 8.263051866229205 0 0 0
2858 2 57.95998488077338 15.660180142572912 4.892989545981955 0 0 0
2859 2 60.809552570462486 13.969350450670971 8.27186596612967 0 0 0
2860 2 60.817193021478346 13.96016811541836 4.90173452206148 0 0 0
2901 2 60.86534662417506 17.279799212750696 8.261917625449717 0 0 0
2902 2 60.87177155988744 17.2765750745581 4.891914916752803 0 0 0
157 1 63.95733055739501 9.35377077839196 29.852493931586164 0 0 -1
178 1 63.882863355681664 12.677246170209566 29.870409359293813 0 0 -1
179 1 66.79274605184712 11.076839075940535 29.820191874530934 0 0 -1
180 1 69.71045530750834 9.490536891230096 29.759336671638373 0 0 -1
199 1 63.82038489167518 16.005801234691617 29.88449206806232 0 0 -1
200 1 66.71991287023842 14.402071340668371 29.841957181152765 0 0 -1
201 1 69.6271819825403 12.811898247756458 29.788867682296424 0 0 -1
202 1 72.54249509999069 11.23527932362837 29.728318130832154 0 0 -1
221 1 66.65870707457236 17.732769394733616 29.859465428721414 0 0 -1
222 1 69.55582689707784 16.138733204399017 29.815248550406828 0 0 -1
223 1 72.46102029699101 14.557922459375337 29.76334745582021 0 0 -1
244 1 72.39116904835277 17.88589757059315 29.795234160461327 0 0 -1
800 3 65.58110688668035 12.21609147613101 6.610182344695701 0 0 0
801 3 68.42219957279444 10.488368031617563 6.63673902348356 0 0 0
820 3 62.789617339117804 17.243675090291028 6.581341651892882 0 0 0
821 3 65.64683559115784 15.53037508605049 6.5952175964877995 0 0 0
822 3 68.49746146755807 13.805556862491606 6.617497512138853 0 0 0
823 3 71.34058885502283 12.068616815897713 6.647958366502228 0 0 0
843 3 68.56269869978735 17.118017346283903 6.603559019789877 0 0 0
844 3 71.41527248907467 15.384316867550437 6.628880872924217 0 0 0
1573 2 62.97971609020491 10.98358138098242 1.550696431938357 0 0 0
1575 2 65.89848455800183 9.377749177756892 1.4999418592506983 0 0 0
1615 2 62.91123616148255 14.313032839091827 1.5652553732670753 0 0 0
1617 2 65.81890743429504 12.70331726027767 1.5215656739306582 0 0 0
1619 2 68.73340560892046 11.107598843282467 1.4664466200770472 0 0 0
1621 2 71.65367870341746 9.5271176881749 1.4032992470795023 0 0 0
1657 2 62.854515541840186 17.64740078439854 1.575905913715571 0 0 0
1659 2 65.75146331810535 16.035014674905852 1.539335991123841 0 0 0
1661 2 68.6549211854186 14.434900496647517 1.492471481076805 0 0 0
1663 2 71.56497751513416 12.84873274445726 1.4367982727531314 0 0 0
1703 2 68.58812118465926 17.76844876238058 1.5143428020991712 0 0 0
1705 2 71.48751952548814 16.177330051878915 1.4679776922282102 0 0 0
2861 2 63.655622890648615 12.26268674755994 8.286742664803231 0 0 0
2862 2 63.66950873352053 12.250421385717798 4.916589684745045 0 0 0
2863 2 66.49423004336424 10.544299442397048 8.309112639635755 0 0 0
2864 2 66.51539833135513 10.529116655027039 4.939039335232634 0 0 0
2903 2 63.72048618579038 15.575054478253831 8.27263615023326 0 0 0
2904 2 63.73264969578885 15.568311118364766 4.902605526927696 0 0 0
2905 2 66.56866011635798 13.85985463300805 8.2909067653133 0 0 0
2906 2 66.58798797184396 13.848972112556178 4.920910512935419 0 0 0
2907 2 69.40965477571193 12.132461749242593 8.317512486624873 0 0 0
2908 2 69.43586167942175 12.117421522122102 4.947663078952151 0 0 0
2909 2 72.24450310416546 10.392298866430103 8.350852677257006 0 0 0
2910 2 72.27467852777296 10.374079775443244 4.981317251002249 0 0 0
2947 2 66.63338817154349 17.169878147013037 8.278393589883922 0 0 0
2948 2 66.65009697759638 17.16481187195105 4.908567680850753 0 0 0
2949 2 69.48388182121425 15.446083815660254 8.299970408415156 0 0 0
2950 2 69.50744882783985 15.4356718107935 4.930246625312981 0 0 0
2951 2 72.32765080852369 13.710240503830779 8.329520014106995 0 0 0
2952 2 72.35620024551693 13.694550816306057 4.960001139940917 0 0 0
2993 2 72.40162534131164 17.022705037448556 8.3118139127607 0 0 0
2994 2 72.42677110629971 17.0114679487416 4.942457270358843 0 0 0
203 1 75.46500222324367 9.670199384239334 29.666895132565443 0 0 -1
224 1 75.37435533120183 12.989358296241216 29.70776922577083 0 0 -1
225 1 78.29465053163712 11.430265561737025 29.655273345710928 0 0 -1
226 1 81.21967631456337 9.876805964148414 29.613552520964575 0 0 -1
245 1 75.29500776639908 16.31286314807107 29.748881019279732 0 0 -1
246 1 78.20689475030537 14.750332350935187 29.702331699380895 0 0 -1
247 1 81.12533377707595 13.195211729987108 29.66176250029821 0 0 -1
269 1 81.04141664131313 16.515384913035554 29.714470361117463 0 0 -1
824 3 74.17626514767763 10.32057631204982 6.683471887030349 0 0 0
845 3 74.26011126991344 13.639388982228617 6.661096166676612 0 0 0
846 3 77.09758865581995 11.88514805064891 6.695598814750548 0 0 0
847 3 79.92924774121177 10.124757271086688 6.726019082873986 0 0 0
866 3 74.33406183463771 16.954225312186786 6.64137603559953 0 0 0
867 3 77.18013777068794 15.203090410542186 6.67252019619083 0 0 0
868 3 80.0191250808938 13.444604882850633 6.7029229854762455 0 0 0
869 3 82.85280101490058 11.682007064127456 6.726604489918932 0 0 0
889 3 80.09954479936404 16.76253818035219 6.679209040563868 0 0 0
890 3 82.9396123417711 15.001640501139342 6.703371602945654 0 0 0
1665 2 74.48055147738881 11.276703720736677 1.3769470246227384 0 0 0
1667 2 77.39964650522155 9.716657392234476 1.320521808586616 0 0 0
1707 2 74.39350409317771 14.599374557832812 1.4162221142972289 0 0 0
1709 2 77.30500773897737 13.033890451250976 1.3641491662270813 0 0 0
1711 2 80.2201475846004 11.478211408485711 1.3187848780632418 0 0 0
1713 2 83.13715395435202 9.928183112847693 1.286824160341415 0 0 0
1751 2 77.22032696981118 16.357253333106563 1.409516608990178 0 0 0
1753 2 80.12893599479469 14.796545942628846 1.3684172874126885 0 0 0
1755 2 83.04132315062525 13.243635872651748 1.3360194327416666 0 0 0
1799 2 82.95526457805563 16.562649526228814 1.390431889938151 0 0 0
2953 2 75.16594176183153 11.962632368429718 8.363881189228767 0 0 0
2954 2 75.19507456012411 11.943097953271673 4.994652390763519 0 0 0
2955 2 78.00058542110561 10.205299810406935 8.397339556476284 0 0 0
2956 2 78.02470907909726 10.184716497653747 5.028342575209424 0 0 0
2995 2 75.24812967909574 15.27962338875892 8.342002899367507 0 0 0
2996 2 75.2754045919774 15.262392817790857 4.972819354323915 0 0 0
2997 2 78.08960929294881 13.52625015216763 8.374297663207273 0 0 0
2998 2 78.11398900487482 13.505072105304023 5.005261234761011 0 0 0
2999 2 80.92765177864301 11.765182209425008 8.40269786767262 0 0 0
3000 2 80.94407654004607 11.743105245772826 5.033732473817686 0 0 0
3039 2 78.16984090320793 16.843094126760814 8.35157316100378 0 0 0
3040 2 78.19277250707822 16.82388248472459 4.982594543819354 0 0 0
3041 2 81.01373579703952 15.085626137556888 8.379202272505236 0 0 0
3042 2 81.03103917628162 15.06298395252981 5.010207305288092 0 0 0
18 1 89.80170808945462 11.85825154790596 29.672537661657415 -1 0 -1
35 1 92.56025622542238 16.93268372202571 29.78280519412622 -1 0 -1
248 1 84.0479986996255 11.643787109283208 29.63352705875042 0 0 -1
249 1 86.9725682977366 10.092578133158797 29.62167028060515 0 0 -1
270 1 83.95854027141496 14.96231374531868 29.68702806672093 0 0 -1
271 1 86.87935436069873 13.411075263137079 29.67222185295706 0 0 -1
292 1 86.79633751397087 16.728324753880436 29.728005005667892 0 0 -1
293 1 89.71602153292594 15.175242811809158 29.72469593793866 0 0 -1
870 3 85.68327867612182 9.918604156014803 6.739446688445383 0 0 0
891 3 85.77494803543857 13.238525768114316 6.71890785634125 0 0 0
892 3 88.60754007690731 11.47635263807629 6.7229383063838615 0 0 0
912 3 85.85723938233846 16.55925328001095 6.697290800730861 0 0 0
913 3 88.69368452244484 14.79736310325789 6.704444579698866 0 0 0
935 3 91.6068008885029 16.361855113803703 6.686714780706111 0 0 0
1757 2 85.95589431065905 11.694368389089522 1.3175719835857183 0 0 0
1759 2 88.87187074071424 10.14455597298534 1.3154760377237633 0 0 0
1801 2 85.86639469854147 15.010975117178367 1.371120296762254 0 0 0
1803 2 88.78001920339806 13.46084957890616 1.3651646650094973 0 0 0
1845 2 88.69923956109103 16.777434749524186 1.4191836025340137 0 0 0
1847 2 91.61347603344447 15.224425414287127 1.4229457816272801 0 0 0
3001 2 83.76351951229938 10.000180748892964 8.421986150367736 0 0 0
3002 2 83.7687893331906 9.97979507632146 5.053012842052019 0 0 0
3043 2 83.85433945360361 13.322460116569872 8.40051415169389 0 0 0
3044 2 83.8618451660493 13.29941819364979 5.031475476709057 0 0 0
3045 2 86.69270291513935 11.55743130280819 8.411383566462463 0 0 0
3046 2 86.68838751884937 11.53611984255281 5.0422925488732275 0 0 0
3085 2 83.93565488716911 16.64315330891616 8.377723995934847 0 0 0
3086 2 83.94566319326995 16.62033508789558 5.008626867328652 0 0 0
3087 2 86.77778543287977 14.879435216847844 8.391089360923974 0 0 0
3088 2 86.77725327907596 14.85718862811354 5.02187014781722 0 0 0
3089 2 89.61758941341452 13.115915398088541 8.39339819786399 0 0 0
3090 2 89.60568510781304 13.09585172761752 5.024081484593484 0 0 0
3131 2 89.6950476110931 16.43889313306423 8.37700719678379 0 0 0
3132 2 89.68878156424256 16.420248503022197 5.007564524076742 0 0 0
196 1 55.15494943196823 20.879733227798493 29.95393433612428 0 0 -1
197 1 58.039526974368464 19.247095862682563 29.93872190225598 0 0 -1
218 1 58.00283802289803 22.582468047990595 29.941058809413196 0 0 -1
219 1 60.88390570243756 20.956696938716096 29.921464919144185 0 0 -1
239 1 57.97163436281137 25.921134797576503 29.942834551982884 0 0 -1
240 1 60.84738043618398 24.295789524434 29.925171974939627 0 0 -1
796 3 54.15639352028215 19.022020733703464 6.572025879884096 0 0 0
818 3 57.06125529424744 20.643045926191697 6.571496890832351 0 0 0
819 3 59.92723703905397 18.947164873461944 6.574219994510024 0 0 0
839 3 57.097561970973324 23.951130094813568 6.573785777718287 0 0 0
840 3 59.96894737005462 22.25477368383796 6.5742181290121104 0 0 0
861 3 60.005625038370766 25.559352696567622 6.579806365733109 0 0 0
1609 2 54.22409852563785 19.200881098512074 1.6336658729258686 0 0 0
1653 2 57.07586355304258 20.899608765594937 1.6218539168738177 0 0 0
1655 2 59.96311023460004 19.269742721054293 1.6028501005196685 0 0 0
1695 2 57.04347577481834 24.237228963057063 1.6234310787631092 0 0 0
1697 2 59.92435977328347 22.608312201659697 1.606423212974802 0 0 0
1739 2 59.89141336594102 25.949786998994785 1.6092021568337445 0 0 0
2897 2 55.13925414293244 20.667137777392455 8.254810993160838 0 0 0
2898 2 55.140292211638965 20.66822428526327 4.884882707534441 0 0 0
2899 2 58.00439639655964 18.976379998535478 8.25672501546397 0 0 0
2900 2 58.00716515405496 18.97577769216611 4.886765904499063 0 0 0
2941 2 58.0448423510115 22.28334081352468 8.256459954441 0 0 0
2942 2 58.04757516726536 22.288006509203957 4.8865840753993 0 0 0
2943 2 60.912683993261865 20.586475047096318 8.258615500793926 0 0 0
2944 2 60.91814605150728 20.589202679161165 4.888748406289241 0 0 0
2983 2 58.08005673333396 25.58779217030813 8.261489944900786 0 0 0
2984 2 58.0833456309176 25.596857829400523 4.891662960391109 0 0 0
2985 2 60.953520479719565 23.890026084409442 8.261500419244738 0 0 0
2986 2 60.958409080819415 23.89798794833213 4.891742813425667 0 0 0
3027 2 60.990016825026245 27.19090155110694 8.269598815387615 0 0 0
3028 2 60.994713628523506 27.203035483870348 4.8999120449188975 0 0 0
220 1 63.7686069087629 19.33935514449811 29.894704169780077 0 0 -1
241 1 63.72545658848985 22.677603424257313 29.902113817686256 0 0 -1
242 1 66.60760297687747 21.068759371509678 29.872960887777 0 0 -1
243 1 69.49564919905121 19.471147399899348 29.83722972258174 0 0 -1
263 1 63.68850914714345 26.02011159109507 29.908213664007338 0 0 -1
264 1 66.5644262341164 24.4095995048308 29.88374975089171 0 0 -1
265 1 69.44499643842671 22.808842086227656 29.855209989470886 0 0 -1
266 1 72.33204531579415 21.219208110462223 29.822709266008975 0 0 -1
286 1 69.40166876314119 26.15122263848435 29.870570210538652 0 0 -1
287 1 72.28194478919619 24.55741189708764 29.846103603652114 0 0 -1
841 3 62.8379883569572 20.55181909485081 6.577731124450841 0 0 0
842 3 65.70312623613161 18.84017391545373 6.586784096257088 0 0 0
862 3 62.87993206389889 23.856413052293018 6.580498797328601 0 0 0
863 3 65.7515762712832 22.1459112635225 6.585096252209109 0 0 0
864 3 68.61888751158149 20.426060713549226 6.596019700376124 0 0 0
865 3 71.48015941092778 18.695586331046965 6.614879856154115 0 0 0
883 3 62.917582643202735 27.157844646618386 6.588641577856131 0 0 0
884 3 65.79421881509637 25.448096919238463 6.589471031860152 0 0 0
885 3 68.66771747884233 23.730208316513494 6.594818204657987 0 0 0
886 3 71.53633651279893 22.00282388863079 6.606787576957066 0 0 0
906 3 68.71122247190141 27.031087471671643 6.599127890404291 0 0 0
907 3 71.58551933466181 25.30664896126395 6.604467974804565 0 0 0
1699 2 62.80777618912704 20.985839845316477 1.5833042117396725 0 0 0
1701 2 65.69521267816665 19.371865967090827 1.5528887289873359 0 0 0
1741 2 62.76858645364263 24.327723005160102 1.5887974084112224 0 0 0
1743 2 65.64821269905615 22.712942823905525 1.5631708082746076 0 0 0
1745 2 68.5319021124601 21.10718916124713 1.5319112138190456 0 0 0
1747 2 71.42125156156166 19.51206391129938 1.494961898067853 0 0 0
1787 2 65.60799165671204 26.05753477797408 1.5717264626433212 0 0 0
1789 2 68.48429716293678 24.450094512895173 1.5462887553468325 0 0 0
1791 2 71.36506244630638 22.851780395706047 1.5176359141749376 0 0 0
1833 2 71.3170720049331 26.19533608879792 1.5370738827426675 0 0 0
2945 2 63.77602855941203 18.88270946221315 8.265136764928311 0 0 0
2946 2 63.786263947838854 18.882168115897354 4.89527691254608 0 0 0
2987 2 63.82382478333142 22.186495778843533 8.264370622213784 0 0 0
2988 2 63.83216150158038 22.191814363823283 4.894683712283102 0 0 0
2989 2 66.68936403978749 20.475260396884572 8.27253595209345 0 0 0
2990 2 66.70296826588788 20.476270099432835 4.902925110748558 0 0 0
2991 2 69.54883231071436 18.75445720981286 8.288106235238406 0 0 0
2992 2 69.56864234362266 18.749714329307473 4.918599333218009 0 0 0
3029 2 63.865899782188784 25.48711854507147 8.269607673021579 0 0 0
3030 2 63.87251475952267 25.497347168719877 4.900062466374005 0 0 0
3031 2 66.73823763411312 23.776880152243248 8.273137019205537 0 0 0
3032 2 66.74855180010472 23.783359289089784 4.903736804104844 0 0 0
3033 2 69.60552334889702 22.05847670963926 8.282537267676135 0 0 0
3034 2 69.62088540489593 22.059380429054954 4.913281000476181 0 0 0
3035 2 72.46664259539432 20.330427687287553 8.299348430991792 0 0 0
3036 2 72.48710964790692 20.324419824733795 4.930231370819653 0 0 0
3073 2 66.78200327120102 27.07554155664886 8.279276491831972 0 0 0
3074 2 66.78906192972254 27.086340430238856 4.910050367881048 0 0 0
3075 2 69.65557277641675 25.359079766399717 8.282905942780669 0 0 0
3076 2 69.66622642578145 25.364867666413996 4.913884886467239 0 0 0
3077 2 72.52369558558647 23.634323297503204 8.292634176207116 0 0 0
3078 2 72.53881366103468 23.633428981102504 4.923770573941348 0 0 0
3119 2 72.57434058960466 26.935409274209714 8.291317504662963 0 0 0
3120 2 72.5839748533348 26.938825221036158 4.922674604074303 0 0 0
267 1 75.22697772295277 19.641165773370336 29.786862559925957 0 0 -1
268 1 78.13031383600445 18.073932241737687 29.74952769459029 0 0 -1
288 1 75.16927811526017 22.974136994475774 29.8201825904532 0 0 -1
289 1 78.06478935356309 21.40136117030454 29.793104567997418 0 0 -1
290 1 80.96861839859064 19.837891846788107 29.76631219893796 0 0 -1
310 1 75.1201544574372 26.31122595646615 29.848897673126817 0 0 -1
311 1 78.0092061869619 24.73239108019082 29.831167544768466 0 0 -1
312 1 80.90658571901874 23.16289757866369 29.81323137465958 0 0 -1
333 1 80.85395023645539 26.490204843199617 29.853233304606793 0 0 -1
887 3 74.39841364869609 20.265280080420208 6.62619211481752 0 0 0
888 3 77.2528432322071 18.51797550661945 6.651633532353641 0 0 0
908 3 74.45430712514158 23.57303925122345 6.616387763742095 0 0 0
909 3 77.31608159675996 21.830100744241033 6.634897313640513 0 0 0
910 3 80.17009032315922 20.07869079867333 6.6576859987678265 0 0 0
911 3 83.01668214146352 18.32078276687723 6.680276966955441 0 0 0
929 3 74.50345352941848 26.878188327844008 6.611907985484084 0 0 0
930 3 77.37103999497812 25.139998455821328 6.623279915687204 0 0 0
931 3 80.23126676341602 23.393418106121235 6.640372586010312 0 0 0
932 3 83.08383112661932 21.639676980197677 6.660017002249061 0 0 0
952 3 80.28440438893519 26.707175575296883 6.628065372871712 0 0 0
953 3 83.14186182034781 24.958581436199232 6.6441208904309255 0 0 0
1749 2 74.31737309264687 17.928688973730136 1.4532707512292096 0 0 0
1793 2 74.2520820865239 21.263734137336314 1.486063919826605 0 0 0
1795 2 77.14645737973154 19.68658877701706 1.4524953195190276 0 0 0
1797 2 80.04799542053145 18.12010331598137 1.4192456297480431 0 0 0
1835 2 74.19659225269923 24.603224385983967 1.514290374243098 0 0 0
1837 2 77.08330880024305 23.02083006907232 1.490711021525593 0 0 0
1839 2 79.97801857364492 21.448469411079493 1.466764885036839 0 0 0
1841 2 82.88005713422064 19.885466113314315 1.4443565671938834 0 0 0
1881 2 77.02980202159907 26.358575089152467 1.5235453459899135 0 0 0
1883 2 79.91866518477124 24.78041335684617 1.5083403056555633 0 0 0
1885 2 82.81587820684574 23.211386029804185 1.4932452767554354 0 0 0
1927 2 82.7618080990909 26.539231953466658 1.5346691959404026 0 0 0
3037 2 75.32122983446212 18.591891391162964 8.323287695551317 0 0 0
3038 2 75.34488285666369 18.57868504236919 4.954274993647346 0 0 0
3079 2 75.38546177046324 21.90016787819515 8.309314348828618 0 0 0
3080 2 75.4044007444319 21.89175634574239 4.940523762930821 0 0 0
3081 2 78.24077420781484 20.15621713961742 8.331718663451133 0 0 0
3082 2 78.26097499768491 20.14076361404411 4.962891105534106 0 0 0
3083 2 81.09040573856007 18.40318689454579 8.356254999599475 0 0 0
3084 2 81.10774795364588 18.38260535380186 4.9873022088281385 0 0 0
3121 2 75.44183005958944 25.20542124054946 8.300675702147814 0 0 0
3122 2 75.45561120163184 25.201741834636447 4.9321021426436165 0 0 0
3123 2 78.3027711511661 23.466411265909176 8.316413839782841 0 0 0
3124 2 78.31952932121379 23.45559518048643 4.947772901864908 0 0 0
3125 2 81.15745211168073 21.718371596940777 8.336425682427048 0 0 0
3126 2 81.1741631127469 21.701713421532556 4.967600300144892 0 0 0
3165 2 78.35706095692392 26.77469471852081 8.306232700514919 0 0 0
3166 2 78.3700401133473 26.76844117112598 4.937775149622848 0 0 0
3167 2 81.21569918551754 25.032045201520422 8.32118781141899 0 0 0
3168 2 81.23118825133275 25.02004341528962 4.952535573213751 0 0 0
291 1 83.87977695760715 18.281325799212848 29.743103907008827 0 0 -1
313 1 83.81202035395512 21.601211005434116 29.79626303253747 0 0 -1
314 1 86.72418270534331 20.044635384939507 29.783284955438763 0 0 -1
315 1 89.64100308480889 18.489692967767592 29.778033739252947 0 0 -1
334 1 83.75448698052996 24.922149826424814 29.842692111272477 0 0 -1
335 1 86.6625749329134 23.360400440621437 29.833194786937423 0 0 -1
336 1 89.5765502231856 21.801974569365605 29.827636176086262 0 0 -1
337 1 92.49421265826744 20.243246389313487 29.82892251416795 0 0 -1
357 1 86.61018935982256 26.67595224952726 29.8748057077701 0 0 -1
358 1 89.52162580159315 25.112611546777224 29.86992206537313 0 0 -1
359 1 92.43778873646104 23.55083719007537 29.868901151421884 0 0 -1
380 1 92.38933695389444 26.856132309205428 29.90063108750064 0 0 -1
933 3 85.92949761903512 19.881088276723812 6.677319933736505 0 0 0
934 3 88.76985744193709 18.120722566945037 6.687271965046793 0 0 0
954 3 85.99202677782351 23.204175020880495 6.660816756503147 0 0 0
955 3 88.83603866236629 21.446604023530366 6.6730037323959595 0 0 0
956 3 91.67564215952983 19.689087459599687 6.676341260460325 0 0 0
975 3 86.04605112015119 26.528512602660797 6.648178634449284 0 0 0
976 3 88.89313676873282 24.774881139087174 6.661928518861741 0 0 0
977 3 91.73507935179387 23.019764806775953 6.668930172448913 0 0 0
998 3 91.78655257460318 26.353500357848446 6.663316221006804 0 0 0
1843 2 85.78772485658192 18.32966230361603 1.427124566043937 0 0 0
1887 2 85.72022947712621 21.650235902145 1.4800693604276693 0 0 0
1889 2 88.6298402267997 20.094222657935973 1.4721050145094856 0 0 0
1891 2 91.54306123382518 18.53935671511035 1.4724793921822812 0 0 0
1929 2 85.66322762513272 24.971987125653182 1.5260604971994243 0 0 0
1931 2 88.5711342725711 23.410930826335676 1.5194315953768647 0 0 0
1933 2 91.48357382148284 21.85275742989668 1.5177467123206252 0 0 0
1975 2 88.52161036803503 26.727115010523935 1.558427182375766 0 0 0
1977 2 91.43344430005158 25.164519016326857 1.5556899722850284 0 0 0
3127 2 84.00690304157638 19.96253080452724 8.356484081536491 0 0 0
3128 2 84.01935795040986 19.942483053348887 4.987418499557243 0 0 0
3129 2 86.85242406894564 18.20149327927093 8.371419039631848 0 0 0
3130 2 86.85663051133838 18.180978037647584 5.002139085591028 0 0 0
3169 2 84.06857637353441 23.281246246029262 8.338856500079894 0 0 0
3170 2 84.08297128437884 23.26540884374662 4.969925813617948 0 0 0
3171 2 86.91691365181374 21.524130256144314 8.354465828449104 0 0 0
3172 2 86.92589088043897 21.507120205888203 4.98524898971947 0 0 0
3173 2 89.76189556486538 19.763817071624608 8.363099197954353 0 0 0
3174 2 89.76201831085098 19.748222019583093 4.993651642058727 0 0 0
3175 2 92.60423608441475 18.00418202154257 8.361615338093891 0 0 0
3176 2 92.5944217413659 17.99156432095464 4.991977437725302 0 0 0
3211 2 84.1221368913522 26.600061237043207 8.325518505121986 0 0 0
3212 2 84.13749734036858 26.588547015874177 4.956770395576797 0 0 0
3213 2 86.97256300278777 24.847923311496533 8.341067032774683 0 0 0
3214 2 86.98539874987743 24.83482562014949 4.972006851468571 0 0 0
3215 2 89.81932037794671 23.091172536088134 8.35225020192114 0 0 0
3216 2 89.82536282461966 23.07898520927528 4.982904602107736 0 0 0
3217 2 92.66331409892295 21.333352693143404 8.354798623075306 0 0 0
3218 2 92.66004560994766 21.323990641288017 4.985214678194791 0 0 0
3257 2 89.86918867731535 26.421158881863715 8.343858370247393 0 0 0
3258 2 89.879723424189 26.411626511731864 4.9746869515625605 0 0 0
3259 2 92.71424638740888 24.666293826987975 8.350169979441725 0 0 0
3260 2 92.71656223668238 24.659148910030254 4.980719893682015 0 0 0
58 1 95.35636611151669 21.986829773261903 29.873691427090996 -1 0 -1
87 1 98.1841131152343 27.019060115147415 29.925158247183738 -1 0 -1
381 1 95.30747872395612 25.289922341572627 29.90206812489809 0 0 -1
978 3 94.57371053934172 21.2665014297209 6.666022908596339 0 0 0
999 3 94.62644257866445 24.601920132874856 6.664721654346279 0 0 0
1021 3 97.51094927834913 26.1933530762495 6.658823093910113 0 0 0
1935 2 94.39902506145806 20.293136713148492 1.523053202422461 0 0 0
1979 2 94.34872950313915 23.602411396453626 1.557632324348905 0 0 0
2021 2 94.30589000876343 26.90905650764676 1.5842303695848503 0 0 0
2023 2 97.22330579016733 25.341559279353724 1.5880770783857705 0 0 0
3261 2 95.55704243517438 22.912514731206443 8.346743874639406 0 0 0
3262 2 95.55013042751122 22.90884872295721 4.9770277012204724 0 0 0
3303 2 95.60249844946804 26.25092164447549 8.346895875538523 0 0 0
3304 2 95.59983357554994 26.24761959656648 4.97734199473214 0 0 0
262 1 60.815417164446814 27.638546432082013 29.928557477827596 0 0 -1
283 1 60.78563638166774 30.98468984760988 29.932264329500057 0 0 -1
882 3 60.03937187714111 28.861136458074544 6.589914672469953 0 0 0
1783 2 59.86167721421133 29.29416792492838 1.6120179812744697 0 0 0
3069 2 61.024318013138796 30.489451452686534 8.281711393329337 0 0 0
3070 2 61.02906105479141 30.50449203653803 4.912062902398078 0 0 0
284 1 63.65530417855732 29.36642503579057 29.91427362189932 0 0 -1
285 1 66.52674042954854 27.75470309938902 29.893448876162303 0 0 -1
306 1 63.62350055691653 32.71612611476957 29.920909513502725 0 0 -1
307 1 66.49212090624572 31.103465147829898 29.903323750334163 0 0 -1
308 1 69.36325125676748 29.497552293075046 29.884888488606336 0 0 -1
309 1 72.23866559321554 27.899781443021006 29.866660300705927 0 0 -1
328 1 66.4582850293172 34.45531191391602 29.91385266485703 0 0 -1
329 1 69.32736805690095 32.84708699452542 29.899266289606437 0 0 -1
330 1 72.19981569425067 31.245480651042076 29.885742741131413 0 0 -1
352 1 72.16305685228375 34.59369082342518 29.904156801176345 0 0 -1
904 3 62.953010926910366 30.456470134045915 6.600868423443337 0 0 0
905 3 65.83316758652586 28.74724569535201 6.59871361882683 0 0 0
925 3 62.988161349090376 33.75263900442747 6.615628440575673 0 0 0
926 3 65.87044112320758 32.043855910336916 6.611282399911544 0 0 0
927 3 68.75147108737943 30.32934170216987 6.607613388043264 0 0 0
928 3 71.6297107217682 28.607789874966628 6.607073398074776 0 0 0
947 3 65.90790947089641 35.338429771954026 6.625288561529092 0 0 0
948 3 68.79041362169008 33.6256009540192 6.618532290946306 0 0 0
949 3 71.67092457230238 31.90697887227298 6.6131997436632 0 0 0
970 3 71.71105834478622 35.204911933611264 6.62100451874342 0 0 0
1785 2 62.73430544636963 27.672718936055848 1.593740100087319 0 0 0
1827 2 62.702352209648765 31.02076446682191 1.5989884254439826 0 0 0
1829 2 65.57194436159713 29.405228827589294 1.579983503970251 0 0 0
1831 2 68.44289792903926 27.79635396326711 1.5590774051851661 0 0 0
1871 2 62.670299427445926 34.371946487037924 1.6046232251702044 0 0 0
1873 2 65.53756359292356 32.755876478197905 1.588741703945762 0 0 0
1875 2 68.40519689088131 31.145465485566543 1.5716379346147307 0 0 0
1877 2 71.27497411234276 29.541825174189714 1.5547473326448267 0 0 0
1917 2 68.36879685874887 34.49718964689586 1.5845779848958264 0 0 0
1919 2 71.23635380769353 32.890675781540004 1.571788256222658 0 0 0
3071 2 63.904388479605295 28.785150452998508 8.279671762593816 0 0 0
3072 2 63.90946850243412 28.79899673236762 4.910225985775066 0 0 0
3113 2 63.94137453207236 32.08113032672372 8.29309246868382 0 0 0
3114 2 63.944983454930146 32.09699635233376 4.923713889827177 0 0 0
3115 2 66.82271562912106 30.37198042093581 8.289586083917916 0 0 0
3116 2 66.82663481204956 30.385558055712323 4.92048651077897 0 0 0
3117 2 69.70089036657687 28.657193934515085 8.288196719326232 0 0 0
3118 2 69.70690142162091 28.66656994532004 4.919362170219279 0 0 0
3155 2 63.97883272631562 35.37563543728345 8.308080570941652 0 0 0
3156 2 63.980831654161236 35.39155687676942 4.938752487257774 0 0 0
3157 2 66.86234388673736 33.66691957561259 8.302326898507296 0 0 0
3158 2 66.863210409217 33.6813611450063 4.933314386334996 0 0 0
3159 2 69.74342366449022 31.953706380121623 8.296903519150113 0 0 0
3160 2 69.74503167662957 31.964945403968763 4.92819517114626 0 0 0
3161 2 72.62042828691501 30.234719622221526 8.294360373647077 0 0 0
3162 2 72.62480518317618 30.241084595737266 4.9258784642907125 0 0 0
3201 2 69.7850209524374 35.24945088441215 8.307117194690267 0 0 0
3202 2 69.78254507149968 35.26047916630033 4.938482845760648 0 0 0
3203 2 72.66385571860377 33.53320818719305 8.300180133277216 0 0 0
3204 2 72.66339797856298 33.54073118856387 4.93179642726853 0 0 0
331 1 75.07737702983795 29.65165855725067 29.873984650817803 0 0 -1
332 1 77.96169209365442 28.06647573766645 29.863515490489966 0 0 -1
353 1 75.03855509284641 32.99460243171296 29.896539365139716 0 0 -1
354 1 77.91995217580116 31.402932350328907 29.8909474740506 0 0 -1
355 1 80.80865774419941 29.81942549538933 29.886145435331365 0 0 -1
375 1 77.88158610997935 34.74106053689547 29.914427175263956 0 0 -1
376 1 80.76834119386034 33.15009497018667 29.912821797976427 0 0 -1
950 3 74.54783184980221 30.18148370145218 6.6119163183306675 0 0 0
951 3 77.41946791048511 28.448319367575785 6.616716486361797 0 0 0
971 3 74.58943942459422 33.48364423901779 6.614948759928755 0 0 0
972 3 77.46338279843863 31.75571404024 6.614243354250599 0 0 0
973 3 80.33137938397792 30.02043096043388 6.62036777848992 0 0 0
974 3 83.19235899209922 28.277719206740088 6.632704034693419 0 0 0
993 3 77.50480572841177 35.06276540133247 6.6143289227084665 0 0 0
994 3 80.37427381774542 33.33360950455582 6.616076866429129 0 0 0
995 3 83.23734397800388 31.597275480250026 6.6248567894852 0 0 0
1016 3 83.27895853379962 34.917378106002424 6.619263432272037 0 0 0
1879 2 74.14909350885702 27.945915555059177 1.5387907044363516 0 0 0
1921 2 74.10731632217595 31.290858058060955 1.560776289104622 0 0 0
1923 2 76.98404610353813 29.69857737940362 1.5515960890980143 0 0 0
1925 2 79.86856377525737 28.1145764469991 1.5432478628821136 0 0 0
1965 2 74.06885044533674 34.6374769522243 1.5811000448749157 0 0 0
1967 2 76.94368598785371 33.03997174025267 1.5758752065276782 0 0 0
1969 2 79.82560187121595 31.449904423971226 1.572050272125926 0 0 0
1971 2 82.71605106842215 29.867931997497664 1.568165010594262 0 0 0
2011 2 79.78729408241907 34.78575659701446 1.595750400379948 0 0 0
2013 2 82.67627572480754 33.196778056576036 1.5945005071879728 0 0 0
3163 2 75.49193839590852 28.50873369134013 8.297050101715755 0 0 0
3164 2 75.5005655587721 28.508985488523837 4.928657303343487 0 0 0
3205 2 75.53769983752802 31.81114742599983 8.297339303607398 0 0 0
3206 2 75.54142366248627 31.81392688070365 4.929075980949339 0 0 0
3207 2 78.4054701656869 30.082099546809253 8.300691352645924 0 0 0
3208 2 78.41450352262038 30.079490310127788 4.932390965248499 0 0 0
3209 2 81.26679881006999 28.3451360591034 8.310705344255265 0 0 0
3210 2 81.28041068775742 28.337409785508378 4.942229223805651 0 0 0
3247 2 75.58102983418235 35.113526037782734 8.299915946711133 0 0 0
3248 2 75.58026856528436 35.117076217971466 4.93173154313849 0 0 0
3249 2 78.45002239987346 33.38949072749433 8.298542346878401 0 0 0
3250 2 78.45505594519155 33.38906894090393 4.930359757603925 0 0 0
3251 2 81.31281034474779 31.658412727992694 8.304124305549967 0 0 0
3252 2 81.32384188235545 31.653815791177646 4.935803345783701 0 0 0
3293 2 81.35581709819144 34.9723506969762 8.300093427533747 0 0 0
3294 2 81.3636778189856 34.96948402844983 4.931898943469874 0 0 0
356 1 83.7054631649557 28.244124323801245 29.880794914527055 0 0 -1
377 1 83.6627205110518 31.567009768459545 29.910746572182234 0 0 -1
378 1 86.5650001336022 29.99152893436208 29.907283517709203 0 0 -1
379 1 89.47442958346281 28.42213952534281 29.9031654555155 0 0 -1
399 1 83.62385910869199 34.89063218851359 29.933662820897858 0 0 -1
400 1 86.52467975876111 33.307298419932096 29.931332018564575 0 0 -1
401 1 89.43275013437068 31.731038065903608 29.927395310526784 0 0 -1
402 1 92.34676716452887 30.15981953669611 29.92355358322782 0 0 -1
422 1 89.39427776247854 35.0397122597013 29.9438690776394 0 0 -1
423 1 92.30784076489289 33.46251986230663 29.93846487057065 0 0 -1
996 3 86.09341773903148 29.854023715477226 6.638656344405651 0 0 0
997 3 88.94277581773295 28.105266525076377 6.653219355976588 0 0 0
1017 3 86.13626386551478 33.18058129431703 6.631003219900815 0 0 0
1018 3 88.98700854110358 31.43740083933151 6.645539158462223 0 0 0
1019 3 91.83199399621037 29.689780755535054 6.657879460596494 0 0 0
1039 3 89.02801713790603 34.77089622389978 6.6377195287577715 0 0 0
1040 3 91.87355090966003 33.02805702123046 6.65120936219693 0 0 0
1973 2 85.61514489300467 28.29406059518133 1.5633590116780898 0 0 0
2015 2 85.57383366876697 31.615815219799572 1.592030094102836 0 0 0
2017 2 88.4792118075667 30.042360776976484 1.5882807660734686 0 0 0
2019 2 91.39059739255043 28.474538917976755 1.5848610025409051 0 0 0
2059 2 85.53684799606842 34.93694977574925 1.6132142602508284 0 0 0
2061 2 88.44160733346209 33.356461160384086 1.6096944011953953 0 0 0
2063 2 91.3527417619429 31.782785576985255 1.6053749998963622 0 0 0
2105 2 91.31756327475424 35.08937045388575 1.6185221994091639 0 0 0
3253 2 84.16960658694369 29.91956786838664 8.315932302169731 0 0 0
3254 2 84.18464098547844 29.9115096764779 4.947370740455339 0 0 0
3255 2 87.02132245569334 28.173252742233633 8.330801566468523 0 0 0
3256 2 87.036438849364 28.163364262176234 4.961939587465138 0 0 0
3295 2 84.2131631795479 33.240051678741686 8.30891976590224 0 0 0
3296 2 84.22653432869232 33.23419519605778 4.940530653699716 0 0 0
3297 2 87.06540260716758 31.500171058880376 8.3225287389956 0 0 0
3298 2 87.08095477327018 31.492298680226853 4.953876077699375 0 0 0
3299 2 89.91369195657362 29.75360691878208 8.336625000396797 0 0 0
3300 2 89.92679048990846 29.7454579461178 4.967669243965225 0 0 0
3301 2 92.75915577096208 28.00269609444007 8.346079977381033 0 0 0
3302 2 92.76547867057835 27.99624393667216 4.976820615597526 0 0 0
3339 2 87.1069649483249 34.82839947971599 8.315062530969989 0 0 0
3340 2 87.12122004868854 34.82149900358547 4.946611823295539 0 0 0
3341 2 89.95504912850686 33.088009183092616 8.329218612767983 0 0 0
3342 2 89.96872334187222 33.080115428735276 4.96049598984491 0 0 0
3343 2 92.8002611900657 31.34188268201365 8.340885626142882 0 0 0
3344 2 92.808814147741 31.33476858027695 4.971856040860512 0 0 0
3387 2 92.83966264467608 34.682938674471146 8.33355111502738 0 0 0
3388 2 92.84878827837767 34.67452118988507 4.9647740946281775 0 0 0
122 1 101.0309101626396 32.033481030370815 29.939233335490982 -1 0 -1
403 1 95.26468405389697 28.59045666513034 29.922266331957385 0 0 -1
424 1 95.22580550699973 31.889150601272135 29.934646166839624 0 0 -1
425 1 98.14587773674802 30.31594869846691 29.934578604588655 0 0 -1
446 1 95.18869353860912 35.18665292089195 29.94056958855345 0 0 -1
447 1 98.10967530091686 33.61087477391104 29.937509659591356 0 0 -1
469 1 100.99646034365401 35.32600497855701 29.934490947119095 0 0 -1
1020 3 94.67270202563515 27.94062249734456 6.663192061589564 0 0 0
1041 3 94.71457814412716 31.28198698696081 6.65964731866922 0 0 0
1042 3 97.55280373398011 29.53596836012564 6.659438182681719 0 0 0
1063 3 94.75418641265532 34.625412151170096 6.653085117125484 0 0 0
1064 3 97.59194445222471 32.88121438307117 6.656485179888778 0 0 0
1065 3 100.42845575353951 31.138745249568355 6.651031813328716 0 0 0
1086 3 100.46569001987186 34.486524897414746 6.647920461956096 0 0 0
2065 2 94.26818661196043 30.213221158645474 1.6025282941885757 0 0 0
2067 2 97.18595150311376 28.6437624477368 1.603318591364607 0 0 0
2107 2 94.23334424264092 33.5150986153366 1.6133873026360361 0 0 0
2109 2 97.15168743971901 31.94307593264283 1.6113086038051239 0 0 0
2111 2 100.07081656801269 30.368810126421902 1.613639273660939 0 0 0
2153 2 97.11840773496256 35.23976214493591 1.6133997546536187 0 0 0
2155 2 100.03855148101113 33.66466077325571 1.6129124243612893 0 0 0
2199 2 102.92675546247841 35.379017532357395 1.6097830893407497 0 0 0
3345 2 95.64345946084632 29.59297433159437 8.345500719604907 0 0 0
3346 2 95.64379916789373 29.588334611496254 4.976155264377888 0 0 0
3347 2 98.48510222730573 27.84516134054403 8.340720059357215 0 0 0
3348 2 98.47694630378493 27.84389964766892 4.971059325916788 0 0 0
3389 2 95.68203231386168 32.93768654419927 8.34112917779434 0 0 0
3390 2 95.68417004409046 32.930743475831655 4.972030866199049 0 0 0
3391 2 98.52304458142436 31.191389193371858 8.340353906326325 0 0 0
3392 2 98.51689555166159 31.18731015770287 4.970918926712936 0 0 0
3433 2 98.55985025319453 34.539948469056625 8.335986402653797 0 0 0
3434 2 98.5552279248586 34.5327409293256 4.9668242249196295 0 0 0
3435 2 101.39885939107612 32.79676221747508 8.330335612701484 0 0 0
3436 2 101.38721282879769 32.7925187541265 4.96082653151465 0 0 0
1376 2 45.93365843879371 0.8610881919506134 28.26575277974263 0 0 -1
1400 2 45.84971469136497 4.1838928403106745 28.273175384998385 0 0 -1
1402 2 48.76666037868333 2.5375705943773896 28.27015000651453 0 0 -1
1404 2 51.687402936961576 0.8965862144813403 28.261470615176528 0 0 -1
1428 2 48.68653995641265 5.859413930509655 28.277745967494543 0 0 -1
1430 2 51.600886700102365 4.216840975567518 28.26872086870765 0 0 -1
1460 2 51.52466337084654 7.538447824515226 28.27660514875119 0 0 -1
1432 2 54.519554102892045 2.5811726457838815 28.251769727135695 0 0 -1
1434 2 57.44326387287834 0.9546302905525197 28.22455887589949 0 0 -1
1462 2 54.435834601923474 5.90112011926123 28.26081615882285 0 0 -1
1464 2 57.351895233297256 4.2724390088183215 28.234910748763944 0 0 -1
1466 2 60.273870365589296 2.6544923449420703 28.19704166775947 0 0 -1
1496 2 57.271039376315116 7.592585454923586 28.246281217817153 0 0 -1
1498 2 60.18427203449466 5.972522815442728 28.211211043992115 0 0 -1
1468 2 63.202754055208146 1.048488005089161 28.1476037791129 0 0 -1
1500 2 63.104441376554114 4.364624140220981 28.163287393864525 0 0 -1
1502 2 66.0327045865587 2.7692355554611763 28.104570057395318 0 0 -1
1504 2 68.96948063806187 1.184981024003364 28.040894615701067 0 0 -1
1536 2 63.016724238668516 7.683224105115353 28.181768539314504 0 0 -1
1538 2 65.93536589982952 6.086260210750001 28.12551485235962 0 0 -1
1540 2 68.86326046199393 4.5016130057450265 28.06064641244894 0 0 -1
1542 2 71.80034904585257 2.9267119542943125 27.994917026292633 0 0 -1
1578 2 68.76722364041511 7.8198175897026285 28.086999172275057 0 0 -1
1580 2 71.69508023242861 6.245141289791665 28.02023025211142 0 0 -1
1544 2 74.7446715291802 1.358084993228959 27.93788757343068 0 0 -1
1582 2 74.63223609327625 4.678198325111397 27.957298833459276 0 0 -1
1584 2 77.57564313627094 3.1153854963443677 27.90725530172328 0 0 -1
1586 2 80.5213835055196 1.5540019644049223 27.87577334233012 0 0 -1
1624 2 74.52869553580359 7.998565506896498 27.98821721471494 0 0 -1
1626 2 77.46534868985631 6.4378505824867425 27.932576532967342 0 0 -1
1628 2 80.40692079419911 4.87938826458271 27.892652274054775 0 0 -1
1630 2 83.34963715532017 3.320914524195697 27.87206149426577 0 0 -1
1670 2 80.2997790526344 8.203823467495635 27.92451122945731 0 0 -1
1672 2 83.23880053135763 6.648234232119328 27.896732675969414 0 0 -1
1268 2 86.17802895245885 5.091224449758225 27.8880235715358 -1 0 -1
1716 2 86.07157462977572 8.419359924372472 27.920996993460893 0 0 -1
1458 2 48.61743428685533 9.182002118475955 28.285033378719557 0 0 -1
1492 2 51.46004427453094 10.861655166986681 28.2832672051263 0 0 -1
1528 2 51.406909259954126 14.186814844641082 28.28783387697754 0 0 -1
1494 2 54.363384795684595 9.223102891912074 28.269448623716393 0 0 -1
1530 2 54.30278298261655 12.54751775005001 28.276101153921932 0 0 -1
1532 2 57.20206615654233 10.915452084772932 28.256258294376185 0 0 -1
1534 2 60.10617090280786 9.293289397572408 28.22546480755461 0 0 -1
1568 2 54.25330130480055 15.874725955742425 28.28032888656854 0 0 -1
1570 2 57.1448906806867 14.241565398640493 28.263561260649375 0 0 -1
1572 2 60.040253791575644 12.617457967727542 28.237389662852983 0 0 -1
1612 2 57.09827955676674 17.57127981216585 28.268123098799876 0 0 -1
1614 2 59.98586846021027 15.945650733763896 28.24600176204421 0 0 -1
1574 2 62.941157272496184 11.004969033978574 28.19940264562274 0 0 -1
1576 2 65.84955664034857 9.405753036298803 28.148640864263356 0 0 -1
1616 2 62.877840308475676 14.330749201679154 28.21387982030038 0 0 -1
1618 2 65.77628943370823 12.728747950655631 28.170134493429575 0 0 -1
1620 2 68.68335829889523 11.14047845198647 28.11504662116128 0 0 -1
1622 2 71.60071639225258 9.564792775704907 28.0520538539039 0 0 -1
1658 2 62.825654944383736 17.661230434235883 28.22452904499201 0 0 -1
1660 2 65.71517166857889 16.056274019358753 28.18786590908421 0 0 -1
1662 2 68.61221999434824 14.464840158888924 28.140985501357395 0 0 -1
1664 2 71.51890288225881 12.88675958735704 28.0854106657385 0 0 -1
1704 2 68.55300432835486 17.79397213554062 28.16286564998316 0 0 -1
1706 2 71.44980907299366 16.212335192552334 28.116553040910514 0 0 -1
1666 2 74.43646791597041 11.319766089678955 28.025732553894645 0 0 -1
1668 2 77.36436356665764 9.76006218718314 27.969402309551086 0 0 -1
1708 2 74.35688537292268 14.642875436644854 28.06492535004601 0 0 -1
1710 2 77.27477990933525 13.08251803318822 28.01298135490313 0 0 -1
1712 2 80.20210343716413 11.52731485056087 27.96767787082417 0 0 -1
1714 2 83.13562155801 9.973781530736254 27.935690563668043 0 0 -1
1752 2 77.19763444509954 16.40608126347709 28.058337634661548 0 0 -1
1754 2 80.11563500525322 14.85010222718327 28.017344652503652 0 0 -1
1756 2 83.0418706874601 13.29731700347005 27.985030536347068 0 0 -1
1800 2 82.9589964728822 16.6188121760222 28.03953376201236 0 0 -1
1758 2 85.97299381146964 11.744497968314052 27.96662120264781 0 0 -1
1760 2 88.90545177018643 10.189140415506373 27.96455022355387 0 0 -1
1802 2 85.88381259118275 15.066190800265376 28.020324947856547 0 0 -1
1804 2 88.81224317200618 13.511814448646044 28.014407953671046 0 0 -1
1846 2 88.72861942062666 16.829651782101504 28.068598248461353 0 0 -1
1848 2 91.65434218648737 15.271435606853887 28.072312363425432 0 0 -1
1610 2 54.213307809981416 19.20487526236841 28.282572117867335 0 0 -1
1654 2 57.06028832746943 20.90465957354775 28.270694312140794 0 0 -1
1656 2 59.941381994572914 19.278186807413757 28.251591703666914 0 0 -1
1696 2 57.02868141836676 24.24151381438738 28.27229114492814 0 0 -1
1698 2 59.90462710055675 22.615026993488467 28.255204523489237 0 0 -1
1740 2 59.87329481448158 25.955838075359694 28.258037881570026 0 0 -1
1700 2 62.7826613654216 20.99665998595312 28.23198105716439 0 0 -1
1702 2 65.66470826035227 19.388980659871137 28.201461394548918 0 0 -1
1742 2 62.74654851144825 24.33685615030713 28.237554837662305 0 0 -1
1744 2 65.62273797457658 22.72699907997518 28.211842206826525 0 0 -1
1746 2 68.5039227716349 21.12844688456219 28.180526127830696 0 0 -1
1748 2 71.39229447996007 19.542528666892842 28.143594866115293 0 0 -1
1788 2 65.5868550099114 26.069966090356886 28.22053105095158 0 0 -1
1790 2 68.46264929398848 24.46823533499009 28.19505368058307 0 0 -1
1792 2 71.3443403007072 22.877783562019243 28.166405673280263 0 0 -1
1834 2 71.30349818636972 26.217906744955954 28.186035759791757 0 0 -1
1750 2 74.28980179612974 17.969075590116518 28.101990393364723 0 0 -1
1794 2 74.23381761227826 21.299246485711876 28.134885576581617 0 0 -1
1796 2 77.13254561330604 19.731735568971825 28.10138825247704 0 0 -1
1798 2 80.0411584576413 18.172771893672742 28.06822853864895 0 0 -1
1836 2 74.18675181428024 24.63370566829967 28.1632793226639 0 0 -1
1838 2 77.07795014774277 23.060245028223967 28.139745063990446 0 0 -1
1840 2 79.97814332500602 21.496171767236543 28.115872254372437 0 0 -1
1842 2 82.88758333339192 19.938745874207882 28.093574891813383 0 0 -1
1882 2 77.03157215442623 26.39191247837919 28.17277392093193 0 0 -1
1884 2 79.9249396911366 24.82108708503821 28.157626837102388 0 0 -1
1886 2 82.82697646135134 23.25803273746763 28.14263579008743 0 0 -1
1928 2 82.77543724587377 26.57762756875622 28.184256468040378 0 0 -1
1844 2 85.80524431212349 18.384413797339185 28.07646864292872 0 0 -1
1888 2 85.73761553427828 21.69983585950784 28.129584786253595 0 0 -1
1890 2 88.65542847918421 20.142989227187577 28.12171115921084 0 0 -1
1892 2 91.57763736177739 18.584097717502964 28.12206152880688 0 0 -1
1930 2 85.68003899759964 25.013579521070604 28.175764521354107 0 0 -1
1932 2 88.59253499900723 23.452803523532808 28.169230097005187 0 0 -1
1934 2 91.51100458785521 21.891862587797917 28.167545888425135 0 0 -1
1976 2 88.53867964037909 26.76039735707755 28.208400597933696 0 0 -1
1978 2 91.4536763136526 25.1959288194396 28.205680742897076 0 0 -1
1936 2 94.43240334498527 20.327425020803908 28.17269587066372 0 0 -1
1980 2 94.37315061392368 23.629957270503628 28.207499984128887 0 0 -1
2022 2 94.32176777555225 26.929008884790363 28.234282100542707 0 0 -1
2024 2 97.24217244605205 25.357543393758775 28.237887688919294 0 0 -1
1784 2 59.8451471442493 29.300112999635083 28.260933777387496 0 0 -1
1786 2 62.714974273444746 27.681308614396784 28.242601325707646 0 0 -1
1828 2 62.68572437362111 31.0293285175573 28.247990420241152 0 0 -1
1830 2 65.55470246692681 29.417167546084727 28.228954434795835 0 0 -1
1832 2 68.42671011685668 27.812776992842654 28.208032617614105 0 0 -1
1872 2 62.65670743675479 34.380148868289396 28.253819397971327 0 0 -1
1874 2 65.5240824020666 32.76770284333652 28.237926706302105 0 0 -1
1876 2 68.39372982784968 31.161153447777167 28.220820483313176 0 0 -1
1878 2 71.26723664532344 29.562179883596603 28.20393721484812 0 0 -1
1918 2 68.36152014966905 34.51226559893453 28.23402708089549 0 0 -1
1920 2 71.2331761874956 32.90954832464006 28.22123523161836 0 0 -1
1880 2 74.1460691599882 27.97217765421731 28.18799405472062 0 0 -1
1922 2 74.10922299948959 31.313904008440733 28.210223047148475 0 0 -1
1924 2 76.99085412832673 29.72652940297202 28.20105373959699 0 0 -1
1926 2 79.87923408390122 28.147962527339967 28.19274634481164 0 0 -1
1966 2 74.07388221673109 34.65783042117122 28.230806245540563 0 0 -1
1968 2 76.95329963789482 33.06345141399932 28.22557647421952 0 0 -1
1970 2 79.83850273919367 31.476786306161586 28.22177224471187 0 0 -1
1972 2 82.7306306778391 29.898189965985228 28.21794967557654 0 0 -1
2012 2 79.80034310749348 34.80713571309993 28.245689799366815 0 0 -1
2014 2 82.69009136391846 33.2199504299923 28.244471637881894 0 0 -1
1974 2 85.63062868237918 28.32678876563807 28.213243321934776 0 0 -1
2016 2 85.58703499617155 31.64031855642364 28.242074916397975 0 0 -1
2018 2 88.49181495272646 30.06703530966294 28.238404565123595 0 0 -1
2020 2 91.40400031196175 28.49767207545721 28.235007793202023 0 0 -1
2060 2 85.54686908443384 34.954632459380484 28.263396248049276 0 0 -1
2062 2 88.44960234868611 33.37370263513232 28.25993731828327 0 0 -1
2064 2 91.35981795812599 31.79837008199143 28.25563645244412 0 0 -1
2106 2 91.31885870479499 35.09903447522497 28.268854666842298 0 0 -1
2066 2 94.27630999824112 30.225892722343477 28.25271054497943 0 0 -1
2068 2 97.19656323800237 28.652860727780872 28.25328591519384 0 0 -1
2108 2 94.23459500332574 33.52178688131644 28.26364318348327 0 0 -1
2110 2 97.15496667607862 31.94620518214307 28.26137144710153 0 0 -1
2112 2 100.07695031337995 30.368740439216495 28.263406339952333 0 0 -1
2154 2 97.11523450463503 35.238595564770726 28.263502384362102 0 0 -1
2156 2 100.03859900527605 33.659899206795 28.26273784277028 0 0 -1
2200 2 102.92546135548147 35.368235328180134 28.25932341247043 0 0 -1
327 1 63.59089777583556 36.06881702091426 29.927873244732808 0 0 -1
1109 3 103.3373776138734 36.096851589644096 6.635076558015164 0 0 0
1916 2 65.49292951392079 36.12058524926219 28.247360123920338 0 0 -1
1915 2 65.50252253436007 36.10945605048792 1.5979097074163664 0 0 0
3480 2 101.42434294127791 36.14007836666006 4.956543221459092 0 0 0
2522 2 119.42418057961837 72.0735993105896 27.89724263663075 0 0 -1
350 1 66.42311172076585 37.80967447244892 29.924520891529166 0 0 -1
351 1 69.29179818827598 36.19912036918863 29.913891374934217 0 0 -1
371 1 66.38461845377864 41.16591242977061 29.93381445266879 0 0 -1
372 1 69.25449415110907 39.55294573287424 29.927864428332605 0 0 -1
373 1 72.12621932603594 37.94364138797168 29.921742852314797 0 0 -1
394 1 69.21353381995698 42.907797829416495 29.93927919724155 0 0 -1
395 1 72.08729163796644 41.294578101493386 29.937271269867217 0 0 -1
416 1 72.0443340974234 44.64572890295602 29.94863522576928 0 0 -1
968 3 65.94731023693772 38.63151018056316 6.638514190071495 0 0 0
969 3 68.82984250743118 36.920489396341296 6.629792487741557 0 0 0
989 3 65.99031041815535 41.92371971156023 6.64864582799023 0 0 0
990 3 68.87142931714412 40.21464282914233 6.639131682240489 0 0 0
991 3 71.75186925292645 38.502241231437985 6.628399850511758 0 0 0
1011 3 68.9168023204486 43.50874107565624 6.644561144431426 0 0 0
1012 3 71.79502311099189 41.79959775095514 6.633405050985434 0 0 0
1033 3 71.84219121158601 45.09762227411936 6.634695576731331 0 0 0
2504 2 116.83715750916059 63.68496524570104 27.977440309532287 0 0 -1
1959 2 65.46468516815627 39.46590842579323 1.6064347022006271 0 0 0
1961 2 68.33148694193414 37.851393799669495 1.5974990841893946 0 0 0
1963 2 71.19888370388863 36.241581159573805 1.5884923800404158 0 0 0
2003 2 68.29123975072747 41.2078558822338 1.608968620485061 0 0 0
2005 2 71.16039132358455 39.59431498331359 1.6041006379567664 0 0 0
2047 2 68.24613864952045 44.56605709945783 1.6167271676422492 0 0 0
2049 2 71.11882014945036 42.94852555415241 1.6168621058793935 0 0 0
2514 2 119.66768256730512 65.42920446260767 27.93179670150797 0 0 -1
2518 2 116.59461881607743 70.31932793142832 27.93386089625175 0 0 -1
3199 2 66.90270885136994 36.9610732677127 8.315413315260063 0 0 0
3200 2 66.90054672155392 36.97413790137483 4.946458458832729 0 0 0
3241 2 66.94549029209837 40.25506728004704 8.32654526376091 0 0 0
3242 2 66.9402983905071 40.26445955206857 4.9576292737682195 0 0 0
3243 2 69.82737791683715 38.54514878025846 8.316662931966501 0 0 0
3244 2 69.82121651428353 38.553744195593524 4.948064031552308 0 0 0
3245 2 72.70641439927095 36.831679683584625 8.30683237063416 0 0 0
3246 2 72.70169019256602 36.838337900131236 4.938496776352182 0 0 0
3283 2 66.99227342685043 43.54932368886956 8.333621672232153 0 0 0
3284 2 66.98412013793975 43.553273599117595 4.964741703376631 0 0 0
3285 2 69.87206075903036 41.84130500364573 8.323420280796348 0 0 0
3286 2 69.86275327973101 41.84555612961731 4.954836896724017 0 0 0
3287 2 72.749745981254 40.13070788662679 8.312304557558976 0 0 0
3288 2 72.7415069369616 40.134610825844234 4.9439850743067435 0 0 0
3327 2 69.92060069700115 45.13814448893076 8.325883691430384 0 0 0
3328 2 69.90889033191141 45.13709032314518 4.957316942388922 0 0 0
3329 2 72.79540435334305 43.43057967752741 8.314975589884169 0 0 0
3330 2 72.78463843314661 43.430502369560344 4.946659220940904 0 0 0
374 1 75.00137843131009 36.33926995477816 29.91710836271003 0 0 -1
396 1 74.96369983141369 39.684931287498685 29.9353268696022 0 0 -1
397 1 77.84430314651308 38.08021230803913 29.93443624221525 0 0 -1
398 1 80.73060775871623 36.4817473633601 29.93430377456334 0 0 -1
417 1 74.92348168187976 43.030895437369665 29.94988036718975 0 0 -1
418 1 77.80594492371435 41.41979805092353 29.95065413952382 0 0 -1
419 1 80.69318860003125 39.81395451062138 29.95122104189068 0 0 -1
440 1 77.76438879254876 44.759287264799354 29.961977110759513 0 0 -1
441 1 80.6538873111602 43.14634838290344 29.963524740853757 0 0 -1
992 3 74.63017005479242 36.78531930583518 6.619167269108858 0 0 0
1013 3 74.67179951237081 40.087086233958395 6.622704352960764 0 0 0
1014 3 77.54566313233605 38.369969760865395 6.615286279818988 0 0 0
1015 3 80.41514911971423 36.647058847334776 6.613711864668443 0 0 0
1034 3 74.71605089884375 43.38948319159819 6.624126473864396 0 0 0
1035 3 77.58778502038885 41.67774764856819 6.615708714934867 0 0 0
1036 3 80.45597304821153 39.961045961872074 6.6119904256423805 0 0 0
1037 3 83.31929264665031 38.238090179402924 6.614779104922116 0 0 0
1057 3 77.63300381195222 44.986474931875215 6.614898816027065 0 0 0
1058 3 80.49864868901355 43.275782420010884 6.610214655089099 0 0 0
1059 3 83.36033407241001 41.55942820786035 6.6108272801774035 0 0 0
1080 3 83.40406228308777 44.88138025069068 6.607609252132534 0 0 0
2007 2 74.03134179286528 37.985451089582305 1.5997819049143507 0 0 0
2009 2 76.90623530799049 36.382277455037766 1.5970798424107102 0 0 0
2051 2 73.99253254973901 41.334517673691714 1.6158514357861726 0 0 0
2053 2 76.86924267147451 39.72523986539108 1.6151528528801473 0 0 0
2055 2 79.75107609716059 38.12184235999826 1.6150923225721587 0 0 0
2057 2 82.63992438312383 36.52544875785353 1.6148577307605136 0 0 0
2093 2 73.95019773137642 44.684268403251885 1.6275037930985194 0 0 0
2095 2 76.83029689839458 43.068636926084906 1.629176062219394 0 0 0
2097 2 79.71440299955086 41.45804803094419 1.6301674711609164 0 0 0
2099 2 82.6044144156763 39.853900108423225 1.6302016914641644 0 0 0
2141 2 79.67470394176783 44.79428879303342 1.6403592553763229 0 0 0
2143 2 82.5671472079514 43.1822434043721 1.6409415073660216 0 0 0
3289 2 75.62371006167815 38.416480640825846 8.302955722637007 0 0 0
3290 2 75.61909141985467 38.41903557792365 4.93481104856506 0 0 0
3291 2 78.49265550422383 36.69745365117019 8.298197787055573 0 0 0
3292 2 78.49383236714903 36.69763377205746 4.930095852365573 0 0 0
3331 2 75.66737910661512 41.72032877911485 8.304856724881848 0 0 0
3332 2 75.65980903841847 41.72056278725914 4.936726924688207 0 0 0
3333 2 78.53513782183275 40.006277902953315 8.298174123299058 0 0 0
3334 2 78.53292611164345 40.005763289630046 4.930124558220777 0 0 0
3335 2 81.39773363005415 38.287116914879654 8.297289748250117 0 0 0
3336 2 81.40215654636403 38.284794330215405 4.929197822266862 0 0 0
3375 2 75.71365729522219 45.02511176116375 8.304703336021316 0 0 0
3376 2 75.70435379268407 45.022607535580015 4.936576274898352 0 0 0
3377 2 78.57912208079688 43.31597625219074 8.29751201975304 0 0 0
3378 2 78.57439919693388 43.31417043614179 4.929491986282498 0 0 0
3379 2 81.44028027819834 41.602624554998116 8.294845373627124 0 0 0
3380 2 81.44149067154974 41.60024059598099 4.92683259367989 0 0 0
3421 2 81.4851383353819 44.91861565757782 8.292631209662467 0 0 0
3422 2 81.48391355210775 44.91636910495313 4.924670251063466 0 0 0
420 1 83.58653797514381 38.21480819338982 29.950824747471096 0 0 -1
421 1 86.48687570558508 36.62337668859353 29.948434332472512 0 0 -1
442 1 83.5485131830076 41.53938145833449 29.963162500917683 0 0 -1
443 1 86.4493309453922 39.939858397597234 29.960190142104214 0 0 -1
444 1 89.35677472927551 38.34850523343828 29.954440788301014 0 0 -1
445 1 92.27036322367839 36.76477478801933 29.947087384043456 0 0 -1
463 1 83.5075490448969 44.864238481506945 29.970993343408814 0 0 -1
464 1 86.40984654214577 43.2568481713422 29.967831809515587 0 0 -1
465 1 89.3180919824139 41.65773653722229 29.960973230363354 0 0 -1
466 1 92.23223562118179 40.06707841801218 29.951546641910987 0 0 -1
487 1 89.2760981784519 44.96772170432506 29.9648394886742 0 0 -1
488 1 92.19141929644226 43.36991265785399 29.95381093019553 0 0 -1
1038 3 86.17675596239478 36.50801619876932 6.624129230853388 0 0 0
1060 3 86.2169599928433 39.83613411827383 6.617568628527115 0 0 0
1061 3 89.06791933939972 38.10536570240964 6.629283296603275 0 0 0
1062 3 91.91335291121874 36.36779809600051 6.642648992783738 0 0 0
1081 3 86.25886149422867 43.16472428766824 6.611694647179205 0 0 0
1082 3 89.10871517025954 41.44042242573722 6.620704089822625 0 0 0
1083 3 91.95341843220271 39.708495884300895 6.6325886859556915 0 0 0
1104 3 89.15235652983452 44.775686041870756 6.613374990117093 0 0 0
1105 3 91.99565812729163 43.049646041406476 6.6224824620143385 0 0 0
2101 2 85.50166146111494 38.25747290729443 1.628393136118671 0 0 0
2103 2 88.40638313895508 36.66946730143562 1.6242348631225678 0 0 0
2145 2 85.46574738822913 41.57762381407225 1.6388412819020286 0 0 0
2147 2 88.37114223305436 39.98167977972653 1.6337007068078981 0 0 0
2149 2 91.28280536341563 38.39459853104392 1.6262324956301344 0 0 0
2187 2 85.42654529116005 44.89778693355452 1.6452830176185613 0 0 0
2189 2 88.33349348426093 43.293620579588364 1.6396059128304274 0 0 0
2191 2 91.24625316912652 41.699015937485925 1.630517878499436 0 0 0
2235 2 91.20568592484817 45.003413500645635 1.6329482559578483 0 0 0
3337 2 84.25486236569611 36.56147517206689 8.30328066014874 0 0 0
3338 2 84.2654808972173 36.55674273183475 4.935045118952701 0 0 0
3381 2 84.29652748583847 39.8835594621649 8.298275506983542 0 0 0
3382 2 84.30379843595716 39.87943915677254 4.930174138730778 0 0 0
3383 2 87.14794873767117 38.15741768545661 8.307718472699925 0 0 0
3384 2 87.15958724218645 38.15105613384357 4.939454616245211 0 0 0
3385 2 89.99529677432359 36.4236163492883 8.320865560318268 0 0 0
3386 2 90.00783304391068 36.41551548573501 4.952374799689677 0 0 0
3423 2 84.33982525305134 43.20588313771512 8.293906846009156 0 0 0
3424 2 84.34379619178537 43.20261841608635 4.925910105101858 0 0 0
3425 2 87.19007200712043 41.48658147913596 8.300633257278486 0 0 0
3426 2 87.1983820157426 41.481140182018336 4.932529416648878 0 0 0
3427 2 90.03624898399512 39.75956352258641 8.311706883046792 0 0 0
3428 2 90.04641249033952 39.75171359589118 4.943430869542984 0 0 0
3429 2 92.87926904714791 38.024835157060494 8.324030374960067 0 0 0
3430 2 92.88761786069384 38.0154850820881 4.955512465594688 0 0 0
3469 2 87.23496460759424 44.81526263880474 8.294807289614564 0 0 0
3470 2 87.23993087227115 44.81186975969328 4.9268154158453505 0 0 0
3471 2 90.07955528452622 43.094997230917194 8.302880415371215 0 0 0
3472 2 90.08669595088111 43.088739473507395 4.934777046250584 0 0 0
3473 2 92.9208206703838 41.36654686821621 8.313390158578297 0 0 0
3474 2 92.9274353973262 41.3576641630226 4.945109515756502 0 0 0
3513 2 92.9659618830202 44.70717120676142 8.303661622275667 0 0 0
3514 2 92.97031410956234 44.70090688777895 4.935555220512227 0 0 0
163 1 103.88441053755861 37.03573312703645 29.928170607148136 -1 0 -1
467 1 95.15129140226607 38.4835626146245 29.94207552902542 0 0 -1
468 1 98.07346568123323 36.90444741082943 29.93565843332487 0 0 -1
489 1 95.11162174680675 41.78046725568943 29.941417288545132 0 0 -1
490 1 98.03529391288316 40.19728070829155 29.93122855576599 0 0 -1
491 1 100.96035198935778 38.617018242000114 29.92639966302333 0 0 -1
508 1 95.06773246069316 45.077971750935724 29.94048634871384 0 0 -1
509 1 97.99325278614752 43.490028077222284 29.92645460560884 0 0 -1
510 1 100.92066295547943 41.90713398489303 29.917173802676036 0 0 -1
511 1 103.84768561950487 40.32557193131976 29.91526367293695 0 0 -1
529 1 103.80576181041175 43.61438007557557 29.902009025473962 0 0 -1
1084 3 94.79355103503747 37.97033074442421 6.643605220748561 0 0 0
1085 3 97.63039578515186 36.228537015063615 6.649624294241969 0 0 0
1106 3 94.83457813853404 41.31618532232439 6.632469445471225 0 0 0
1107 3 97.67007717590377 39.57739490016915 6.6397040318811795 0 0 0
1108 3 100.503718620553 37.83641094272287 6.640970416875395 0 0 0
2520 2 119.54535111448672 68.75082876650966 27.90513905859199 0 0 -1
1126 3 94.87909356982324 44.662394411464014 6.621922166528013 0 0 0
1127 3 97.71280542082913 42.92721236465072 6.62866105025161 0 0 0
1128 3 100.54439115834323 41.187909724025836 6.6316142139701935 0 0 0
1129 3 103.37562663765759 39.447984744918344 6.628678103305915 0 0 0
1147 3 100.58949169875119 44.540422305717414 6.622188251007359 0 0 0
1148 3 103.41790355775062 42.80080746435945 6.621113639971752 0 0 0
2151 2 94.19921052120837 36.81497856689989 1.6185364794590906 0 0 0
2193 2 94.16371933976384 40.11334650029161 1.6201378389283503 0 0 0
2195 2 97.08414429213522 38.53419808417706 1.6115926366815663 0 0 0
2197 2 100.00569479905518 36.95764327485885 1.6077508048934557 0 0 0
2237 2 94.12482802080635 43.410968364500164 1.6202585568246335 0 0 0
2239 2 97.04698583709629 41.82701468068233 1.6081422238454701 0 0 0
2241 2 99.97041834091165 40.248182437178166 1.6002678017788996 0 0 0
2243 2 102.89349654835883 38.66992267382036 1.5989994689737625 0 0 0
2277 2 97.00500769073781 45.11919727973033 1.6050015649888973 0 0 0
2279 2 99.93090038430071 43.537045117600584 1.5926700754581822 0 0 0
2281 2 102.85653613126333 41.95828745847323 1.5869583392573912 0 0 0
3431 2 95.72018826836569 36.283957507566306 8.333367981948646 0 0 0
3432 2 95.72308813004327 36.27480803737993 4.964547446064558 0 0 0
3475 2 95.75976682685187 39.630674531119496 8.322977998574634 0 0 0
3476 2 95.7625976733518 39.62054465132272 4.954443958046338 0 0 0
3477 2 98.59741502886155 37.889743456975275 8.327911979689029 0 0 0
3478 2 98.5939557396808 37.88025582093681 4.959057807793727 0 0 0
2508 2 110.81436834481805 70.15094172093639 28.03220175179768 0 0 -1
2506 2 107.87063771573509 71.73523619286999 28.090305332173386 0 0 -1
3515 2 95.80250433819472 42.97679945569316 8.311820547748408 0 0 0
3516 2 95.80463345642804 42.9678614430624 4.943537967103343 0 0 0
3517 2 98.63756949756905 41.23971220658842 8.317571333408308 0 0 0
3518 2 98.63495302497647 41.22985262336528 4.949025322531118 0 0 0
3519 2 101.47219192529202 39.499006019206625 8.318019750072821 0 0 0
3520 2 101.463557044934 39.49010189332583 4.949131540206694 0 0 0
3555 2 98.68210496404524 44.58887379705696 8.307345904886091 0 0 0
3556 2 98.68000724507199 44.58128177581952 4.939051417304787 0 0 0
3557 2 101.51357487542677 42.850683225977725 8.309016285894035 0 0 0
3558 2 101.506648238944 42.84250870447645 4.94044323384468 0 0 0
206 1 106.73389609196389 42.031454382257536 29.903987476336987 -1 0 -1
1149 3 106.24751111606004 41.06215618399337 6.614991678572905 0 0 0
1166 3 106.29200137441873 44.41497808043554 6.6104236951575945 0 0 0
2283 2 105.78049808072696 40.378074492530494 1.5892398220268755 0 0 0
2319 2 105.74125393487515 43.66610061484009 1.573318342610346 0 0 0
3521 2 104.30726817510572 37.758697444856324 8.312095737925128 0 0 0
3522 2 104.29343384365308 37.751928829158516 4.942831510449118 0 0 0
3559 2 104.34559839091679 41.11057034734377 8.305610328874142 0 0 0
3560 2 104.3336573571982 41.10343174043396 4.936670593058003 0 0 0
3593 2 104.38892605968992 44.46246340969977 8.299302695047052 0 0 0
3594 2 104.3793228965264 44.45747695699957 4.930667534317613 0 0 0
3595 2 107.21896073098085 42.72331280982667 8.292975464047224 0 0 0
3596 2 107.20566162453152 42.71914544947012 4.923954370425862 0 0 0
415 1 69.1670331800974 46.26281280699698 29.945566393468876 0 0 -1
438 1 71.99536750193687 47.99629353015162 29.95335585506277 0 0 -1
459 1 71.93837934713541 51.345492721045744 29.949438312371502 0 0 -1
1032 3 68.96760988478793 46.80351215111419 6.645036197550551 0 0 0
1055 3 71.89510765133082 48.396951384172034 6.632153628786625 0 0 0
1076 3 71.95551039530031 51.698170883141984 6.627069022768925 0 0 0
2091 2 71.07211899992632 46.303542958198925 1.624385203048114 0 0 0
2135 2 71.01814046926864 49.65825009483127 1.6242954576642934 0 0 0
3371 2 69.97458590931598 48.435663146313466 8.32378463955713 0 0 0
3372 2 69.96142632674467 48.42981165480829 4.955245234927047 0 0 0
3373 2 72.84500226929595 46.731323011586554 8.314154348937233 0 0 0
3374 2 72.83293792141541 46.727221749257716 4.945842554241747 0 0 0
3415 2 72.90027529135043 50.032867428192354 8.310456902363562 0 0 0
3416 2 72.8882944997431 50.026041802097104 4.942157410906025 0 0 0
3459 2 72.96296575659191 53.33534860851542 8.305621513960727 0 0 0
3460 2 72.95244855397421 53.32791555532166 4.937349032437909 0 0 0
439 1 74.87867911268114 46.37649637177982 29.958798856722495 0 0 -1
460 1 74.82715748672109 49.721110361956846 29.96009684474455 0 0 -1
461 1 77.71743029427137 48.098212750786615 29.966888349880342 0 0 -1
462 1 80.61046501510118 46.47862621641777 29.970530710293925 0 0 -1
482 1 74.76686762046747 53.064198861658255 29.95270483936136 0 0 -1
483 1 77.66282371580242 51.436183603067256 29.96414611968526 0 0 -1
484 1 80.56059407069483 49.81055112462836 29.971292810583464 0 0 -1
503 1 80.5020692164307 53.14193589353166 29.965285419807913 0 0 -1
504 1 83.40752152094171 51.514538581833726 29.971764458922532 0 0 -1
1056 3 74.76470922740921 46.69302906045972 6.62292176483307 0 0 0
1077 3 74.81963018288786 49.998194411693184 6.619781349801369 0 0 0
1078 3 77.68325125537058 48.29648783400124 6.613146072405353 0 0 0
1079 3 80.54514233939152 46.59144188805361 6.6085200665498895 0 0 0
1099 3 74.88256789949914 53.30534310845923 6.616346094672801 0 0 0
1100 3 77.74048071027143 51.608046145240245 6.611625818947548 0 0 0
1101 3 80.59750932476948 49.90815862896247 6.607834223816241 0 0 0
1102 3 83.45254665614962 48.20392396552761 6.606069447521998 0 0 0
1121 3 80.65768561495595 53.22599401445785 6.6093764181217995 0 0 0
2137 2 73.90203228321135 48.03398167509055 1.6325724997342612 0 0 0
2139 2 76.78694367854973 46.412101274364886 1.637604797832135 0 0 0
2179 2 73.84566584406386 51.382561969589375 1.6293264209821452 0 0 0
2181 2 76.7366343803547 49.75499383226948 1.638823925160449 0 0 0
2183 2 79.62933220922847 48.13035256632373 1.6446035591295045 0 0 0
2185 2 82.5254650914338 46.51061645929365 1.646865698733338 0 0 0
2225 2 76.67695812208643 53.09638178894086 1.6319995559111289 0 0 0
2227 2 79.57566370570594 51.46578485683781 1.6419641040091524 0 0 0
2229 2 82.47668296879829 49.839023339301036 1.6473768423503121 0 0 0
2267 2 82.41835798137332 53.16719000692276 1.6420705767269885 0 0 0
3417 2 75.76430640864508 48.33072447215175 8.302634758792793 0 0 0
3418 2 75.7547345697021 48.32620991411016 4.934507572048462 0 0 0
3419 2 78.62633678939777 46.62638796039727 8.296102853258349 0 0 0
3420 2 78.62037422901837 46.62364154725775 4.928096161461296 0 0 0
3461 2 75.82121833717136 51.637138527578976 8.299840597285103 0 0 0
3462 2 75.81292194120856 51.63222330926793 4.93171595334622 0 0 0
3463 2 78.67868660841157 49.93737842585369 8.294750871861718 0 0 0
3464 2 78.67302011872059 49.93485408504483 4.926742617862714 0 0 0
3465 2 81.53412963394202 48.23483621379258 8.291319878347862 0 0 0
3466 2 81.53173005462199 48.23365533587448 4.923378549029802 0 0 0
3503 2 78.73810901898113 53.24907476905953 8.294751149130374 0 0 0
3504 2 78.73430135123085 53.24810738235725 4.926732684676797 0 0 0
3505 2 81.58921008977434 51.551261470722245 8.292073294361344 0 0 0
3506 2 81.58718651282155 51.55230352904251 4.924117583629972 0 0 0
485 1 83.46132825566488 48.18930783471088 29.974036045215094 0 0 -1
486 1 86.36618441424339 46.57446381666672 29.971925076564304 0 0 -1
505 1 86.3160389680584 49.89282006445183 29.972355260956014 0 0 -1
506 1 89.22860530891455 48.27876618207041 29.966592099600362 0 0 -1
507 1 92.14586092888032 46.673758693450374 29.955162494193644 0 0 -1
523 1 86.25724318852951 53.21198347925165 29.968708130369627 0 0 -1
524 1 89.17342979948646 51.591124237389714 29.965954083425515 0 0 -1
525 1 92.09347441295391 49.97907343587279 29.955840400248018 0 0 -1
541 1 92.0323035518516 53.286225926770726 29.955145297602506 0 0 -1
1103 3 86.30448099869918 46.49358168993344 6.607666273195849 0 0 0
1122 3 83.50786764486902 51.52702063542118 6.607479405528384 0 0 0
1123 3 86.35590672386321 49.822521911120795 6.607045885842194 0 0 0
1124 3 89.20084563265752 48.110797834941486 6.609257425226299 0 0 0
1125 3 92.04196553875701 46.39074231675475 6.614574558380573 0 0 0
1142 3 86.4150967852082 53.151378757469075 6.6110641229540485 0 0 0
1143 3 89.25618628376607 51.44543678899685 6.610193414548138 0 0 0
1144 3 92.09427096402749 49.7312867005591 6.611296784678094 0 0 0
1161 3 92.15438640130844 53.07083098739494 6.614367541825712 0 0 0
2231 2 85.38144448951125 48.21835337281868 1.6477813084343282 0 0 0
2233 2 88.29100628560546 46.60595522070305 1.6428016509328862 0 0 0
2269 2 85.32791041139528 51.539527985329464 1.6459650550632037 0 0 0
2271 2 88.24123163448616 49.91932324417958 1.6433383660978684 0 0 0
2273 2 91.1588390325634 48.30873517872053 1.6342294551406809 0 0 0
2307 2 88.18194590796239 53.23406911850334 1.6407545764654856 0 0 0
2309 2 91.10349766445579 51.615826216555504 1.6340952664261204 0 0 0
3467 2 84.3864592683503 46.52803123028122 8.290954871437878 0 0 0
3468 2 84.38783564682312 46.52655970312523 4.9230182442991905 0 0 0
3507 2 84.43828094333307 49.84980940149163 8.290702599647782 0 0 0
3508 2 84.43830706355656 49.851337504317165 4.922770824420755 0 0 0
3509 2 87.284335712625 48.143045998398165 8.29183557307886 0 0 0
3510 2 87.28661349934683 48.143184286302684 4.923886246834716 0 0 0
3511 2 90.12684157037947 46.42924322755236 8.296298957670738 0 0 0
3512 2 90.13092824888575 46.4264447272736 4.928294733927521 0 0 0
3545 2 84.49715194871438 53.17143398260794 8.294280368848959 0 0 0
3546 2 84.49737165021854 53.17667298737553 4.926299624227831 0 0 0
3547 2 87.33998234070668 51.469930419136745 8.293298143247577 0 0 0
3548 2 87.34076180481497 51.474714955932946 4.925316303280044 0 0 0
3549 2 90.17980252691667 49.76200712317221 8.294089292726557 0 0 0
3550 2 90.18139598680254 49.76437053039482 4.926090661347936 0 0 0
3551 2 93.01634492241176 48.046095303144625 8.297383394996746 0 0 0
3552 2 93.01835889591402 48.044737955188154 4.929348898746196 0 0 0
3583 2 90.24007379591802 53.093529619352076 8.297738487650149 0 0 0
3584 2 90.24023965860249 53.10170753809362 4.929656224045729 0 0 0
3585 2 93.07359384648366 51.38318990193173 8.296824382935757 0 0 0
3586 2 93.07367867088496 51.38829074632789 4.928746364191687 0 0 0
526 1 95.01764972763249 48.3766950708415 29.94023251673078 0 0 -1
527 1 97.94544119486181 46.783402310305284 29.922965864120343 0 0 -1
528 1 100.87548862619215 45.197068759953446 29.90886811825077 0 0 -1
542 1 94.95943632709846 51.67722664961295 29.940360727664373 0 0 -1
543 1 97.88996840333776 50.078149147289004 29.92119662299844 0 0 -1
544 1 100.82294842591034 48.487638977459184 29.9026849665908 0 0 -1
545 1 103.75668231275961 46.90293914610273 29.890087873367495 0 0 -1
558 1 97.82511362918761 53.37497709197486 29.920261697088037 0 0 -1
559 1 100.7612661917844 51.7797086774629 29.898485091102796 0 0 -1
560 1 103.69858126711222 50.192167603409096 29.88018379339899 0 0 -1
573 1 103.62988590060725 53.483028558875176 29.871728033991356 0 0 -1
1145 3 94.92892816079029 48.00833512979735 6.614723767486912 0 0 0
1146 3 97.76035538341316 46.277332155326555 6.619208168124997 0 0 0
1162 3 94.98587749861682 51.35337946193123 6.613369162233036 0 0 0
1163 3 97.81447150009362 49.62701632485291 6.614233326809111 0 0 0
1164 3 100.64075834032495 47.893205804357045 6.6155369001184265 0 0 0
1165 3 103.46600736636223 46.15468266593443 6.614880238169515 0 0 0
1179 3 97.87677064887032 52.975498009436734 6.615907012777098 0 0 0
1180 3 100.69984197510394 51.24538871762267 6.614315603454035 0 0 0
1181 3 103.52166014461385 49.508759162801894 6.612671504485463 0 0 0
1195 3 103.58638638182896 52.862018878063466 6.616586133487051 0 0 0
2275 2 94.08046258390091 46.70890009968481 1.6203028921515186 0 0 0
2311 2 94.0285210310872 50.008334637926026 1.6205729941114666 0 0 0
2313 2 96.95623260087882 48.412057738102206 1.6032019554561205 0 0 0
2315 2 99.8852663966175 46.82544026612554 1.5866275758753998 0 0 0
2317 2 102.81407503295354 45.245025238301245 1.5756382238158952 0 0 0
2343 2 93.96705051174395 53.31025570117869 1.6202979573527694 0 0 0
2345 2 96.89869487813948 51.70697641357386 1.6024856592416397 0 0 0
2347 2 99.83158597804706 50.114889204044815 1.5826575705626018 0 0 0
2349 2 102.76423320403092 48.531526326980135 1.5662745126559372 0 0 0
2377 2 99.76802197051377 53.40684183765029 1.5799553537564246 0 0 0
2379 2 102.70510272756971 51.819415145562544 1.5588627465778577 0 0 0
3553 2 95.85009726127512 46.32147152200875 8.302529578696406 0 0 0
3554 2 95.85110553564164 46.31636524836045 4.93440942229107 0 0 0
3587 2 95.90419819775535 49.664186190054394 8.297882008368964 0 0 0
3588 2 95.90394675205236 49.66524091778749 4.929795620768102 0 0 0
3589 2 98.73276401651044 47.93645081959873 8.300112330118521 0 0 0
3590 2 98.73088653442545 47.933883793858804 4.931956548333671 0 0 0
3591 2 101.56057621858307 46.20151661284651 8.301357299194501 0 0 0
3592 2 101.55533754791836 46.196855790021914 4.933024167518061 0 0 0
3619 2 95.9663002772754 53.00496948353397 8.299888628305636 0 0 0
3620 2 95.96503489545682 53.01323049827898 4.931707019987381 0 0 0
3621 2 98.79116813220895 51.28204454760721 8.298502224418415 0 0 0
3622 2 98.78935456814716 51.28649586799694 4.9303378814028616 0 0 0
3623 2 101.61496470859464 49.550811595784346 8.297832470582936 0 0 0
3624 2 101.61130741902294 49.55218439300224 4.9296063846431535 0 0 0
3651 2 101.67827957822864 52.898258816616945 8.300578392948765 0 0 0
3652 2 101.67614755028731 52.90697705733245 4.93230309645247 0 0 0
250 1 109.56853037579413 47.026718886721135 29.871834446464426 -1 0 -1
294 1 112.37612513537772 52.02875293324388 29.82580701827927 -1 0 -1
546 1 106.68895566880991 45.32039854401598 29.886879669476418 0 0 -1
561 1 106.63510309706331 48.609105335865294 29.8705015580073 0 0 -1
574 1 106.5705404853659 51.898582194791196 29.85507743578142 0 0 -1
575 1 109.50889456727424 50.31715961559879 29.849495795987842 0 0 -1
587 1 109.43692336793347 53.608545919650936 29.826355795661577 0 0 -1
1182 3 106.34377573695586 47.768809647291675 6.608811695454728 0 0 0
1183 3 109.1681136870469 46.02921634645246 6.601695407978508 0 0 0
1196 3 106.40453435650605 51.12267630639857 6.6124649849405035 0 0 0
1197 3 109.22432664881003 49.381527822678656 6.605886739700832 0 0 0
1210 3 109.29097469318076 52.73358380387622 6.616475619131897 0 0 0
1211 3 112.10929177876622 50.9914770543505 6.607602227760399 0 0 0
2351 2 105.69522116297898 46.952699292964205 1.5580330093133055 0 0 0
2353 2 108.62335796875153 45.373420834477315 1.5599860333250755 0 0 0
2381 2 105.6404793895878 50.239345145923565 1.5441134898131654 0 0 0
2383 2 108.5729399887162 48.66191674957592 1.5397832076288567 0 0 0
2407 2 105.57518189405215 53.52759820201402 1.5312308296666233 0 0 0
2409 2 108.51235246852433 51.95073542131061 1.5194453506874173 0 0 0
2411 2 111.44557749078737 50.37449723998189 1.5199178204205146 0 0 0
2435 2 111.37793000949098 53.667266410178875 1.4911131631727972 0 0 0
3625 2 104.43915170593309 47.813573628767834 8.295779801684613 0 0 0
3626 2 104.43218934887362 47.81338215229094 4.927362155989561 0 0 0
3627 2 107.2650355994783 46.073955277104204 8.290609863266932 0 0 0
3628 2 107.2544034247049 46.07354438999325 4.921861626145235 0 0 0
3653 2 104.49802580041766 51.16329324784654 8.297462778799689 0 0 0
3654 2 104.49390329692855 51.16985448867543 4.9291193436932454 0 0 0
3655 2 107.31936076688564 49.42389133950391 8.292581428878139 0 0 0
3656 2 107.31204114991219 49.42949500889658 4.924019677461196 0 0 0
3657 2 110.14352197714706 47.68400293183389 8.284917451823445 0 0 0
3658 2 110.13328242563695 47.68932372289707 4.915995156285166 0 0 0
3681 2 107.38358145875978 52.77264472450139 8.300687411445404 0 0 0
3682 2 107.38015874985628 52.785359075251364 4.93217690229384 0 0 0
3683 2 110.20294967632161 51.03130144908986 8.293429387159478 0 0 0
3684 2 110.19638533519287 51.04367539388923 4.924661776352996 0 0 0
3707 2 113.09175330274111 52.63469617438285 8.299471106509905 0 0 0
3708 2 113.08674482373081 52.65426720667204 4.930457109996853 0 0 0
501 1 74.69637698075137 56.40534770635358 29.937457450118856 0 0 -1
502 1 77.59866308471894 54.77289594702159 29.953697405432642 0 0 -1
520 1 77.52406294590745 58.10812609273034 29.937470603574283 0 0 -1
521 1 80.43337099025692 56.47262048778064 29.953260882905358 0 0 -1
522 1 83.34417432502251 54.83985997824156 29.964110593277603 0 0 -1
536 1 77.43977495177296 61.44171379634511 29.919450478796808 0 0 -1
537 1 80.35437716404877 59.802450027559786 29.93780389123855 0 0 -1
538 1 83.27038285701664 58.16515042267961 29.9522712104548 0 0 -1
552 1 80.2667531654788 63.131283943051095 29.923013903956132 0 0 -1
553 1 83.18689820713652 61.49024431300754 29.939045008703776 0 0 -1
1119 3 74.95469928759522 56.614655651872766 6.614274664827602 0 0 0
1120 3 77.80632965539326 54.92127961435573 6.611734970632652 0 0 0
1139 3 77.88151536271013 58.236145905612815 6.614037957704799 0 0 0
1140 3 80.72698336817481 56.544902223202605 6.6137575123992365 0 0 0
1156 3 77.96529370000178 61.552451074380464 6.617499993827872 0 0 0
1157 3 80.80545862984728 59.86471936538231 6.620119060882324 0 0 0
2223 2 73.77904531208594 54.728634330313476 1.6174877743411658 0 0 0
2263 2 76.60627003823018 56.43515740880683 1.618009257812251 0 0 0
2265 2 79.51155679024845 54.799856820727484 1.6324652929585226 0 0 0
2299 2 76.52452415197324 59.770348337607295 1.5999528850979687 0 0 0
2301 2 79.4361298663392 58.131704671446045 1.6178690180263713 0 0 0
2303 2 82.34892994154904 56.49452820125746 1.6315534027324754 0 0 0
2333 2 79.35043406564614 61.46067329675617 1.6017964228092882 0 0 0
2335 2 82.26849568879433 59.820326316260385 1.6180495775677841 0 0 0
2365 2 82.1791596505735 63.144153531103754 1.6051822483167155 0 0 0
3501 2 75.88612559245232 54.944679224980824 8.297934329696353 0 0 0
3502 2 75.88049205237323 54.94096854342172 4.929823037176961 0 0 0
3539 2 75.95999937729366 58.25408773479048 8.297871295174671 0 0 0
3540 2 75.95798515719412 58.252078191515324 4.92976654128527 0 0 0
3541 2 78.80609839247813 56.56201821466029 8.297002596023267 0 0 0
3542 2 78.80543782618977 56.563133559447195 4.928961787736137 0 0 0
3543 2 81.65216313129397 54.8682686033217 8.29580068446945 0 0 0
3544 2 81.6520591754594 54.872076853246554 4.9278001552634665 0 0 0
3575 2 78.88304506366772 59.87699834985223 8.3010812340242 0 0 0
3576 2 78.88622897783165 59.879206478317315 4.932972919199734 0 0 0
3577 2 81.72399460251663 58.186594375647566 8.302248287402431 0 0 0
3578 2 81.72698666401294 58.19230990269956 4.934161056652698 0 0 0
3607 2 78.96779301147272 63.19457879621188 8.305013515321294 0 0 0
3608 2 78.97474592605764 63.195603647889705 4.936748796543706 0 0 0
3609 2 81.80434280557324 61.50695384052958 8.30952538475829 0 0 0
3610 2 81.81091735579798 61.512230577718334 4.941277919945164 0 0 0
539 1 86.1882996322318 56.531924385283055 29.96105764934103 0 0 -1
540 1 89.108729160642 54.90493598999126 29.962335168145053 0 0 -1
554 1 86.10907459059433 59.85250313123742 29.950751100558527 0 0 -1
555 1 89.03363597673868 58.22018215202499 29.955763158106485 0 0 -1
556 1 91.9609873333732 56.59541799385607 29.952190102538246 0 0 -1
567 1 86.02119850784037 63.17352671142481 29.940527659850915 0 0 -1
568 1 88.9488582183289 61.53670453386141 29.947624461557513 0 0 -1
569 1 91.87941724106288 59.90664734348213 29.946979174205378 0 0 -1
1141 3 83.57175770846254 54.850593146308654 6.61264083680981 0 0 0
1158 3 83.64498933978854 58.17450045656525 6.6209902267206076 0 0 0
1159 3 86.4833845589208 56.479986799233224 6.61969905846089 0 0 0
1160 3 89.32005956157735 54.77933114913692 6.616970022538526 0 0 0
1174 3 83.7268427688975 61.49854281287972 6.630203632107749 0 0 0
1175 3 86.5608568548094 59.80816502480624 6.631030186631227 0 0 0
1176 3 89.39324233415275 58.112251310224444 6.628465376767592 0 0 0
1177 3 92.22357673207546 56.40900113164112 6.623796472477472 0 0 0
1189 3 86.64601752152667 63.135718746001615 6.641478636898119 0 0 0
1190 3 89.47507593528663 61.4439954249897 6.6414513498939005 0 0 0
1191 3 92.30195885407355 59.74550063882825 6.637268254942317 0 0 0
1204 3 92.38814022968748 63.080098992479904 6.650498111531619 0 0 0
2305 2 85.26392475854712 54.86114312498692 1.6396634136630168 0 0 0
2337 2 85.18871825927653 58.182654711732624 1.629740114400865 0 0 0
2339 2 88.11172134101972 56.55004377782773 1.6348480469475795 0 0 0
2341 2 91.03785172072952 54.92509845213712 1.6317668735699093 0 0 0
2367 2 85.10338807185508 61.503424751531064 1.6185360358323613 0 0 0
2369 2 88.03065935603223 59.86667151762245 1.6265447346608872 0 0 0
2371 2 90.96116476901733 58.23634268412096 1.626918638374807 0 0 0
2373 2 93.89473205364845 56.6150485091515 1.6183567590325951 0 0 0
2395 2 87.94075983326435 63.183355180107064 1.6181426130858294 0 0 0
2397 2 90.87440560091463 61.54892004482776 1.6205373515169577 0 0 0
2399 2 93.81158845882953 59.92238975200937 1.614433957455637 0 0 0
3579 2 84.56448189276196 56.493564564372406 8.301777797893786 0 0 0
3580 2 84.5664040708441 56.501909681216986 4.933696963434666 0 0 0
3581 2 87.40350382675902 54.79642578091261 8.29988388440824 0 0 0
3582 2 87.40427661924122 54.80574796505755 4.931802926375373 0 0 0
3611 2 84.64060064187774 59.81703596004739 8.311574090850218 0 0 0
3612 2 84.64530336402524 59.826219889174396 4.943329084544 0 0 0
3613 2 87.47575073227499 58.12340663378321 8.310562943294068 0 0 0
3614 2 87.47795788767576 58.135358331954315 4.942319111449993 0 0 0
3615 2 90.30883652629669 56.42456993721958 8.307144901158418 0 0 0
3616 2 90.30894359001118 56.437386487994104 4.938907749634586 0 0 0
3617 2 93.13907585255123 54.71891111108341 8.302995788913229 0 0 0
3618 2 93.13810875510427 54.730352779569536 4.934778773126025 0 0 0
3639 2 84.7243560449219 63.1423387730453 8.320497210002202 0 0 0
3640 2 84.73218224098406 63.149026974635426 4.952008864181754 0 0 0
3641 2 87.55628858495379 61.45164685290728 8.322372382178504 0 0 0
3642 2 87.56091424645058 61.46275857282702 4.953894494409856 0 0 0
3643 2 90.38625675547323 59.75606735580268 8.320045936697898 0 0 0
3644 2 90.38762445951622 59.770364187367434 4.9515882348788525 0 0 0
3645 2 93.2134291002986 58.0541434019713 8.314782474040049 0 0 0
3646 2 93.2125844630666 58.06960143242135 4.946356999111781 0 0 0
3669 2 90.4711350862374 63.088568661354984 8.332371888643966 0 0 0
3670 2 90.47463884759202 63.10003495959744 4.963631458337569 0 0 0
3671 2 93.29607883453735 61.38971002803989 8.328779203311019 0 0 0
3672 2 93.29649181183066 61.40500669689648 4.960086917061743 0 0 0
557 1 94.89147721461516 54.980039488558084 29.939672158231243 0 0 -1
570 1 94.81304609947229 58.28539790882898 29.93710570950399 0 0 -1
571 1 97.74974320126077 56.674444365576846 29.918643726005076 0 0 -1
572 1 100.68905529934167 55.07408104346086 29.894976715141215 0 0 -1
582 1 94.72488424285305 61.59333134324456 29.93287034758921 0 0 -1
583 1 97.66390906016159 59.97687218287485 29.915469620737795 0 0 -1
584 1 100.60582854498668 58.371373044471476 29.89076224212119 0 0 -1
585 1 103.54971353316475 56.77638177068088 29.863470854109053 0 0 -1
594 1 100.51254528014529 61.67192704334453 29.885677681310604 0 0 -1
595 1 103.45842221447626 60.07283728439072 29.85478053694876 0 0 -1
1178 3 95.05146678779731 54.6969472261995 6.619077573369905 0 0 0
1192 3 95.12642953082431 58.03855214468342 6.630862178033895 0 0 0
1193 3 97.94839408937491 56.32205814380419 6.624634851455248 0 0 0
1194 3 100.76811708717624 54.59605769673844 6.620018981964179 0 0 0
1205 3 95.2101652472052 61.37782209533417 6.645307905273617 0 0 0
1206 3 98.02943594814928 59.66610218552853 6.638354133745283 0 0 0
1207 3 100.84621265134557 57.94437478076686 6.632013939601713 0 0 0
1208 3 103.66119426360575 56.21342309894464 6.627139463405158 0 0 0
1217 3 98.11854689759353 63.007205400312806 6.652774337379365 0 0 0
1218 3 100.93348496300226 61.28968152324629 6.647196681196154 0 0 0
1219 3 103.74605484090148 59.562070326959955 6.642515125722865 0 0 0
1229 3 103.83950336332498 62.90732273555083 6.658655184326962 0 0 0
2375 2 96.83073188505494 55.004955391240244 1.6015887556427226 0 0 0
2401 2 96.75160562122747 58.30625344273186 1.5992788045619226 0 0 0
2403 2 99.69328026688072 56.70217476145133 1.577031859203055 0 0 0
2405 2 102.63503238616391 55.110049428473495 1.5523033592965554 0 0 0
2425 2 96.66214108077222 61.61042571943901 1.5955695913855423 0 0 0
2427 2 99.60730408149188 60.00093889919781 1.5730021176810727 0 0 0
2429 2 102.55322537641337 58.40403353452309 1.5454050620654884 0 0 0
2449 2 102.46043131228791 61.7011546809465 1.5382175908009206 0 0 0
3647 2 96.0374059455335 56.3444070476242 8.308774158932978 0 0 0
3648 2 96.03578969823056 56.35878784051202 4.940401309800185 0 0 0
3649 2 98.85861236555027 54.62579149426651 8.303909895943615 0 0 0
3650 2 98.85699958641447 54.637502688118424 4.9356028215892 0 0 0
3673 2 96.11751947811493 59.683345947441175 8.322347129529673 0 0 0
3674 2 96.11648249892721 59.70046275714738 4.953717257722715 0 0 0
3675 2 98.9356265650859 57.96829796436583 8.31556949844731 0 0 0
3676 2 98.93468762800913 57.985143932146876 4.9470238565226285 0 0 0
3677 2 101.75150637551104 56.244063319278965 8.310078940020968 0 0 0
3678 2 101.75103435383886 56.25935030357605 4.941620544872579 0 0 0
3695 2 96.20531423133153 63.02235253471493 8.336298894876935 0 0 0
3696 2 96.20573603633137 63.03735356805521 4.967370044526882 0 0 0
3697 2 99.02151631853035 61.31024655509061 8.330275366497391 0 0 0
3698 2 99.02190402149756 61.327990350853916 4.961433108348141 0 0 0
3699 2 101.83459602344689 59.58876668427727 8.324463549403282 0 0 0
3700 2 101.83610502119905 59.60748715519243 4.955730495456677 0 0 0
3719 2 101.92612114368296 62.932810186333064 8.339649089988802 0 0 0
3720 2 101.92993473828606 62.950141444306176 4.970602546497801 0 0 0
586 1 106.49405782913993 55.18984913746952 29.840004898207127 0 0 -1
596 1 106.40552111515845 58.48374096153145 29.824772539004123 0 0 -1
597 1 109.35203406697059 56.901867455261886 29.80243867433995 0 0 -1
598 1 112.2959057706891 55.32364323167714 29.793005971079577 0 0 -1
605 1 106.30629852751713 61.78078013883226 29.810231715068603 0 0 -1
606 1 109.2550799817189 60.1978429473178 29.778783024830638 0 0 -1
607 1 112.20233223450842 58.62052845888036 29.75901940948756 0 0 -1
614 1 112.09742084300757 61.91993165867731 29.72711496779519 0 0 -1
1209 3 106.47557644348754 54.47543101418729 6.622629924283416 0 0 0
1220 3 106.55737191338565 57.82596261099422 6.638579211231904 0 0 0
1221 3 109.36896309800031 56.084163331333265 6.633567773653609 0 0 0
1222 3 112.18262804201453 54.3401237441726 6.625670206527568 0 0 0
1230 3 106.64907048468514 61.173408991348246 6.657221999610573 0 0 0
1231 3 109.45799349589291 59.43219366170168 6.654980174371072 0 0 0
1232 3 112.26801356515239 57.686947838394836 6.6496657882234675 0 0 0
1239 3 109.55626863894804 62.77698237389493 6.676362740295198 0 0 0
1240 3 112.36417257908991 61.03105037991078 6.675844660267985 0 0 0
2431 2 105.4980043894093 56.81852603582633 1.5185121307042804 0 0 0
2433 2 108.4399501395654 55.241148234717976 1.498773262817618 0 0 0
2451 2 105.40886206468676 60.11233207048499 1.5057677742118702 0 0 0
2453 2 108.35500828774025 58.53373975030207 1.477867860218493 0 0 0
2455 2 111.29738228241924 56.961233178819974 1.4607835536804212 0 0 0
2457 2 114.23520194790586 55.3899884613667 1.4582000561445096 0 0 0
2471 2 108.25837920872621 61.828297093578215 1.4582471338688008 0 0 0
2473 2 111.20413355918487 60.25641569455846 1.4307994331895464 0 0 0
2475 2 114.14562535530874 58.68824689088762 1.4176590269999563 0 0 0
2489 2 114.04395172160369 61.986422804531685 1.379596074375534 0 0 0
3679 2 104.56689901575626 54.511412011220884 8.305679920443445 0 0 0
3680 2 104.56580233001108 54.52505863155609 4.937255586147741 0 0 0
3701 2 104.64631053918939 57.858170584234436 8.319764047460602 0 0 0
3702 2 104.6484608773566 57.87696457267938 4.951131770411587 0 0 0
3703 2 107.4587104467275 56.12012885630799 8.31516168251595 0 0 0
3704 2 107.45968229243377 56.13904963825506 4.946560260548768 0 0 0
3705 2 110.27347367501835 54.37768085969309 8.308732832002358 0 0 0
3706 2 110.27152653626564 54.39705613816021 4.94001655711284 0 0 0
3721 2 104.735521335973 61.20399948581835 8.336692318837224 0 0 0
3722 2 104.74108668793559 61.223880111196586 4.967772259980487 0 0 0
3723 2 107.5446488221703 59.46661706405423 8.333995868007483 0 0 0
3724 2 107.5503339397292 59.488562865869035 4.965187268921017 0 0 0
3725 2 110.35553008018971 57.72323416726085 8.329711497490525 0 0 0
3726 2 110.358960098986 57.74727836205151 4.960926259964833 0 0 0
3727 2 113.1694963074184 55.97746786583105 8.32207821927142 0 0 0
3728 2 113.16934880006079 56.00332017804646 4.953143476472932 0 0 0
3739 2 107.6398620964978 62.81240265252203 8.353047686639396 0 0 0
3740 2 107.65023798707563 62.83255966915747 4.983977276356495 0 0 0
3741 2 110.44818400762631 61.068267767490006 8.352911601705076 0 0 0
3742 2 110.45732530228648 61.092584403414726 4.983965082967867 0 0 0
3743 2 113.25895630952121 59.32001899959893 8.348987806785631 0 0 0
3744 2 113.26452262434566 59.348315554108936 4.98004618425495 0 0 0
3757 2 113.35822966733825 62.66262856113355 8.375356709996991 0 0 0
3758 2 113.36969142235074 62.68797402101462 5.006355302810409 0 0 0
338 1 115.14602445165042 57.04519021911693 29.75480828922477 -1 0 -1
382 1 117.87715905228276 62.08106292527426 29.66298856657851 -1 0 -1
615 1 115.04404453443809 60.346803991745084 29.711361082943238 0 0 -1
1233 3 115.08099696021844 55.94111032333105 6.6402353223208825 0 0 0
1241 3 115.17386784939939 59.282922470716805 6.670135756574126 0 0 0
1248 3 115.27658051669928 62.62211803298952 6.699381911504396 0 0 0
1249 3 118.0871061684104 60.87179718817428 6.693153687315439 0 0 0
2491 2 116.9835051124235 60.42183387083253 1.3715122672110605 0 0 0
3745 2 116.07309429326511 57.57152076034234 8.340281881042623 0 0 0
3746 2 116.07465168314404 57.60273629757726 4.971164448821788 0 0 0
3759 2 116.17001983190413 60.91041666587026 8.371495909436193 0 0 0
3760 2 116.17682156841697 60.94119209665603 5.002478411259235 0 0 0
3771 2 119.08896002503084 62.49496457929154 8.394788631774059 0 0 0
3772 2 119.09564776988915 62.52565209882038 5.025794918735369 0 0 0
565 1 80.17378371175965 66.4590035963037 29.913190633148965 0 0 -1
566 1 83.0962462979509 64.81498235195045 29.928206050836447 0 0 -1
578 1 83.00235003468882 68.13923342059822 29.923042830724416 0 0 -1
1262 3 124.16403492236238 70.67748963611274 6.769480840476863 0 0 0
1173 3 80.89156658947869 63.18520896270541 6.626028965944723 0 0 0
1187 3 80.98231334443079 66.50612396178711 6.6284520782219385 0 0 0
2363 2 79.25747008576036 64.7867072984454 1.5887923934131116 0 0 0
2391 2 82.0847127828184 66.46622947828985 1.5967973143720562 0 0 0
2516 2 113.645296994212 71.89010851186237 27.98103772099485 0 0 -1
3637 2 81.89128471738933 64.8295312170225 8.314608985061994 0 0 0
3638 2 81.90111746694198 64.83145169185211 4.946109636923077 0 0 0
3663 2 81.98160248192787 68.15371262094281 8.31471407317845 0 0 0
3664 2 81.9936601446837 68.15029397757179 4.945876306372743 0 0 0
579 1 85.92794676233751 66.49482058064612 29.93363210778801 0 0 -1
580 1 88.8568488608327 64.85429459741125 29.94051967502162 0 0 -1
581 1 91.78915942335226 63.21975612403589 29.941008690376055 0 0 -1
589 1 85.83369581394933 69.81626200316629 29.932308705970414 0 0 -1
590 1 88.76148860742195 68.1727808668389 29.937136258569346 0 0 -1
591 1 91.69339303058064 66.53454107347457 29.936784068493736 0 0 -1
599 1 88.66740650398829 71.49206860061274 29.93877553458723 0 0 -1
600 1 91.59644221033982 69.85084788732881 29.936462007061138 0 0 -1
1188 3 83.81502329905427 64.82249817140944 6.636828706749337 0 0 0
1201 3 83.90602271791042 68.14614660207378 6.637772961569478 0 0 0
1202 3 86.73595064413692 66.46244784935143 6.6470725764517455 0 0 0
1203 3 89.56336839906186 64.7743761529156 6.65147982027936 0 0 0
1212 3 83.99575821399137 71.46930502905569 6.631890784675934 0 0 0
1213 3 86.82681805281253 69.78814911894173 6.645201262245154 0 0 0
1214 3 89.65473494851508 68.10320556790093 6.65458575315972 0 0 0
1215 3 92.47934232309547 66.41261270820056 6.658637356490002 0 0 0
1224 3 89.745180562976 71.43029437513317 6.649063244639925 0 0 0
1225 3 92.57185359872523 69.74286950975484 6.658219869715454 0 0 0
2393 2 85.01091362718125 64.82318981025834 1.6093660024406382 0 0 0
2417 2 84.91563112628882 68.14237977728686 1.6052058678227015 0 0 0
2419 2 87.8456755922572 66.49998882205304 1.6125506459921817 0 0 0
2421 2 90.7803396454752 64.86229644189402 1.614888476119109 0 0 0
2423 2 93.71940759593105 63.2316047878981 1.609730338872243 0 0 0
2437 2 84.82239818645367 71.4619680781667 1.607241266565131 0 0 0
2439 2 87.75006399399075 69.8171679126839 1.6118836357576465 0 0 0
2441 2 90.6831151986787 68.17654372031242 1.612492560175588 0 0 0
2443 2 93.62159240756888 66.54228405721926 1.6065694094325695 0 0 0
2459 2 90.58752312389309 71.49239804928065 1.614665980157011 0 0 0
2461 2 93.52263331915555 69.85473424351726 1.6070911791293085 0 0 0
3665 2 84.81317929272404 66.46919549170427 8.324971465495858 0 0 0
3666 2 84.8236537698267 66.47039516057048 4.956167124419648 0 0 0
3667 2 87.64324146177114 64.78128022108193 8.331231375960225 0 0 0
3668 2 87.65053204715446 64.78770798569367 4.962454663567917 0 0 0
3687 2 84.9034947314291 69.79653083188532 8.322661172301975 0 0 0
3688 2 84.91545981846616 69.7910998934864 4.953491862716895 0 0 0
3689 2 87.73355596597037 68.11154358185591 8.333548317165281 0 0 0
3690 2 87.74294178691147 68.1107351753907 4.964428107497854 0 0 0
3691 2 90.56098993251103 66.4217720258816 8.339606917718756 0 0 0
3692 2 90.56678032611964 66.42655340590649 4.9705437913175965 0 0 0
3693 2 93.38511252809602 64.72580808051366 8.340185238853854 0 0 0
3694 2 93.3874989923235 64.73623081430553 4.9711863938356675 0 0 0
3709 2 87.82347546102855 71.4410156947809 8.327865700850658 0 0 0
3710 2 87.83375408319165 71.43294028623593 4.958393506154183 0 0 0
3711 2 90.65242917232331 69.75447355410925 8.338635621858323 0 0 0
3712 2 90.65986104603311 69.75086285035664 4.969230898359156 0 0 0
3713 2 93.47755385819332 68.06169063322315 8.34454452730281 0 0 0
3714 2 93.4819308059103 68.06384227338565 4.975224690073075 0 0 0
3729 2 93.56980462388034 71.39581954577888 8.339632058122541 0 0 0
3730 2 93.57545674361918 71.38910806176037 4.969990845047451 0 0 0
592 1 94.62938679788408 64.90369970596173 29.928741345680322 0 0 -1
593 1 97.56925346005869 63.28232167998528 29.91149530471252 0 0 -1
601 1 94.53034031594154 68.21631740204661 29.927178712651013 0 0 -1
602 1 97.46893387107157 66.59067503465367 29.90893797156492 0 0 -1
603 1 100.41174492610315 64.97581054300196 29.881373524212542 0 0 -1
604 1 103.35795363137825 63.37269789983777 29.84675495863408 0 0 -1
608 1 94.43232113781845 71.53106319359799 29.929762552851173 0 0 -1
609 1 97.36718311550742 69.90177373135485 29.910137006673537 0 0 -1
610 1 100.30722242094961 68.2829200221833 29.88051454374874 0 0 -1
611 1 103.25166219547597 66.67600055142404 29.842102160280543 0 0 -1
616 1 100.20343998084897 71.59314505315032 29.885004928274466 0 0 -1
617 1 103.14377431683371 69.98264691759641 29.84362257479994 0 0 -1
1216 3 95.30059033673741 64.7145022007829 6.657446946933321 0 0 0
1226 3 95.39444502781377 68.0484263184692 6.662524782910575 0 0 0
1227 3 98.2130098291592 66.34511912189758 6.662669961426043 0 0 0
1228 3 101.02782909947875 64.63155666516906 6.660678524156064 0 0 0
1234 3 95.48783826896556 71.37944501305056 6.658001791032316 0 0 0
1235 3 98.30920899725146 69.67971058652105 6.663869966251716 0 0 0
1236 3 101.1259879579147 67.9698017831308 6.667429769190447 0 0 0
1237 3 103.93871840383423 66.2488445180866 6.670404650663915 0 0 0
1243 3 101.2241495896256 71.30432425222997 6.6643168952217975 0 0 0
1244 3 104.04005757405488 69.58652590867594 6.673406561657157 0 0 0
2445 2 96.56488304266458 64.91683201936857 1.5920991747592264 0 0 0
2447 2 99.51174680163344 63.30259274277339 1.568618167356978 0 0 0
2463 2 96.46375636859395 68.22530630379586 1.5913003818940448 0 0 0
2465 2 99.40984228663393 66.60666862523411 1.5661319018493014 0 0 0
2467 2 102.35913314361753 65.00088300356599 1.5325906984555482 0 0 0
2477 2 96.36344477459505 71.53647136576448 1.5948137263612914 0 0 0
2479 2 99.30590898209542 69.9134080935331 1.5679604476099034 0 0 0
2481 2 102.25315933299834 68.3031338331799 1.5313564076477204 0 0 0
2493 2 102.14704293283519 71.60869566429626 1.5365104482127219 0 0 0
3715 2 96.2982357311005 66.36122082271918 8.345536978456348 0 0 0
3716 2 96.30058798239325 66.36945974812399 4.976301742969053 0 0 0
3717 2 99.11422985636352 64.65186718650114 8.34313150080517 0 0 0
3718 2 99.11647594749348 64.66538814618458 4.973980466808417 0 0 0
3731 2 96.3929319074329 69.69880236215822 8.346147548487991 0 0 0
3732 2 96.3970372292166 69.69774747985745 4.976609316594413 0 0 0
3733 2 99.21067579878974 67.99254307902923 8.349221568820836 0 0 0
3734 2 99.21489942339352 67.99773277774305 4.979785293774205 0 0 0
3735 2 102.0233693732761 66.27604916068023 8.350517274436177 0 0 0
3736 2 102.02957029780866 66.28704380343333 4.981180891797483 0 0 0
3747 2 99.30725726501109 71.33080094257274 8.345610821657143 0 0 0
3748 2 99.31303119575806 71.32632290865726 4.9758985922945556 0 0 0
3749 2 102.12284861104214 69.6174792186717 8.352799502544029 0 0 0
3750 2 102.13112376629206 69.6190242206934 4.983214253510755 0 0 0
612 1 106.19929813739715 65.08116700433474 29.79909735479642 0 0 -1
613 1 109.1485157867323 63.49682973220137 29.75826291026064 0 0 -1
618 1 106.08851555963189 68.3848579835245 29.794901008774264 0 0 -1
619 1 109.03610653311257 66.79885201743288 29.745087877197324 0 0 -1
620 1 111.98469271983397 65.22197185101257 29.702207963877722 0 0 -1
622 1 105.97829484543783 71.69177735041997 29.79989365081716 0 0 -1
623 1 108.92214643471443 70.10377923504541 29.742824334123455 0 0 -1
624 1 111.86842974192416 68.5264812243059 29.68913723099662 0 0 -1
625 1 114.81515773037677 66.95634324420007 29.647302752146434 0 0 -1
627 1 111.75273120405944 71.83332182916389 29.69040794720612 0 0 -1
628 1 114.69676010291604 70.26387396979518 29.636843081513526 0 0 -1
1238 3 106.74835076154056 64.51726839277285 6.6737160625695875 0 0 0
1245 3 106.85180053985866 67.85736357254196 6.6830598915870825 0 0 0
1246 3 109.66067851334299 66.1182588676847 6.6924097755164595 0 0 0
1247 3 112.4683461357422 64.37201756427586 6.69880456454452 0 0 0
1250 3 106.95563353243452 71.19367411934891 6.682053762413195 0 0 0
1251 3 109.7674627953298 69.4560267785862 6.698818635526787 0 0 0
1252 3 112.57683520856177 67.70984136283805 6.713364663383756 0 0 0
1256 3 112.68589466978023 71.04464481232611 6.716565134356538 0 0 0
2469 2 105.3094165410835 63.40859268999211 1.4945303381952495 0 0 0
2483 2 105.20294047788434 66.70701284541803 1.4878571007183488 0 0 0
2485 2 108.15270554794435 65.12440756362203 1.4431983310450043 0 0 0
2487 2 111.10018321162093 63.55238584715903 1.404819933107471 0 0 0
2495 2 105.09370219943692 70.00809434878694 1.4887533878695736 0 0 0
2497 2 108.0419615088129 68.42227901783967 1.4366210169385834 0 0 0
2499 2 110.98917444748572 66.84909009534384 1.3875966590579454 0 0 0
2501 2 113.93348163148944 65.28429372536708 1.3496439529465705 0 0 0
2505 2 107.93052066972749 71.72305793515963 1.440891042502393 0 0 0
2507 2 110.87544577806348 70.14739510110601 1.3829049400009632 0 0 0
2509 2 113.8185519672883 68.58246448540189 1.3329240488309484 0 0 0
2515 2 113.70324862000943 71.88232576958713 1.3319050108473411 0 0 0
3737 2 104.83236213824864 64.549057060951 8.351707869275792 0 0 0
3738 2 104.84127675284316 64.56494301031263 4.982492046003589 0 0 0
3751 2 104.93356938234214 67.89280925893209 8.359883320202098 0 0 0
3752 2 104.94541376639236 67.90041009854983 4.99042560068995 0 0 0
3753 2 107.74148436225467 66.15732018403091 8.367190670180245 0 0 0
3754 2 107.7560694302213 66.17077145011066 4.997886041492071 0 0 0
3755 2 110.5490595927426 64.41287689327949 8.37325077800286 0 0 0
3756 2 110.56363399481606 64.43222111391435 5.00412583127304 0 0 0
3761 2 105.03544312970112 71.2339218092443 8.35805650084436 0 0 0
3762 2 105.04948592209561 71.2315091931999 4.988394268229934 0 0 0
3763 2 107.8458780301427 69.50044787206284 8.372179444601596 0 0 0
3764 2 107.86381906094955 69.50405259644616 5.002696897045095 0 0 0
3765 2 110.65470215441347 67.75651357086015 8.385721531411788 0 0 0
3766 2 110.67388889058618 67.76668099907201 5.016450652749019 0 0 0
3767 2 113.4641206425955 66.00506872999522 8.395617876316086 0 0 0
3768 2 113.48092045635664 66.02237338487426 5.026544012560083 0 0 0
3773 2 110.76135812837546 71.09792247456664 8.387309452659562 0 0 0
3774 2 110.78414898739155 71.0973189894963 5.017922366143394 0 0 0
3775 2 113.57281684840655 69.34636730029061 8.405604580500235 0 0 0
3776 2 113.59406660469469 69.3527412001058 5.036461066784839 0 0 0
426 1 120.58300769474695 67.13616866291201 29.581667676931474 -1 0 -1
470 1 123.28158712662534 72.20647595799807 29.542354584013037 -1 0 -1
621 1 114.93232392383922 63.650566944198154 29.67349568804829 0 0 -1
626 1 117.76044180650842 65.38956763040154 29.62320915986334 0 0 -1
629 1 117.64076619500355 68.6993057704504 29.59934904966115 0 0 -1
630 1 117.52180685816468 72.01008769562904 29.593620666697674 0 0 -1
631 1 120.46256385583473 70.44977071886726 29.563215778751598 0 0 -1
1253 3 115.38554115321512 65.95859456687263 6.72209061516273 0 0 0
1254 3 118.19527049228222 64.20570281296229 6.72286373030578 0 0 0
1257 3 115.49684565567317 69.29251734008388 6.7340816124446405 0 0 0
1258 3 118.30760576280973 67.53753818373131 6.743238267874523 0 0 0
1259 3 121.11969972578453 65.78266866455337 6.743349027187609 0 0 0
1260 3 118.42048548402903 70.86747060687422 6.751849293035368 0 0 0
1261 3 121.23399077642085 69.11005746481221 6.7596705222875 0 0 0
2524 2 122.37231646144996 70.50884150793817 27.87653722587808 0 0 -1
2503 2 116.8741448482165 63.72302749103306 1.328525832671305 0 0 0
2511 2 116.7587085461345 67.02326887507516 1.29834995393116 0 0 0
2513 2 119.6957472005468 65.46537433577959 1.282972095880489 0 0 0
2517 2 116.64147197542582 70.32382424214599 1.2849421345488035 0 0 0
2519 2 119.57723982245511 68.76851831539186 1.2564081330946384 0 0 0
2521 2 119.45912420777341 72.07217982123795 1.2485278385905376 0 0 0
2523 2 122.3906642632329 70.51930862000938 1.227966214479687 0 0 0
3349 2 122.12900076526387 67.4067992293775 8.438026986106482 -1 0 0
3350 2 122.1355470504048 67.42394119742586 5.069105260104065 -1 0 0
3769 2 116.27534113897286 64.24995759446513 8.398949865160473 0 0 0
3770 2 116.28725922151848 64.27447463715816 5.029972672042224 0 0 0
3777 2 116.38524115450453 67.58941759981367 8.417431757543195 0 0 0
3778 2 116.40158880943974 67.60356307878442 5.0484355289792555 0 0 0
3779 2 119.19921006645768 65.83103904150067 8.420740677835791 0 0 0
3780 2 119.20946015666692 65.85271699667767 5.051802752339566 0 0 0
3781 2 116.49594990613261 70.92747962704064 8.424328839867837 0 0 0
3782 2 116.51615234701845 70.9300282494228 5.055309553524202 0 0 0
3783 2 119.31189084816617 69.16686520662707 8.435887493187657 0 0 0
3784 2 119.32522864078035 69.17705610628681 5.066937020650655 0 0 0
3785 2 122.24325359699915 70.73857006877778 8.44878666394935 0 0 0
3786 2 122.2514900482409 70.74430479995478 5.079859930012558 0 0 0
2510 2 113.76384514406206 68.5737934965222 27.9820359456413 0 0 -1
1960 2 65.45925603961149 39.47478131631052 28.256181326492847 0 0 -1
1962 2 68.32804978795923 37.86493878788492 28.2472403723203 0 0 -1
1964 2 71.19916671438128 36.25880152152668 28.23821605690121 0 0 -1
2004 2 68.29139875318953 41.217991155944695 28.25898980506035 0 0 -1
2006 2 71.16326279044969 39.608693110485554 28.254095479390372 0 0 -1
2048 2 68.24970767919314 44.570306913137294 28.26696164593632 0 0 -1
2050 2 71.12365087955341 42.95804838103889 28.267082224033057 0 0 -1
2008 2 74.03799731080838 38.00277651203031 28.24974599498186 0 0 -1
2010 2 76.91668356363816 36.401764537555906 28.247021792600425 0 0 -1
2052 2 73.9997419514663 41.347576421617376 28.266041082405696 0 0 -1
2054 2 76.87907707166644 39.740454277423176 28.265310523015692 0 0 -1
2056 2 79.7626486893905 38.13834036680647 28.265228226018653 0 0 -1
2058 2 82.6515250054882 36.54276319943445 28.264997207658 0 0 -1
2094 2 73.95738415444697 44.69121558164107 28.27784740694598 0 0 -1
2096 2 76.83873216161643 43.07855536894588 28.279498961094784 0 0 -1
2098 2 79.72357272801776 41.46963791094001 28.280465034023006 0 0 -1
2100 2 82.61292690797157 39.86624500547673 28.280484770589734 0 0 -1
2142 2 79.68135546085553 44.80034189392838 28.29076376783358 0 0 -1
2144 2 82.5724571635517 43.18991525717143 28.291334008651198 0 0 -1
2102 2 85.50795702499653 38.26984713330144 28.2786886433953 0 0 -1
2104 2 88.40976495685595 36.681025947772206 28.27456298172113 0 0 -1
2146 2 85.46834431801418 41.58583746997939 28.28922583715907 0 0 -1
2148 2 88.37023087641546 39.989304381226766 28.28408481658491 0 0 -1
2150 2 91.27897272821725 38.40035681858728 28.276597432552634 0 0 -1
2188 2 85.42613073735103 44.90234763915502 28.29572348765187 0 0 -1
2190 2 88.32905690490608 43.29857821095014 28.290022215977384 0 0 -1
2192 2 91.23816482764288 41.70272083083733 28.280888388259896 0 0 -1
2236 2 91.19450224444088 45.00624247121215 28.283306069627173 0 0 -1
2152 2 94.19445880525578 36.817641637888215 28.268817759204182 0 0 -1
2194 2 94.15386172692666 40.11414146854809 28.27041027071968 0 0 -1
2196 2 97.07529177332344 38.53089008575162 28.261691656576055 0 0 -1
2198 2 100.00021513194505 36.95005365543694 28.257594870314936 0 0 -1
2238 2 94.1108729507263 43.41168042425751 28.27050421548827 0 0 -1
2240 2 97.0331724936488 41.823722897301316 28.25821350055649 0 0 -1
2242 2 99.95975212589506 40.239961671732786 28.250102484049535 0 0 -1
2244 2 102.8877187087733 38.65731724787983 28.248546278317587 0 0 -1
2278 2 96.98698402817928 45.117460379473265 28.255040407340633 0 0 -1
2280 2 99.91525126118519 43.530192769743394 28.24248145008006 0 0 -1
2282 2 102.84598410050677 41.94590944093469 28.23650151481721 0 0 -1
2284 2 105.77584443644677 40.3615185295498 28.238506352485103 0 0 -1
2320 2 105.73201760326873 43.649778452345245 28.222584812445707 0 0 -1
2092 2 71.07855375413527 46.30588626431496 28.274733229738366 0 0 -1
2136 2 71.026176877748 49.65162911488035 28.274640703208515 0 0 -1
2138 2 73.90915644763916 48.0330087243947 28.282959857863197 0 0 -1
2140 2 76.79390893000335 46.41533160547879 28.288011202858534 0 0 -1
2180 2 73.85323871635369 51.37280537123364 28.27964682569278 0 0 -1
2182 2 76.74274348080336 49.750462384669554 28.28921853351027 0 0 -1
2184 2 79.63413228098823 48.13002384603827 28.29504231280264 0 0 -1
2186 2 82.5282438796371 46.51335279690989 28.29731685686938 0 0 -1
2226 2 76.6833739539118 53.084196367763994 28.28230367944856 0 0 -1
2228 2 79.57989777832212 51.45868226000674 28.292366624822513 0 0 -1
2230 2 82.478244441846 49.83637112803406 28.29783164004941 0 0 -1
2268 2 82.4203758926487 53.159178038884065 28.292484065065622 0 0 -1
2232 2 85.37929733746364 48.219142475696536 28.298240001327034 0 0 -1
2234 2 88.28427236357984 46.608727651067774 28.293225406373296 0 0 -1
2270 2 85.32568093980419 51.53618989577013 28.296411802214607 0 0 -1
2272 2 88.2337616268653 49.91963108405299 28.293754097821665 0 0 -1
2274 2 91.14597811845279 48.31086967617859 28.284566205578173 0 0 -1
2308 2 88.1753927917924 53.231378266843684 28.291159919850585 0 0 -1
2310 2 91.09050308485905 51.61658016743169 28.284417960246056 0 0 -1
2276 2 94.06357666192778 46.71039118092852 28.270517266170152 0 0 -1
2312 2 94.01000673402706 50.010276980784596 28.270764394993396 0 0 -1
2314 2 96.93485146665968 48.41224432648105 28.253215801523723 0 0 -1
2316 2 99.86482808192719 46.82108977325653 28.23641720534745 0 0 -1
2318 2 102.79822351567893 45.234531092307016 28.225173657980168 0 0 -1
2344 2 93.94825051857865 53.311473764745294 28.270490259863237 0 0 -1
2346 2 96.87494058080858 51.70818695989841 28.252493409939202 0 0 -1
2348 2 99.80668421292629 50.11285272125031 28.232439224486598 0 0 -1
2350 2 102.74253896085256 48.523552437471615 28.21580490465946 0 0 -1
2378 2 99.7392512111262 53.40581208477407 28.22975522885318 0 0 -1
2380 2 102.67728846346819 51.813347355441365 28.208402848537794 0 0 -1
2352 2 105.68006990206439 46.937762824060506 28.207305621904744 0 0 -1
2354 2 108.61581376441208 45.352699045806744 28.20901171849695 0 0 -1
2382 2 105.61811317150091 50.22598321283034 28.19339671608332 0 0 -1
2384 2 108.55867674390774 48.641091092265455 28.188819134831377 0 0 -1
2408 2 105.54480193144606 53.51513741870779 28.180537637910707 0 0 -1
2410 2 108.48948773081877 51.929810330052646 28.168505580500486 0 0 -1
2412 2 111.4319219447039 50.34598910633521 28.16875046145092 0 0 -1
2436 2 111.35470030393024 53.63680640419526 28.13999253896995 0 0 -1
2224 2 73.78804344853873 54.711084582698604 28.267661256429662 0 0 -1
2264 2 76.61441252952 56.41731357814116 28.26817183434179 0 0 -1
2266 2 79.51682270181591 54.78683101947013 28.282778917789926 0 0 -1
2300 2 76.53560612314651 59.75076567089837 28.24992922799479 0 0 -1
2302 2 79.44389014820294 58.11533743364331 28.268050071368222 0 0 -1
2304 2 82.35302421166143 56.48240369360879 28.281889578720413 0 0 -1
2334 2 79.36153465290937 61.4449609039877 28.251792453866443 0 0 -1
2336 2 82.27576194783965 59.806845561109206 28.268261000285133 0 0 -1
2366 2 82.18983425764723 63.132981327813944 28.25520923781382 0 0 -1
2306 2 85.26329232067738 54.85382395887662 28.290078093284055 0 0 -1
2338 2 85.19097399619855 58.172716900672 28.280096185500486 0 0 -1
2340 2 88.1075029540222 56.544429543059366 28.285243060987998 0 0 -1
2342 2 91.0261780037729 54.92363286228603 28.28209710754879 0 0 -1
2368 2 85.10906843553423 61.49353979125161 28.2687783645972 0 0 -1
2370 2 88.0296120559536 59.85949638880407 28.276905134283137 0 0 -1
2372 2 90.9519043049682 58.232668382953484 28.27727068288891 0 0 -1
2374 2 93.8768684761781 56.61450038614112 28.268586867543767 0 0 -1
2396 2 87.94293628693794 63.17713046280079 28.26840279669791 0 0 -1
2398 2 90.86804341905292 61.54446011411117 28.270878042664297 0 0 -1
2400 2 93.79554645685104 59.92022844533183 28.264714678072476 0 0 -1
2376 2 96.80570031843556 55.00568514863529 28.251624559067096 0 0 -1
2402 2 96.72639135406591 58.305592156548144 28.249383536934914 0 0 -1
2404 2 99.66156005363788 56.70072438583048 28.226892325939346 0 0 -1
2406 2 102.60135558021952 55.10459048909927 28.2018849311954 0 0 -1
2426 2 96.63764737672349 61.609002242390275 28.245744772940423 0 0 -1
2428 2 99.5737802038384 59.998789462042204 28.22295735524226 0 0 -1
2430 2 102.51458423381325 58.3984446583753 28.1950752313161 0 0 -1
2450 2 102.41823439252299 61.696341762655614 28.188000559533545 0 0 -1
2432 2 105.45970574998393 56.80633296236484 28.167878986585045 0 0 -1
2434 2 108.40741863507384 55.220004629986235 28.147874570739358 0 0 -1
2452 2 105.36372494562652 60.10105936648207 28.15524101405617 0 0 -1
2454 2 108.31300119228125 58.51318966066632 28.127043663200755 0 0 -1
2456 2 111.26362669913382 56.93003677902121 28.109727490097917 0 0 -1
2458 2 114.21215020046587 55.349009864323314 28.10695906119996 0 0 -1
2472 2 108.20832992185738 61.81094727648221 28.107536988996152 0 0 -1
2474 2 111.16040130317538 60.227424474839964 28.07983216751185 0 0 -1
2476 2 114.11244618815579 58.6473931890438 28.0665098944884 0 0 -1
2490 2 114.00166482050281 61.95098551655072 28.028553193270724 0 0 -1
2492 2 116.95361020058098 60.37392079456232 28.020350017047917 0 0 -1
2364 2 79.27185221566845 64.77582225198617 28.238556161285008 0 0 -1
2392 2 82.09812966350395 66.46056143768084 28.246582789718463 0 0 -1
2512 2 116.71610921939876 67.00073480701671 27.94726975404961 0 0 -1
2394 2 85.01968225221921 64.81650189057576 28.259423146514198 0 0 -1
2418 2 84.92643672244569 68.14107774815393 28.255003613710954 0 0 -1
2420 2 87.85041195973413 66.49731241927508 28.262619049219765 0 0 -1
2422 2 90.77670611049587 64.85944639533639 28.265135539868687 0 0 -1
2424 2 93.7055792282469 63.229481363998055 28.26001469821458 0 0 -1
2438 2 84.83383223123155 71.46617646672586 28.256737931956295 0 0 -1
2440 2 87.75625048800087 69.81932260409036 28.261670098318138 0 0 -1
2442 2 90.68155494961582 68.17738694596083 28.26253343235999 0 0 -1
2444 2 93.60992281888367 66.54253796524829 28.25675792232372 0 0 -1
2460 2 90.58717412226443 71.49741692374633 28.264406734234445 0 0 -1
2462 2 93.5127895451466 69.85890366490435 28.25705241936153 0 0 -1
2446 2 96.54172300508432 64.91670185651692 28.242283393059253 0 0 -1
2448 2 99.47760154204494 63.30120841497044 28.21865354402171 0 0 -1
2464 2 96.44229629315868 68.22869700772459 28.241374008990096 0 0 -1
2466 2 99.37617997441902 66.60854137824323 28.216170610690618 0 0 -1
2468 2 102.3150521856249 64.9993406633604 28.182458106106452 0 0 -1
2478 2 96.34388867592355 71.54419676241228 28.24463507133794 0 0 -1
2480 2 99.27370515050004 69.92037725749705 28.217861296664854 0 0 -1
2482 2 102.20891390489972 68.30752593936876 28.181210375070982 0 0 -1
2494 2 102.10423823371093 71.61997882107988 28.186192516527548 0 0 -1
2470 2 105.25927270087647 63.40071711972948 28.144126389958785 0 0 -1
2484 2 105.14999908288081 66.70587716152323 28.13753472558182 0 0 -1
2486 2 108.09686616114668 65.11423772758302 28.09261297372703 0 0 -1
2488 2 111.04827871073229 63.53022734487973 28.053974026623315 0 0 -1
2496 2 105.04020578094378 70.01591529343753 28.138391633452752 0 0 -1
2498 2 107.98285788440577 68.42277342172383 28.08609998563986 0 0 -1
2500 2 110.93147484496237 66.83847994753219 28.03685922095809 0 0 -1
2502 2 113.88397633175731 65.26016089569897 27.998701199244984 0 0 -1
3479 2 101.43457721309386 36.14737944188255 8.325759793253967 0 0 0

Velocities

2 0 0 0
4 0 0 0
5 0 0 0
6 0 0 0
8 0 0 0
9 0 0 0
12 0 0 0
13 0 0 0
632 0 0 0
633 0 0 0
634 0 0 0
636 0 0 0
828 0 0 0
871 0 0 0
1826 0 0 0
1263 0 0 0
1265 0 0 0
1269 0 0 0
1271 0 0 0
1275 0 0 0
1277 0 0 0
1285 0 0 0
1824 0 0 0
2525 0 0 0
2526 0 0 0
2527 0 0 0
2528 0 0 0
2529 0 0 0
2530 0 0 0
2531 0 0 0
2532 0 0 0
2533 0 0 0
2534 0 0 0
2535 0 0 0
2536 0 0 0
2543 0 0 0
2544 0 0 0
10 0 0 0
11 0 0 0
14 0 0 0
15 0 0 0
16 0 0 0
20 0 0 0
21 0 0 0
22 0 0 0
29 0 0 0
635 0 0 0
637 0 0 0
638 0 0 0
639 0 0 0
641 0 0 0
642 0 0 0
643 0 0 0
644 0 0 0
648 0 0 0
649 0 0 0
1273 0 0 0
1279 0 0 0
1281 0 0 0
1283 0 0 0
1287 0 0 0
1289 0 0 0
1291 0 0 0
1293 0 0 0
1301 0 0 0
1303 0 0 0
1305 0 0 0
1319 0 0 0
2537 0 0 0
2538 0 0 0
2539 0 0 0
2540 0 0 0
2545 0 0 0
2546 0 0 0
2547 0 0 0
2548 0 0 0
2549 0 0 0
2550 0 0 0
2551 0 0 0
2552 0 0 0
2557 0 0 0
2558 0 0 0
2559 0 0 0
2560 0 0 0
2561 0 0 0
2562 0 0 0
2575 0 0 0
2576 0 0 0
17 0 0 0
23 0 0 0
24 0 0 0
25 0 0 0
30 0 0 0
31 0 0 0
32 0 0 0
33 0 0 0
40 0 0 0
41 0 0 0
42 0 0 0
52 0 0 0
645 0 0 0
650 0 0 0
651 0 0 0
652 0 0 0
657 0 0 0
658 0 0 0
659 0 0 0
660 0 0 0
667 0 0 0
668 0 0 0
1295 0 0 0
1307 0 0 0
1309 0 0 0
1311 0 0 0
1321 0 0 0
1323 0 0 0
1325 0 0 0
1341 0 0 0
1343 0 0 0
2563 0 0 0
2564 0 0 0
2565 0 0 0
2566 0 0 0
2577 0 0 0
2578 0 0 0
2579 0 0 0
2580 0 0 0
2581 0 0 0
2582 0 0 0
2595 0 0 0
2596 0 0 0
2597 0 0 0
2598 0 0 0
34 0 0 0
43 0 0 0
44 0 0 0
45 0 0 0
53 0 0 0
54 0 0 0
55 0 0 0
56 0 0 0
66 0 0 0
67 0 0 0
68 0 0 0
661 0 0 0
669 0 0 0
670 0 0 0
671 0 0 0
679 0 0 0
680 0 0 0
681 0 0 0
692 0 0 0
1327 0 0 0
1329 0 0 0
1345 0 0 0
1347 0 0 0
1349 0 0 0
1351 0 0 0
1365 0 0 0
1367 0 0 0
1369 0 0 0
1371 0 0 0
1395 0 0 0
2583 0 0 0
2584 0 0 0
2599 0 0 0
2600 0 0 0
2601 0 0 0
2602 0 0 0
2603 0 0 0
2604 0 0 0
2619 0 0 0
2620 0 0 0
2621 0 0 0
2622 0 0 0
2623 0 0 0
2624 0 0 0
2625 0 0 0
2626 0 0 0
2645 0 0 0
2646 0 0 0
2647 0 0 0
2648 0 0 0
69 0 0 0
82 0 0 0
682 0 0 0
693 0 0 0
707 0 0 0
1373 0 0 0
1397 0 0 0
1425 0 0 0
2649 0 0 0
2650 0 0 0
2675 0 0 0
2676 0 0 0
19 0 0 0
26 0 0 0
640 0 0 0
914 0 0 0
1297 0 0 0
2541 0 0 0
2542 0 0 0
2553 0 0 0
2554 0 0 0
2567 0 0 0
2568 0 0 0
27 0 0 0
28 0 0 0
36 0 0 0
37 0 0 0
38 0 0 0
47 0 0 0
48 0 0 0
49 0 0 0
61 0 0 0
646 0 0 0
647 0 0 0
653 0 0 0
654 0 0 0
655 0 0 0
656 0 0 0
662 0 0 0
663 0 0 0
664 0 0 0
673 0 0 0
674 0 0 0
1299 0 0 0
1313 0 0 0
1315 0 0 0
1317 0 0 0
1331 0 0 0
1333 0 0 0
1335 0 0 0
1337 0 0 0
1355 0 0 0
1357 0 0 0
2555 0 0 0
2556 0 0 0
2569 0 0 0
2570 0 0 0
2571 0 0 0
2572 0 0 0
2573 0 0 0
2574 0 0 0
2585 0 0 0
2586 0 0 0
2587 0 0 0
2588 0 0 0
2589 0 0 0
2590 0 0 0
2591 0 0 0
2592 0 0 0
2607 0 0 0
2608 0 0 0
2609 0 0 0
2610 0 0 0
2611 0 0 0
2612 0 0 0
2633 0 0 0
2634 0 0 0
39 0 0 0
50 0 0 0
51 0 0 0
62 0 0 0
63 0 0 0
64 0 0 0
76 0 0 0
77 0 0 0
665 0 0 0
666 0 0 0
675 0 0 0
676 0 0 0
677 0 0 0
678 0 0 0
686 0 0 0
687 0 0 0
688 0 0 0
689 0 0 0
701 0 0 0
702 0 0 0
1339 0 0 0
1359 0 0 0
1361 0 0 0
1363 0 0 0
1383 0 0 0
1385 0 0 0
1387 0 0 0
1413 0 0 0
2593 0 0 0
2594 0 0 0
2613 0 0 0
2614 0 0 0
2615 0 0 0
2616 0 0 0
2617 0 0 0
2618 0 0 0
2635 0 0 0
2636 0 0 0
2637 0 0 0
2638 0 0 0
2639 0 0 0
2640 0 0 0
2663 0 0 0
2664 0 0 0
2665 0 0 0
2666 0 0 0
65 0 0 0
78 0 0 0
79 0 0 0
80 0 0 0
81 0 0 0
93 0 0 0
94 0 0 0
95 0 0 0
96 0 0 0
111 0 0 0
112 0 0 0
690 0 0 0
691 0 0 0
703 0 0 0
704 0 0 0
705 0 0 0
717 0 0 0
718 0 0 0
719 0 0 0
735 0 0 0
1389 0 0 0
1391 0 0 0
1393 0 0 0
1415 0 0 0
1417 0 0 0
1419 0 0 0
1421 0 0 0
1447 0 0 0
1449 0 0 0
1451 0 0 0
1483 0 0 0
2641 0 0 0
2642 0 0 0
2643 0 0 0
2644 0 0 0
2667 0 0 0
2668 0 0 0
2669 0 0 0
2670 0 0 0
2671 0 0 0
2672 0 0 0
2673 0 0 0
2674 0 0 0
2695 0 0 0
2696 0 0 0
2697 0 0 0
2698 0 0 0
2699 0 0 0
2700 0 0 0
2701 0 0 0
2702 0 0 0
2731 0 0 0
2732 0 0 0
2733 0 0 0
2734 0 0 0
97 0 0 0
98 0 0 0
113 0 0 0
114 0 0 0
131 0 0 0
132 0 0 0
133 0 0 0
152 0 0 0
706 0 0 0
720 0 0 0
721 0 0 0
736 0 0 0
737 0 0 0
738 0 0 0
754 0 0 0
755 0 0 0
775 0 0 0
1423 0 0 0
1453 0 0 0
1455 0 0 0
1485 0 0 0
1487 0 0 0
1489 0 0 0
1523 0 0 0
1525 0 0 0
1565 0 0 0
2703 0 0 0
2704 0 0 0
2705 0 0 0
2706 0 0 0
2735 0 0 0
2736 0 0 0
2737 0 0 0
2738 0 0 0
2769 0 0 0
2770 0 0 0
2771 0 0 0
2772 0 0 0
2773 0 0 0
2774 0 0 0
2811 0 0 0
2812 0 0 0
46 0 0 0
59 0 0 0
60 0 0 0
72 0 0 0
73 0 0 0
74 0 0 0
88 0 0 0
89 0 0 0
105 0 0 0
672 0 0 0
684 0 0 0
685 0 0 0
697 0 0 0
698 0 0 0
712 0 0 0
957 0 0 0
1000 0 0 0
1353 0 0 0
1377 0 0 0
1379 0 0 0
1381 0 0 0
1405 0 0 0
1407 0 0 0
1435 0 0 0
1437 0 0 0
2605 0 0 0
2606 0 0 0
2629 0 0 0
2630 0 0 0
2631 0 0 0
2632 0 0 0
2655 0 0 0
2656 0 0 0
2657 0 0 0
2658 0 0 0
2659 0 0 0
2660 0 0 0
2685 0 0 0
2686 0 0 0
2687 0 0 0
2688 0 0 0
75 0 0 0
90 0 0 0
91 0 0 0
92 0 0 0
106 0 0 0
107 0 0 0
108 0 0 0
126 0 0 0
699 0 0 0
700 0 0 0
713 0 0 0
714 0 0 0
715 0 0 0
716 0 0 0
730 0 0 0
731 0 0 0
732 0 0 0
749 0 0 0
1409 0 0 0
1411 0 0 0
1439 0 0 0
1441 0 0 0
1443 0 0 0
1445 0 0 0
1471 0 0 0
1473 0 0 0
1475 0 0 0
1477 0 0 0
1513 0 0 0
2661 0 0 0
2662 0 0 0
2689 0 0 0
2690 0 0 0
2691 0 0 0
2692 0 0 0
2693 0 0 0
2694 0 0 0
2721 0 0 0
2722 0 0 0
2723 0 0 0
2724 0 0 0
2725 0 0 0
2726 0 0 0
2759 0 0 0
2760 0 0 0
109 0 0 0
110 0 0 0
127 0 0 0
128 0 0 0
129 0 0 0
130 0 0 0
147 0 0 0
148 0 0 0
149 0 0 0
170 0 0 0
733 0 0 0
734 0 0 0
750 0 0 0
751 0 0 0
752 0 0 0
770 0 0 0
771 0 0 0
1479 0 0 0
1481 0 0 0
1515 0 0 0
1517 0 0 0
1519 0 0 0
1555 0 0 0
1557 0 0 0
2727 0 0 0
2728 0 0 0
2729 0 0 0
2730 0 0 0
2761 0 0 0
2762 0 0 0
2763 0 0 0
2764 0 0 0
2765 0 0 0
2766 0 0 0
2767 0 0 0
2768 0 0 0
2801 0 0 0
2802 0 0 0
2803 0 0 0
2804 0 0 0
2805 0 0 0
2806 0 0 0
2845 0 0 0
2846 0 0 0
150 0 0 0
151 0 0 0
171 0 0 0
172 0 0 0
173 0 0 0
193 0 0 0
194 0 0 0
753 0 0 0
772 0 0 0
773 0 0 0
774 0 0 0
792 0 0 0
793 0 0 0
794 0 0 0
795 0 0 0
815 0 0 0
816 0 0 0
1521 0 0 0
1559 0 0 0
1561 0 0 0
1563 0 0 0
1601 0 0 0
1603 0 0 0
1605 0 0 0
1607 0 0 0
1647 0 0 0
1649 0 0 0
2807 0 0 0
2808 0 0 0
2809 0 0 0
2810 0 0 0
2847 0 0 0
2848 0 0 0
2849 0 0 0
2850 0 0 0
2851 0 0 0
2852 0 0 0
2891 0 0 0
2892 0 0 0
2893 0 0 0
2894 0 0 0
174 0 0 0
195 0 0 0
216 0 0 0
217 0 0 0
817 0 0 0
838 0 0 0
1651 0 0 0
1693 0 0 0
2853 0 0 0
2854 0 0 0
2895 0 0 0
2896 0 0 0
2937 0 0 0
2938 0 0 0
2939 0 0 0
2940 0 0 0
104 0 0 0
123 0 0 0
142 0 0 0
728 0 0 0
1043 0 0 0
1087 0 0 0
1469 0 0 0
1505 0 0 0
2717 0 0 0
2718 0 0 0
2719 0 0 0
2720 0 0 0
2753 0 0 0
2754 0 0 0
2791 0 0 0
2792 0 0 0
124 0 0 0
125 0 0 0
143 0 0 0
144 0 0 0
145 0 0 0
164 0 0 0
165 0 0 0
166 0 0 0
187 0 0 0
729 0 0 0
746 0 0 0
747 0 0 0
748 0 0 0
765 0 0 0
766 0 0 0
767 0 0 0
768 0 0 0
786 0 0 0
787 0 0 0
1507 0 0 0
1509 0 0 0
1511 0 0 0
1545 0 0 0
1547 0 0 0
1549 0 0 0
1551 0 0 0
1589 0 0 0
1591 0 0 0
1593 0 0 0
1635 0 0 0
2755 0 0 0
2756 0 0 0
2757 0 0 0
2758 0 0 0
2793 0 0 0
2794 0 0 0
2795 0 0 0
2796 0 0 0
2797 0 0 0
2798 0 0 0
2833 0 0 0
2834 0 0 0
2835 0 0 0
2836 0 0 0
2837 0 0 0
2838 0 0 0
2879 0 0 0
2880 0 0 0
146 0 0 0
167 0 0 0
168 0 0 0
169 0 0 0
188 0 0 0
189 0 0 0
190 0 0 0
191 0 0 0
210 0 0 0
211 0 0 0
212 0 0 0
233 0 0 0
769 0 0 0
788 0 0 0
789 0 0 0
790 0 0 0
791 0 0 0
809 0 0 0
810 0 0 0
811 0 0 0
812 0 0 0
832 0 0 0
833 0 0 0
1553 0 0 0
1595 0 0 0
1597 0 0 0
1599 0 0 0
1637 0 0 0
1639 0 0 0
1641 0 0 0
1681 0 0 0
1683 0 0 0
2799 0 0 0
2800 0 0 0
2839 0 0 0
2840 0 0 0
2841 0 0 0
2842 0 0 0
2843 0 0 0
2844 0 0 0
2881 0 0 0
2882 0 0 0
2883 0 0 0
2884 0 0 0
2885 0 0 0
2886 0 0 0
2887 0 0 0
2888 0 0 0
2925 0 0 0
2926 0 0 0
2927 0 0 0
2928 0 0 0
2929 0 0 0
2930 0 0 0
2971 0 0 0
2972 0 0 0
192 0 0 0
213 0 0 0
214 0 0 0
215 0 0 0
234 0 0 0
235 0 0 0
236 0 0 0
257 0 0 0
258 0 0 0
259 0 0 0
280 0 0 0
813 0 0 0
814 0 0 0
834 0 0 0
835 0 0 0
836 0 0 0
837 0 0 0
855 0 0 0
856 0 0 0
857 0 0 0
858 0 0 0
878 0 0 0
879 0 0 0
1643 0 0 0
1645 0 0 0
1685 0 0 0
1687 0 0 0
1689 0 0 0
1691 0 0 0
1727 0 0 0
1729 0 0 0
1731 0 0 0
1733 0 0 0
1775 0 0 0
1777 0 0 0
2889 0 0 0
2890 0 0 0
2931 0 0 0
2932 0 0 0
2933 0 0 0
2934 0 0 0
2935 0 0 0
2936 0 0 0
2973 0 0 0
2974 0 0 0
2975 0 0 0
2976 0 0 0
2977 0 0 0
2978 0 0 0
3017 0 0 0
3018 0 0 0
3019 0 0 0
3020 0 0 0
237 0 0 0
238 0 0 0
260 0 0 0
261 0 0 0
281 0 0 0
282 0 0 0
304 0 0 0
305 0 0 0
859 0 0 0
860 0 0 0
880 0 0 0
881 0 0 0
901 0 0 0
902 0 0 0
903 0 0 0
924 0 0 0
1735 0 0 0
1737 0 0 0
1779 0 0 0
1781 0 0 0
1821 0 0 0
1823 0 0 0
1825 0 0 0
1869 0 0 0
2979 0 0 0
2980 0 0 0
2981 0 0 0
2982 0 0 0
3021 0 0 0
3022 0 0 0
3023 0 0 0
3024 0 0 0
3025 0 0 0
3026 0 0 0
3063 0 0 0
3064 0 0 0
3065 0 0 0
3066 0 0 0
3067 0 0 0
3068 0 0 0
3109 0 0 0
3110 0 0 0
3111 0 0 0
3112 0 0 0
1264 0 0 0
1266 0 0 0
1270 0 0 0
1272 0 0 0
1276 0 0 0
1278 0 0 0
1286 0 0 0
1870 0 0 0
1274 0 0 0
1280 0 0 0
1282 0 0 0
1284 0 0 0
1288 0 0 0
1290 0 0 0
1292 0 0 0
1294 0 0 0
1302 0 0 0
1304 0 0 0
1306 0 0 0
1320 0 0 0
1296 0 0 0
1308 0 0 0
1310 0 0 0
1312 0 0 0
1322 0 0 0
1324 0 0 0
1326 0 0 0
1342 0 0 0
1344 0 0 0
1328 0 0 0
1330 0 0 0
1346 0 0 0
1348 0 0 0
1350 0 0 0
1352 0 0 0
1366 0 0 0
1368 0 0 0
1370 0 0 0
1372 0 0 0
1396 0 0 0
1374 0 0 0
1398 0 0 0
1426 0 0 0
1298 0 0 0
1300 0 0 0
1314 0 0 0
1316 0 0 0
1318 0 0 0
1332 0 0 0
1334 0 0 0
1336 0 0 0
1338 0 0 0
1356 0 0 0
1358 0 0 0
1340 0 0 0
1360 0 0 0
1362 0 0 0
1364 0 0 0
1384 0 0 0
1386 0 0 0
1388 0 0 0
1414 0 0 0
1390 0 0 0
1392 0 0 0
1394 0 0 0
1416 0 0 0
1418 0 0 0
1420 0 0 0
1422 0 0 0
1448 0 0 0
1450 0 0 0
1452 0 0 0
1484 0 0 0
1424 0 0 0
1454 0 0 0
1456 0 0 0
1486 0 0 0
1488 0 0 0
1490 0 0 0
1524 0 0 0
1526 0 0 0
1566 0 0 0
1354 0 0 0
1378 0 0 0
1380 0 0 0
1382 0 0 0
1406 0 0 0
1408 0 0 0
1436 0 0 0
1438 0 0 0
1410 0 0 0
1412 0 0 0
1440 0 0 0
1442 0 0 0
1444 0 0 0
1446 0 0 0
1472 0 0 0
1474 0 0 0
1476 0 0 0
1478 0 0 0
1514 0 0 0
1480 0 0 0
1482 0 0 0
1516 0 0 0
1518 0 0 0
1520 0 0 0
1556 0 0 0
1558 0 0 0
1522 0 0 0
1560 0 0 0
1562 0 0 0
1564 0 0 0
1602 0 0 0
1604 0 0 0
1606 0 0 0
1608 0 0 0
1648 0 0 0
1650 0 0 0
1652 0 0 0
1694 0 0 0
1470 0 0 0
1506 0 0 0
1508 0 0 0
1510 0 0 0
1512 0 0 0
1546 0 0 0
1548 0 0 0
1550 0 0 0
1552 0 0 0
1590 0 0 0
1592 0 0 0
1594 0 0 0
1636 0 0 0
1554 0 0 0
1596 0 0 0
1598 0 0 0
1600 0 0 0
1638 0 0 0
1640 0 0 0
1642 0 0 0
1682 0 0 0
1684 0 0 0
1644 0 0 0
1646 0 0 0
1686 0 0 0
1688 0 0 0
1690 0 0 0
1692 0 0 0
1728 0 0 0
1730 0 0 0
1732 0 0 0
1734 0 0 0
1776 0 0 0
1778 0 0 0
1736 0 0 0
1738 0 0 0
1780 0 0 0
1782 0 0 0
1822 0 0 0
185 0 0 0
186 0 0 0
207 0 0 0
208 0 0 0
228 0 0 0
229 0 0 0
807 0 0 0
808 0 0 0
829 0 0 0
850 0 0 0
1130 0 0 0
1167 0 0 0
1587 0 0 0
1631 0 0 0
1633 0 0 0
1673 0 0 0
1675 0 0 0
1677 0 0 0
1717 0 0 0
1719 0 0 0
2875 0 0 0
2876 0 0 0
2877 0 0 0
2878 0 0 0
2919 0 0 0
2920 0 0 0
2921 0 0 0
2922 0 0 0
2961 0 0 0
2962 0 0 0
2963 0 0 0
2964 0 0 0
209 0 0 0
230 0 0 0
231 0 0 0
232 0 0 0
252 0 0 0
253 0 0 0
254 0 0 0
255 0 0 0
275 0 0 0
276 0 0 0
830 0 0 0
831 0 0 0
851 0 0 0
852 0 0 0
853 0 0 0
854 0 0 0
873 0 0 0
874 0 0 0
875 0 0 0
896 0 0 0
1679 0 0 0
1721 0 0 0
1723 0 0 0
1725 0 0 0
1765 0 0 0
1767 0 0 0
1769 0 0 0
1811 0 0 0
2923 0 0 0
2924 0 0 0
2965 0 0 0
2966 0 0 0
2967 0 0 0
2968 0 0 0
2969 0 0 0
2970 0 0 0
3007 0 0 0
3008 0 0 0
3009 0 0 0
3010 0 0 0
3011 0 0 0
3012 0 0 0
3013 0 0 0
3014 0 0 0
3053 0 0 0
3054 0 0 0
3055 0 0 0
3056 0 0 0
256 0 0 0
277 0 0 0
278 0 0 0
279 0 0 0
299 0 0 0
300 0 0 0
301 0 0 0
302 0 0 0
322 0 0 0
323 0 0 0
876 0 0 0
877 0 0 0
897 0 0 0
898 0 0 0
899 0 0 0
900 0 0 0
919 0 0 0
920 0 0 0
921 0 0 0
942 0 0 0
1771 0 0 0
1773 0 0 0
1813 0 0 0
1815 0 0 0
1817 0 0 0
1819 0 0 0
1859 0 0 0
1861 0 0 0
1863 0 0 0
1905 0 0 0
3015 0 0 0
3016 0 0 0
3057 0 0 0
3058 0 0 0
3059 0 0 0
3060 0 0 0
3061 0 0 0
3062 0 0 0
3099 0 0 0
3100 0 0 0
3101 0 0 0
3102 0 0 0
3103 0 0 0
3104 0 0 0
3145 0 0 0
3146 0 0 0
303 0 0 0
324 0 0 0
325 0 0 0
326 0 0 0
346 0 0 0
347 0 0 0
348 0 0 0
369 0 0 0
922 0 0 0
923 0 0 0
943 0 0 0
944 0 0 0
945 0 0 0
965 0 0 0
966 0 0 0
1865 0 0 0
1867 0 0 0
1907 0 0 0
1909 0 0 0
1911 0 0 0
1913 0 0 0
1953 0 0 0
1955 0 0 0
1957 0 0 0
1999 0 0 0
3105 0 0 0
3106 0 0 0
3107 0 0 0
3108 0 0 0
3147 0 0 0
3148 0 0 0
3149 0 0 0
3150 0 0 0
3151 0 0 0
3152 0 0 0
3153 0 0 0
3154 0 0 0
3191 0 0 0
3192 0 0 0
3193 0 0 0
3194 0 0 0
3195 0 0 0
3196 0 0 0
3237 0 0 0
3238 0 0 0
349 0 0 0
370 0 0 0
393 0 0 0
2414 0 0 0
967 0 0 0
988 0 0 0
2001 0 0 0
3239 0 0 0
3240 0 0 0
251 0 0 0
272 0 0 0
1198 0 0 0
1761 0 0 0
1763 0 0 0
1805 0 0 0
1849 0 0 0
3005 0 0 0
3006 0 0 0
3047 0 0 0
3048 0 0 0
273 0 0 0
274 0 0 0
295 0 0 0
296 0 0 0
297 0 0 0
298 0 0 0
316 0 0 0
317 0 0 0
318 0 0 0
319 0 0 0
340 0 0 0
341 0 0 0
872 0 0 0
893 0 0 0
894 0 0 0
895 0 0 0
915 0 0 0
916 0 0 0
917 0 0 0
936 0 0 0
937 0 0 0
938 0 0 0
959 0 0 0
1223 0 0 0
1807 0 0 0
1809 0 0 0
1851 0 0 0
1853 0 0 0
1855 0 0 0
1893 0 0 0
1895 0 0 0
1897 0 0 0
1941 0 0 0
3049 0 0 0
3050 0 0 0
3051 0 0 0
3052 0 0 0
3091 0 0 0
3092 0 0 0
3093 0 0 0
3094 0 0 0
3095 0 0 0
3096 0 0 0
3097 0 0 0
3098 0 0 0
3133 0 0 0
3134 0 0 0
3135 0 0 0
3136 0 0 0
3137 0 0 0
3138 0 0 0
3139 0 0 0
3140 0 0 0
3179 0 0 0
3180 0 0 0
3181 0 0 0
3182 0 0 0
320 0 0 0
321 0 0 0
342 0 0 0
343 0 0 0
344 0 0 0
345 0 0 0
363 0 0 0
364 0 0 0
365 0 0 0
366 0 0 0
387 0 0 0
388 0 0 0
918 0 0 0
939 0 0 0
940 0 0 0
941 0 0 0
960 0 0 0
961 0 0 0
962 0 0 0
963 0 0 0
982 0 0 0
983 0 0 0
984 0 0 0
1005 0 0 0
1857 0 0 0
1899 0 0 0
1901 0 0 0
1903 0 0 0
1943 0 0 0
1945 0 0 0
1947 0 0 0
1949 0 0 0
1987 0 0 0
1989 0 0 0
1991 0 0 0
2035 0 0 0
3141 0 0 0
3142 0 0 0
3143 0 0 0
3144 0 0 0
3183 0 0 0
3184 0 0 0
3185 0 0 0
3186 0 0 0
3187 0 0 0
3188 0 0 0
3225 0 0 0
3226 0 0 0
3227 0 0 0
3228 0 0 0
3229 0 0 0
3230 0 0 0
3271 0 0 0
3272 0 0 0
367 0 0 0
368 0 0 0
389 0 0 0
390 0 0 0
391 0 0 0
411 0 0 0
412 0 0 0
964 0 0 0
985 0 0 0
986 0 0 0
987 0 0 0
1006 0 0 0
1007 0 0 0
1008 0 0 0
1028 0 0 0
1029 0 0 0
1951 0 0 0
1993 0 0 0
1995 0 0 0
1997 0 0 0
2037 0 0 0
2039 0 0 0
2041 0 0 0
2043 0 0 0
2083 0 0 0
2085 0 0 0
3189 0 0 0
3190 0 0 0
3231 0 0 0
3232 0 0 0
3233 0 0 0
3234 0 0 0
3235 0 0 0
3236 0 0 0
3273 0 0 0
3274 0 0 0
3275 0 0 0
3276 0 0 0
3277 0 0 0
3278 0 0 0
3279 0 0 0
3280 0 0 0
3317 0 0 0
3318 0 0 0
3319 0 0 0
3320 0 0 0
3321 0 0 0
3322 0 0 0
3365 0 0 0
3366 0 0 0
392 0 0 0
413 0 0 0
414 0 0 0
435 0 0 0
436 0 0 0
437 0 0 0
458 0 0 0
1009 0 0 0
1010 0 0 0
1030 0 0 0
1031 0 0 0
1052 0 0 0
1053 0 0 0
1054 0 0 0
1075 0 0 0
2045 0 0 0
2087 0 0 0
2089 0 0 0
2131 0 0 0
2133 0 0 0
2177 0 0 0
3281 0 0 0
3282 0 0 0
3323 0 0 0
3324 0 0 0
3325 0 0 0
3326 0 0 0
3367 0 0 0
3368 0 0 0
3369 0 0 0
3370 0 0 0
3411 0 0 0
3412 0 0 0
3413 0 0 0
3414 0 0 0
339 0 0 0
360 0 0 0
361 0 0 0
362 0 0 0
383 0 0 0
384 0 0 0
405 0 0 0
958 0 0 0
979 0 0 0
980 0 0 0
1001 0 0 0
1242 0 0 0
1255 0 0 0
1937 0 0 0
1939 0 0 0
1981 0 0 0
1983 0 0 0
2025 0 0 0
2027 0 0 0
3177 0 0 0
3178 0 0 0
3219 0 0 0
3220 0 0 0
3221 0 0 0
3222 0 0 0
3223 0 0 0
3224 0 0 0
3263 0 0 0
3264 0 0 0
3265 0 0 0
3266 0 0 0
3307 0 0 0
3308 0 0 0
385 0 0 0
386 0 0 0
406 0 0 0
407 0 0 0
408 0 0 0
409 0 0 0
429 0 0 0
430 0 0 0
431 0 0 0
452 0 0 0
981 0 0 0
1002 0 0 0
1003 0 0 0
1004 0 0 0
1023 0 0 0
1024 0 0 0
1025 0 0 0
1026 0 0 0
1047 0 0 0
1048 0 0 0
1985 0 0 0
2029 0 0 0
2031 0 0 0
2033 0 0 0
2071 0 0 0
2073 0 0 0
2075 0 0 0
2077 0 0 0
2119 0 0 0
2121 0 0 0
3267 0 0 0
3268 0 0 0
3269 0 0 0
3270 0 0 0
3309 0 0 0
3310 0 0 0
3311 0 0 0
3312 0 0 0
3313 0 0 0
3314 0 0 0
3355 0 0 0
3356 0 0 0
3357 0 0 0
3358 0 0 0
410 0 0 0
432 0 0 0
433 0 0 0
434 0 0 0
453 0 0 0
454 0 0 0
455 0 0 0
476 0 0 0
477 0 0 0
1027 0 0 0
1049 0 0 0
1050 0 0 0
1051 0 0 0
1070 0 0 0
1071 0 0 0
1072 0 0 0
1094 0 0 0
2079 0 0 0
2081 0 0 0
2123 0 0 0
2125 0 0 0
2127 0 0 0
2129 0 0 0
2165 0 0 0
2167 0 0 0
2169 0 0 0
2171 0 0 0
2213 0 0 0
2215 0 0 0
3315 0 0 0
3316 0 0 0
3359 0 0 0
3360 0 0 0
3361 0 0 0
3362 0 0 0
3363 0 0 0
3364 0 0 0
3401 0 0 0
3402 0 0 0
3403 0 0 0
3404 0 0 0
3405 0 0 0
3406 0 0 0
3407 0 0 0
3408 0 0 0
3449 0 0 0
3450 0 0 0
3451 0 0 0
3452 0 0 0
456 0 0 0
457 0 0 0
478 0 0 0
479 0 0 0
480 0 0 0
481 0 0 0
497 0 0 0
498 0 0 0
499 0 0 0
500 0 0 0
517 0 0 0
518 0 0 0
1073 0 0 0
1074 0 0 0
1095 0 0 0
1096 0 0 0
1097 0 0 0
1098 0 0 0
1116 0 0 0
1117 0 0 0
1118 0 0 0
1137 0 0 0
2173 0 0 0
2175 0 0 0
2217 0 0 0
2219 0 0 0
2221 0 0 0
2255 0 0 0
2257 0 0 0
2259 0 0 0
2295 0 0 0
3409 0 0 0
3410 0 0 0
3453 0 0 0
3454 0 0 0
3455 0 0 0
3456 0 0 0
3457 0 0 0
3458 0 0 0
3493 0 0 0
3494 0 0 0
3495 0 0 0
3496 0 0 0
3497 0 0 0
3498 0 0 0
3535 0 0 0
3536 0 0 0
519 0 0 0
535 0 0 0
1138 0 0 0
2261 0 0 0
2297 0 0 0
2331 0 0 0
3499 0 0 0
3500 0 0 0
3537 0 0 0
3538 0 0 0
3573 0 0 0
3574 0 0 0
404 0 0 0
427 0 0 0
448 0 0 0
1022 0 0 0
1044 0 0 0
2069 0 0 0
2113 0 0 0
3305 0 0 0
3306 0 0 0
3351 0 0 0
3352 0 0 0
3393 0 0 0
3394 0 0 0
428 0 0 0
449 0 0 0
450 0 0 0
451 0 0 0
471 0 0 0
472 0 0 0
473 0 0 0
474 0 0 0
492 0 0 0
493 0 0 0
1045 0 0 0
1046 0 0 0
1066 0 0 0
1067 0 0 0
1068 0 0 0
1069 0 0 0
1089 0 0 0
1090 0 0 0
1091 0 0 0
1110 0 0 0
2115 0 0 0
2117 0 0 0
2157 0 0 0
2159 0 0 0
2161 0 0 0
2163 0 0 0
2203 0 0 0
2205 0 0 0
2207 0 0 0
2245 0 0 0
3353 0 0 0
3354 0 0 0
3395 0 0 0
3396 0 0 0
3397 0 0 0
3398 0 0 0
3399 0 0 0
3400 0 0 0
3439 0 0 0
3440 0 0 0
3441 0 0 0
3442 0 0 0
3443 0 0 0
3444 0 0 0
3481 0 0 0
3482 0 0 0
3483 0 0 0
3484 0 0 0
475 0 0 0
494 0 0 0
495 0 0 0
496 0 0 0
512 0 0 0
513 0 0 0
514 0 0 0
530 0 0 0
1092 0 0 0
1093 0 0 0
1111 0 0 0
1112 0 0 0
1113 0 0 0
1114 0 0 0
1131 0 0 0
1132 0 0 0
1133 0 0 0
1150 0 0 0
2209 0 0 0
2211 0 0 0
2247 0 0 0
2249 0 0 0
2251 0 0 0
2253 0 0 0
2285 0 0 0
2287 0 0 0
2289 0 0 0
2321 0 0 0
3445 0 0 0
3446 0 0 0
3447 0 0 0
3448 0 0 0
3485 0 0 0
3486 0 0 0
3487 0 0 0
3488 0 0 0
3489 0 0 0
3490 0 0 0
3491 0 0 0
3492 0 0 0
3523 0 0 0
3524 0 0 0
3525 0 0 0
3526 0 0 0
3527 0 0 0
3528 0 0 0
3529 0 0 0
3530 0 0 0
3561 0 0 0
3562 0 0 0
3563 0 0 0
3564 0 0 0
515 0 0 0
516 0 0 0
531 0 0 0
532 0 0 0
533 0 0 0
534 0 0 0
547 0 0 0
548 0 0 0
549 0 0 0
562 0 0 0
1115 0 0 0
1134 0 0 0
1135 0 0 0
1136 0 0 0
1151 0 0 0
1152 0 0 0
1153 0 0 0
1154 0 0 0
1168 0 0 0
1169 0 0 0
1170 0 0 0
1184 0 0 0
2291 0 0 0
2293 0 0 0
2323 0 0 0
2325 0 0 0
2327 0 0 0
2355 0 0 0
2357 0 0 0
3531 0 0 0
3532 0 0 0
3533 0 0 0
3534 0 0 0
3565 0 0 0
3566 0 0 0
3567 0 0 0
3568 0 0 0
3569 0 0 0
3570 0 0 0
3597 0 0 0
3598 0 0 0
3599 0 0 0
3600 0 0 0
3601 0 0 0
3602 0 0 0
3629 0 0 0
3630 0 0 0
550 0 0 0
551 0 0 0
563 0 0 0
564 0 0 0
576 0 0 0
577 0 0 0
1155 0 0 0
1171 0 0 0
1172 0 0 0
1185 0 0 0
1186 0 0 0
1199 0 0 0
1200 0 0 0
2329 0 0 0
2359 0 0 0
2361 0 0 0
2385 0 0 0
2387 0 0 0
2389 0 0 0
2413 0 0 0
3571 0 0 0
3572 0 0 0
3603 0 0 0
3604 0 0 0
3605 0 0 0
3606 0 0 0
3631 0 0 0
3632 0 0 0
3633 0 0 0
3634 0 0 0
3635 0 0 0
3636 0 0 0
3659 0 0 0
3660 0 0 0
3661 0 0 0
3662 0 0 0
3685 0 0 0
3686 0 0 0
1588 0 0 0
1632 0 0 0
1634 0 0 0
1674 0 0 0
1676 0 0 0
1678 0 0 0
1718 0 0 0
1720 0 0 0
1680 0 0 0
1722 0 0 0
1724 0 0 0
1726 0 0 0
1766 0 0 0
1768 0 0 0
1770 0 0 0
1812 0 0 0
1772 0 0 0
1774 0 0 0
1814 0 0 0
1816 0 0 0
1818 0 0 0
1820 0 0 0
1860 0 0 0
1862 0 0 0
1864 0 0 0
1906 0 0 0
1866 0 0 0
1868 0 0 0
1908 0 0 0
1910 0 0 0
1912 0 0 0
1914 0 0 0
1954 0 0 0
1956 0 0 0
1958 0 0 0
2000 0 0 0
2002 0 0 0
1762 0 0 0
1764 0 0 0
1806 0 0 0
1850 0 0 0
1808 0 0 0
1810 0 0 0
1852 0 0 0
1854 0 0 0
1856 0 0 0
1894 0 0 0
1896 0 0 0
1898 0 0 0
1942 0 0 0
1858 0 0 0
1900 0 0 0
1902 0 0 0
1904 0 0 0
1944 0 0 0
1946 0 0 0
1948 0 0 0
1950 0 0 0
1988 0 0 0
1990 0 0 0
1992 0 0 0
2036 0 0 0
1952 0 0 0
1994 0 0 0
1996 0 0 0
1998 0 0 0
2038 0 0 0
2040 0 0 0
2042 0 0 0
2044 0 0 0
2084 0 0 0
2086 0 0 0
2046 0 0 0
2088 0 0 0
2090 0 0 0
2132 0 0 0
2134 0 0 0
2178 0 0 0
1938 0 0 0
1940 0 0 0
1982 0 0 0
1984 0 0 0
2026 0 0 0
2028 0 0 0
1986 0 0 0
2030 0 0 0
2032 0 0 0
2034 0 0 0
2072 0 0 0
2074 0 0 0
2076 0 0 0
2078 0 0 0
2120 0 0 0
2122 0 0 0
2080 0 0 0
2082 0 0 0
2124 0 0 0
2126 0 0 0
2128 0 0 0
2130 0 0 0
2166 0 0 0
2168 0 0 0
2170 0 0 0
2172 0 0 0
2214 0 0 0
2216 0 0 0
2174 0 0 0
2176 0 0 0
2218 0 0 0
2220 0 0 0
2222 0 0 0
2256 0 0 0
2258 0 0 0
2260 0 0 0
2296 0 0 0
2262 0 0 0
2298 0 0 0
2332 0 0 0
2070 0 0 0
2114 0 0 0
2116 0 0 0
2118 0 0 0
2158 0 0 0
2160 0 0 0
2162 0 0 0
2164 0 0 0
2204 0 0 0
2206 0 0 0
2208 0 0 0
2246 0 0 0
2210 0 0 0
2212 0 0 0
2248 0 0 0
2250 0 0 0
2252 0 0 0
2254 0 0 0
2286 0 0 0
2288 0 0 0
2290 0 0 0
2322 0 0 0
2292 0 0 0
2294 0 0 0
2324 0 0 0
2326 0 0 0
2328 0 0 0
2356 0 0 0
2358 0 0 0
2330 0 0 0
2360 0 0 0
2362 0 0 0
2386 0 0 0
2388 0 0 0
2390 0 0 0
2202 0 0 0
1088 0 0 0
2201 0 0 0
946 0 0 0
588 0 0 0
3198 0 0 0
3197 0 0 0
2415 0 0 0
2416 0 0 0
57 0 0 0
70 0 0 0
71 0 0 0
83 0 0 0
84 0 0 0
99 0 0 0
683 0 0 0
694 0 0 0
695 0 0 0
696 0 0 0
708 0 0 0
709 0 0 0
723 0 0 0
1375 0 0 0
1399 0 0 0
1401 0 0 0
1403 0 0 0
1427 0 0 0
1429 0 0 0
1459 0 0 0
2627 0 0 0
2628 0 0 0
2651 0 0 0
2652 0 0 0
2653 0 0 0
2654 0 0 0
2677 0 0 0
2678 0 0 0
2679 0 0 0
2680 0 0 0
2681 0 0 0
2682 0 0 0
2707 0 0 0
2708 0 0 0
2709 0 0 0
2710 0 0 0
2741 0 0 0
2742 0 0 0
85 0 0 0
86 0 0 0
100 0 0 0
101 0 0 0
102 0 0 0
103 0 0 0
117 0 0 0
118 0 0 0
119 0 0 0
137 0 0 0
710 0 0 0
711 0 0 0
724 0 0 0
725 0 0 0
726 0 0 0
727 0 0 0
740 0 0 0
741 0 0 0
742 0 0 0
743 0 0 0
759 0 0 0
760 0 0 0
1431 0 0 0
1433 0 0 0
1461 0 0 0
1463 0 0 0
1465 0 0 0
1495 0 0 0
1497 0 0 0
2683 0 0 0
2684 0 0 0
2711 0 0 0
2712 0 0 0
2713 0 0 0
2714 0 0 0
2715 0 0 0
2716 0 0 0
2743 0 0 0
2744 0 0 0
2745 0 0 0
2746 0 0 0
2747 0 0 0
2748 0 0 0
2779 0 0 0
2780 0 0 0
2781 0 0 0
2782 0 0 0
120 0 0 0
121 0 0 0
138 0 0 0
139 0 0 0
140 0 0 0
141 0 0 0
158 0 0 0
159 0 0 0
160 0 0 0
181 0 0 0
744 0 0 0
745 0 0 0
761 0 0 0
762 0 0 0
763 0 0 0
780 0 0 0
781 0 0 0
782 0 0 0
802 0 0 0
1467 0 0 0
1499 0 0 0
1501 0 0 0
1503 0 0 0
1535 0 0 0
1537 0 0 0
1539 0 0 0
1541 0 0 0
1577 0 0 0
1579 0 0 0
2749 0 0 0
2750 0 0 0
2751 0 0 0
2752 0 0 0
2783 0 0 0
2784 0 0 0
2785 0 0 0
2786 0 0 0
2787 0 0 0
2788 0 0 0
2789 0 0 0
2790 0 0 0
2821 0 0 0
2822 0 0 0
2823 0 0 0
2824 0 0 0
2825 0 0 0
2826 0 0 0
2827 0 0 0
2828 0 0 0
2865 0 0 0
2866 0 0 0
2867 0 0 0
2868 0 0 0
161 0 0 0
162 0 0 0
182 0 0 0
183 0 0 0
184 0 0 0
204 0 0 0
205 0 0 0
764 0 0 0
783 0 0 0
784 0 0 0
785 0 0 0
803 0 0 0
804 0 0 0
805 0 0 0
806 0 0 0
825 0 0 0
826 0 0 0
827 0 0 0
848 0 0 0
1543 0 0 0
1581 0 0 0
1583 0 0 0
1585 0 0 0
1623 0 0 0
1625 0 0 0
1627 0 0 0
1629 0 0 0
1669 0 0 0
1671 0 0 0
2829 0 0 0
2830 0 0 0
2831 0 0 0
2832 0 0 0
2869 0 0 0
2870 0 0 0
2871 0 0 0
2872 0 0 0
2873 0 0 0
2874 0 0 0
2911 0 0 0
2912 0 0 0
2913 0 0 0
2914 0 0 0
2915 0 0 0
2916 0 0 0
2957 0 0 0
2958 0 0 0
3437 0 0 0
3438 0 0 0
1 0 0 0
3 0 0 0
7 0 0 0
227 0 0 0
849 0 0 0
1267 0 0 0
1715 0 0 0
2917 0 0 0
2918 0 0 0
2959 0 0 0
2960 0 0 0
3003 0 0 0
3004 0 0 0
115 0 0 0
722 0 0 0
739 0 0 0
756 0 0 0
1457 0 0 0
1491 0 0 0
1527 0 0 0
2739 0 0 0
2740 0 0 0
2775 0 0 0
2776 0 0 0
2813 0 0 0
2814 0 0 0
116 0 0 0
134 0 0 0
135 0 0 0
136 0 0 0
153 0 0 0
154 0 0 0
155 0 0 0
156 0 0 0
175 0 0 0
176 0 0 0
177 0 0 0
198 0 0 0
757 0 0 0
758 0 0 0
776 0 0 0
777 0 0 0
778 0 0 0
779 0 0 0
797 0 0 0
798 0 0 0
799 0 0 0
1493 0 0 0
1529 0 0 0
1531 0 0 0
1533 0 0 0
1567 0 0 0
1569 0 0 0
1571 0 0 0
1611 0 0 0
1613 0 0 0
2777 0 0 0
2778 0 0 0
2815 0 0 0
2816 0 0 0
2817 0 0 0
2818 0 0 0
2819 0 0 0
2820 0 0 0
2855 0 0 0
2856 0 0 0
2857 0 0 0
2858 0 0 0
2859 0 0 0
2860 0 0 0
2901 0 0 0
2902 0 0 0
157 0 0 0
178 0 0 0
179 0 0 0
180 0 0 0
199 0 0 0
200 0 0 0
201 0 0 0
202 0 0 0
221 0 0 0
222 0 0 0
223 0 0 0
244 0 0 0
800 0 0 0
801 0 0 0
820 0 0 0
821 0 0 0
822 0 0 0
823 0 0 0
843 0 0 0
844 0 0 0
1573 0 0 0
1575 0 0 0
1615 0 0 0
1617 0 0 0
1619 0 0 0
1621 0 0 0
1657 0 0 0
1659 0 0 0
1661 0 0 0
1663 0 0 0
1703 0 0 0
1705 0 0 0
2861 0 0 0
2862 0 0 0
2863 0 0 0
2864 0 0 0
2903 0 0 0
2904 0 0 0
2905 0 0 0
2906 0 0 0
2907 0 0 0
2908 0 0 0
2909 0 0 0
2910 0 0 0
2947 0 0 0
2948 0 0 0
2949 0 0 0
2950 0 0 0
2951 0 0 0
2952 0 0 0
2993 0 0 0
2994 0 0 0
203 0 0 0
224 0 0 0
225 0 0 0
226 0 0 0
245 0 0 0
246 0 0 0
247 0 0 0
269 0 0 0
824 0 0 0
845 0 0 0
846 0 0 0
847 0 0 0
866 0 0 0
867 0 0 0
868 0 0 0
869 0 0 0
889 0 0 0
890 0 0 0
1665 0 0 0
1667 0 0 0
1707 0 0 0
1709 0 0 0
1711 0 0 0
1713 0 0 0
1751 0 0 0
1753 0 0 0
1755 0 0 0
1799 0 0 0
2953 0 0 0
2954 0 0 0
2955 0 0 0
2956 0 0 0
2995 0 0 0
2996 0 0 0
2997 0 0 0
2998 0 0 0
2999 0 0 0
3000 0 0 0
3039 0 0 0
3040 0 0 0
3041 0 0 0
3042 0 0 0
18 0 0 0
35 0 0 0
248 0 0 0
249 0 0 0
270 0 0 0
271 0 0 0
292 0 0 0
293 0 0 0
870 0 0 0
891 0 0 0
892 0 0 0
912 0 0 0
913 0 0 0
935 0 0 0
1757 0 0 0
1759 0 0 0
1801 0 0 0
1803 0 0 0
1845 0 0 0
1847 0 0 0
3001 0 0 0
3002 0 0 0
3043 0 0 0
3044 0 0 0
3045 0 0 0
3046 0 0 0
3085 0 0 0
3086 0 0 0
3087 0 0 0
3088 0 0 0
3089 0 0 0
3090 0 0 0
3131 0 0 0
3132 0 0 0
196 0 0 0
197 0 0 0
218 0 0 0
219 0 0 0
239 0 0 0
240 0 0 0
796 0 0 0
818 0 0 0
819 0 0 0
839 0 0 0
840 0 0 0
861 0 0 0
1609 0 0 0
1653 0 0 0
1655 0 0 0
1695 0 0 0
1697 0 0 0
1739 0 0 0
2897 0 0 0
2898 0 0 0
2899 0 0 0
2900 0 0 0
2941 0 0 0
2942 0 0 0
2943 0 0 0
2944 0 0 0
2983 0 0 0
2984 0 0 0
2985 0 0 0
2986 0 0 0
3027 0 0 0
3028 0 0 0
220 0 0 0
241 0 0 0
242 0 0 0
243 0 0 0
263 0 0 0
264 0 0 0
265 0 0 0
266 0 0 0
286 0 0 0
287 0 0 0
841 0 0 0
842 0 0 0
862 0 0 0
863 0 0 0
864 0 0 0
865 0 0 0
883 0 0 0
884 0 0 0
885 0 0 0
886 0 0 0
906 0 0 0
907 0 0 0
1699 0 0 0
1701 0 0 0
1741 0 0 0
1743 0 0 0
1745 0 0 0
1747 0 0 0
1787 0 0 0
1789 0 0 0
1791 0 0 0
1833 0 0 0
2945 0 0 0
2946 0 0 0
2987 0 0 0
2988 0 0 0
2989 0 0 0
2990 0 0 0
2991 0 0 0
2992 0 0 0
3029 0 0 0
3030 0 0 0
3031 0 0 0
3032 0 0 0
3033 0 0 0
3034 0 0 0
3035 0 0 0
3036 0 0 0
3073 0 0 0
3074 0 0 0
3075 0 0 0
3076 0 0 0
3077 0 0 0
3078 0 0 0
3119 0 0 0
3120 0 0 0
267 0 0 0
268 0 0 0
288 0 0 0
289 0 0 0
290 0 0 0
310 0 0 0
311 0 0 0
312 0 0 0
333 0 0 0
887 0 0 0
888 0 0 0
908 0 0 0
909 0 0 0
910 0 0 0
911 0 0 0
929 0 0 0
930 0 0 0
931 0 0 0
932 0 0 0
952 0 0 0
953 0 0 0
1749 0 0 0
1793 0 0 0
1795 0 0 0
1797 0 0 0
1835 0 0 0
1837 0 0 0
1839 0 0 0
1841 0 0 0
1881 0 0 0
1883 0 0 0
1885 0 0 0
1927 0 0 0
3037 0 0 0
3038 0 0 0
3079 0 0 0
3080 0 0 0
3081 0 0 0
3082 0 0 0
3083 0 0 0
3084 0 0 0
3121 0 0 0
3122 0 0 0
3123 0 0 0
3124 0 0 0
3125 0 0 0
3126 0 0 0
3165 0 0 0
3166 0 0 0
3167 0 0 0
3168 0 0 0
291 0 0 0
313 0 0 0
314 0 0 0
315 0 0 0
334 0 0 0
335 0 0 0
336 0 0 0
337 0 0 0
357 0 0 0
358 0 0 0
359 0 0 0
380 0 0 0
933 0 0 0
934 0 0 0
954 0 0 0
955 0 0 0
956 0 0 0
975 0 0 0
976 0 0 0
977 0 0 0
998 0 0 0
1843 0 0 0
1887 0 0 0
1889 0 0 0
1891 0 0 0
1929 0 0 0
1931 0 0 0
1933 0 0 0
1975 0 0 0
1977 0 0 0
3127 0 0 0
3128 0 0 0
3129 0 0 0
3130 0 0 0
3169 0 0 0
3170 0 0 0
3171 0 0 0
3172 0 0 0
3173 0 0 0
3174 0 0 0
3175 0 0 0
3176 0 0 0
3211 0 0 0
3212 0 0 0
3213 0 0 0
3214 0 0 0
3215 0 0 0
3216 0 0 0
3217 0 0 0
3218 0 0 0
3257 0 0 0
3258 0 0 0
3259 0 0 0
3260 0 0 0
58 0 0 0
87 0 0 0
381 0 0 0
978 0 0 0
999 0 0 0
1021 0 0 0
1935 0 0 0
1979 0 0 0
2021 0 0 0
2023 0 0 0
3261 0 0 0
3262 0 0 0
3303 0 0 0
3304 0 0 0
262 0 0 0
283 0 0 0
882 0 0 0
1783 0 0 0
3069 0 0 0
3070 0 0 0
284 0 0 0
285 0 0 0
306 0 0 0
307 0 0 0
308 0 0 0
309 0 0 0
328 0 0 0
329 0 0 0
330 0 0 0
352 0 0 0
904 0 0 0
905 0 0 0
925 0 0 0
926 0 0 0
927 0 0 0
928 0 0 0
947 0 0 0
948 0 0 0
949 0 0 0
970 0 0 0
1785 0 0 0
1827 0 0 0
1829 0 0 0
1831 0 0 0
1871 0 0 0
1873 0 0 0
1875 0 0 0
1877 0 0 0
1917 0 0 0
1919 0 0 0
3071 0 0 0
3072 0 0 0
3113 0 0 0
3114 0 0 0
3115 0 0 0
3116 0 0 0
3117 0 0 0
3118 0 0 0
3155 0 0 0
3156 0 0 0
3157 0 0 0
3158 0 0 0
3159 0 0 0
3160 0 0 0
3161 0 0 0
3162 0 0 0
3201 0 0 0
3202 0 0 0
3203 0 0 0
3204 0 0 0
331 0 0 0
332 0 0 0
353 0 0 0
354 0 0 0
355 0 0 0
375 0 0 0
376 0 0 0
950 0 0 0
951 0 0 0
971 0 0 0
972 0 0 0
973 0 0 0
974 0 0 0
993 0 0 0
994 0 0 0
995 0 0 0
1016 0 0 0
1879 0 0 0
1921 0 0 0
1923 0 0 0
1925 0 0 0
1965 0 0 0
1967 0 0 0
1969 0 0 0
1971 0 0 0
2011 0 0 0
2013 0 0 0
3163 0 0 0
3164 0 0 0
3205 0 0 0
3206 0 0 0
3207 0 0 0
3208 0 0 0
3209 0 0 0
3210 0 0 0
3247 0 0 0
3248 0 0 0
3249 0 0 0
3250 0 0 0
3251 0 0 0
3252 0 0 0
3293 0 0 0
3294 0 0 0
356 0 0 0
377 0 0 0
378 0 0 0
379 0 0 0
399 0 0 0
400 0 0 0
401 0 0 0
402 0 0 0
422 0 0 0
423 0 0 0
996 0 0 0
997 0 0 0
1017 0 0 0
1018 0 0 0
1019 0 0 0
1039 0 0 0
1040 0 0 0
1973 0 0 0
2015 0 0 0
2017 0 0 0
2019 0 0 0
2059 0 0 0
2061 0 0 0
2063 0 0 0
2105 0 0 0
3253 0 0 0
3254 0 0 0
3255 0 0 0
3256 0 0 0
3295 0 0 0
3296 0 0 0
3297 0 0 0
3298 0 0 0
3299 0 0 0
3300 0 0 0
3301 0 0 0
3302 0 0 0
3339 0 0 0
3340 0 0 0
3341 0 0 0
3342 0 0 0
3343 0 0 0
3344 0 0 0
3387 0 0 0
3388 0 0 0
122 0 0 0
403 0 0 0
424 0 0 0
425 0 0 0
446 0 0 0
447 0 0 0
469 0 0 0
1020 0 0 0
1041 0 0 0
1042 0 0 0
1063 0 0 0
1064 0 0 0
1065 0 0 0
1086 0 0 0
2065 0 0 0
2067 0 0 0
2107 0 0 0
2109 0 0 0
2111 0 0 0
2153 0 0 0
2155 0 0 0
2199 0 0 0
3345 0 0 0
3346 0 0 0
3347 0 0 0
3348 0 0 0
3389 0 0 0
3390 0 0 0
3391 0 0 0
3392 0 0 0
3433 0 0 0
3434 0 0 0
3435 0 0 0
3436 0 0 0
1376 0 0 0
1400 0 0 0
1402 0 0 0
1404 0 0 0
1428 0 0 0
1430 0 0 0
1460 0 0 0
1432 0 0 0
1434 0 0 0
1462 0 0 0
1464 0 0 0
1466 0 0 0
1496 0 0 0
1498 0 0 0
1468 0 0 0
1500 0 0 0
1502 0 0 0
1504 0 0 0
1536 0 0 0
1538 0 0 0
1540 0 0 0
1542 0 0 0
1578 0 0 0
1580 0 0 0
1544 0 0 0
1582 0 0 0
1584 0 0 0
1586 0 0 0
1624 0 0 0
1626 0 0 0
1628 0 0 0
1630 0 0 0
1670 0 0 0
1672 0 0 0
1268 0 0 0
1716 0 0 0
1458 0 0 0
1492 0 0 0
1528 0 0 0
1494 0 0 0
1530 0 0 0
1532 0 0 0
1534 0 0 0
1568 0 0 0
1570 0 0 0
1572 0 0 0
1612 0 0 0
1614 0 0 0
1574 0 0 0
1576 0 0 0
1616 0 0 0
1618 0 0 0
1620 0 0 0
1622 0 0 0
1658 0 0 0
1660 0 0 0
1662 0 0 0
1664 0 0 0
1704 0 0 0
1706 0 0 0
1666 0 0 0
1668 0 0 0
1708 0 0 0
1710 0 0 0
1712 0 0 0
1714 0 0 0
1752 0 0 0
1754 0 0 0
1756 0 0 0
1800 0 0 0
1758 0 0 0
1760 0 0 0
1802 0 0 0
1804 0 0 0
1846 0 0 0
1848 0 0 0
1610 0 0 0
1654 0 0 0
1656 0 0 0
1696 0 0 0
1698 0 0 0
1740 0 0 0
1700 0 0 0
1702 0 0 0
1742 0 0 0
1744 0 0 0
1746 0 0 0
1748 0 0 0
1788 0 0 0
1790 0 0 0
1792 0 0 0
1834 0 0 0
1750 0 0 0
1794 0 0 0
1796 0 0 0
1798 0 0 0
1836 0 0 0
1838 0 0 0
1840 0 0 0
1842 0 0 0
1882 0 0 0
1884 0 0 0
1886 0 0 0
1928 0 0 0
1844 0 0 0
1888 0 0 0
1890 0 0 0
1892 0 0 0
1930 0 0 0
1932 0 0 0
1934 0 0 0
1976 0 0 0
1978 0 0 0
1936 0 0 0
1980 0 0 0
2022 0 0 0
2024 0 0 0
1784 0 0 0
1786 0 0 0
1828 0 0 0
1830 0 0 0
1832 0 0 0
1872 0 0 0
1874 0 0 0
1876 0 0 0
1878 0 0 0
1918 0 0 0
1920 0 0 0
1880 0 0 0
1922 0 0 0
1924 0 0 0
1926 0 0 0
1966 0 0 0
1968 0 0 0
1970 0 0 0
1972 0 0 0
2012 0 0 0
2014 0 0 0
1974 0 0 0
2016 0 0 0
2018 0 0 0
2020 0 0 0
2060 0 0 0
2062 0 0 0
2064 0 0 0
2106 0 0 0
2066 0 0 0
2068 0 0 0
2108 0 0 0
2110 0 0 0
2112 0 0 0
2154 0 0 0
2156 0 0 0
2200 0 0 0
327 0 0 0
1109 0 0 0
1916 0 0 0
1915 0 0 0
3480 0 0 0
2522 0 0 0
350 0 0 0
351 0 0 0
371 0 0 0
372 0 0 0
373 0 0 0
394 0 0 0
395 0 0 0
416 0 0 0
968 0 0 0
969 0 0 0
989 0 0 0
990 0 0 0
991 0 0 0
1011 0 0 0
1012 0 0 0
1033 0 0 0
2504 0 0 0
1959 0 0 0
1961 0 0 0
1963 0 0 0
2003 0 0 0
2005 0 0 0
2047 0 0 0
2049 0 0 0
2514 0 0 0
2518 0 0 0
3199 0 0 0
3200 0 0 0
3241 0 0 0
3242 0 0 0
3243 0 0 0
3244 0 0 0
3245 0 0 0
3246 0 0 0
3283 0 0 0
3284 0 0 0
3285 0 0 0
3286 0 0 0
3287 0 0 0
3288 0 0 0
3327 0 0 0
3328 0 0 0
3329 0 0 0
3330 0 0 0
374 0 0 0
396 0 0 0
397 0 0 0
398 0 0 0
417 0 0 0
418 0 0 0
419 0 0 0
440 0 0 0
441 0 0 0
992 0 0 0
1013 0 0 0
1014 0 0 0
1015 0 0 0
1034 0 0 0
1035 0 0 0
1036 0 0 0
1037 0 0 0
1057 0 0 0
1058 0 0 0
1059 0 0 0
1080 0 0 0
2007 0 0 0
2009 0 0 0
2051 0 0 0
2053 0 0 0
2055 0 0 0
2057 0 0 0
2093 0 0 0
2095 0 0 0
2097 0 0 0
2099 0 0 0
2141 0 0 0
2143 0 0 0
3289 0 0 0
3290 0 0 0
3291 0 0 0
3292 0 0 0
3331 0 0 0
3332 0 0 0
3333 0 0 0
3334 0 0 0
3335 0 0 0
3336 0 0 0
3375 0 0 0
3376 0 0 0
3377 0 0 0
3378 0 0 0
3379 0 0 0
3380 0 0 0
3421 0 0 0
3422 0 0 0
420 0 0 0
421 0 0 0
442 0 0 0
443 0 0 0
444 0 0 0
445 0 0 0
463 0 0 0
464 0 0 0
465 0 0 0
466 0 0 0
487 0 0 0
488 0 0 0
1038 0 0 0
1060 0 0 0
1061 0 0 0
1062 0 0 0
1081 0 0 0
1082 0 0 0
1083 0 0 0
1104 0 0 0
1105 0 0 0
2101 0 0 0
2103 0 0 0
2145 0 0 0
2147 0 0 0
2149 0 0 0
2187 0 0 0
2189 0 0 0
2191 0 0 0
2235 0 0 0
3337 0 0 0
3338 0 0 0
3381 0 0 0
3382 0 0 0
3383 0 0 0
3384 0 0 0
3385 0 0 0
3386 0 0 0
3423 0 0 0
3424 0 0 0
3425 0 0 0
3426 0 0 0
3427 0 0 0
3428 0 0 0
3429 0 0 0
3430 0 0 0
3469 0 0 0
3470 0 0 0
3471 0 0 0
3472 0 0 0
3473 0 0 0
3474 0 0 0
3513 0 0 0
3514 0 0 0
163 0 0 0
467 0 0 0
468 0 0 0
489 0 0 0
490 0 0 0
491 0 0 0
508 0 0 0
509 0 0 0
510 0 0 0
511 0 0 0
529 0 0 0
1084 0 0 0
1085 0 0 0
1106 0 0 0
1107 0 0 0
1108 0 0 0
2520 0 0 0
1126 0 0 0
1127 0 0 0
1128 0 0 0
1129 0 0 0
1147 0 0 0
1148 0 0 0
2151 0 0 0
2193 0 0 0
2195 0 0 0
2197 0 0 0
2237 0 0 0
2239 0 0 0
2241 0 0 0
2243 0 0 0
2277 0 0 0
2279 0 0 0
2281 0 0 0
3431 0 0 0
3432 0 0 0
3475 0 0 0
3476 0 0 0
3477 0 0 0
3478 0 0 0
2508 0 0 0
2506 0 0 0
3515 0 0 0
3516 0 0 0
3517 0 0 0
3518 0 0 0
3519 0 0 0
3520 0 0 0
3555 0 0 0
3556 0 0 0
3557 0 0 0
3558 0 0 0
206 0 0 0
1149 0 0 0
1166 0 0 0
2283 0 0 0
2319 0 0 0
3521 0 0 0
3522 0 0 0
3559 0 0 0
3560 0 0 0
3593 0 0 0
3594 0 0 0
3595 0 0 0
3596 0 0 0
415 0 0 0
438 0 0 0
459 0 0 0
1032 0 0 0
1055 0 0 0
1076 0 0 0
2091 0 0 0
2135 0 0 0
3371 0 0 0
3372 0 0 0
3373 0 0 0
3374 0 0 0
3415 0 0 0
3416 0 0 0
3459 0 0 0
3460 0 0 0
439 0 0 0
460 0 0 0
461 0 0 0
462 0 0 0
482 0 0 0
483 0 0 0
484 0 0 0
503 0 0 0
504 0 0 0
1056 0 0 0
1077 0 0 0
1078 0 0 0
1079 0 0 0
1099 0 0 0
1100 0 0 0
1101 0 0 0
1102 0 0 0
1121 0 0 0
2137 0 0 0
2139 0 0 0
2179 0 0 0
2181 0 0 0
2183 0 0 0
2185 0 0 0
2225 0 0 0
2227 0 0 0
2229 0 0 0
2267 0 0 0
3417 0 0 0
3418 0 0 0
3419 0 0 0
3420 0 0 0
3461 0 0 0
3462 0 0 0
3463 0 0 0
3464 0 0 0
3465 0 0 0
3466 0 0 0
3503 0 0 0
3504 0 0 0
3505 0 0 0
3506 0 0 0
485 0 0 0
486 0 0 0
505 0 0 0
506 0 0 0
507 0 0 0
523 0 0 0
524 0 0 0
525 0 0 0
541 0 0 0
1103 0 0 0
1122 0 0 0
1123 0 0 0
1124 0 0 0
1125 0 0 0
1142 0 0 0
1143 0 0 0
1144 0 0 0
1161 0 0 0
2231 0 0 0
2233 0 0 0
2269 0 0 0
2271 0 0 0
2273 0 0 0
2307 0 0 0
2309 0 0 0
3467 0 0 0
3468 0 0 0
3507 0 0 0
3508 0 0 0
3509 0 0 0
3510 0 0 0
3511 0 0 0
3512 0 0 0
3545 0 0 0
3546 0 0 0
3547 0 0 0
3548 0 0 0
3549 0 0 0
3550 0 0 0
3551 0 0 0
3552 0 0 0
3583 0 0 0
3584 0 0 0
3585 0 0 0
3586 0 0 0
526 0 0 0
527 0 0 0
528 0 0 0
542 0 0 0
543 0 0 0
544 0 0 0
545 0 0 0
558 0 0 0
559 0 0 0
560 0 0 0
573 0 0 0
1145 0 0 0
1146 0 0 0
1162 0 0 0
1163 0 0 0
1164 0 0 0
1165 0 0 0
1179 0 0 0
1180 0 0 0
1181 0 0 0
1195 0 0 0
2275 0 0 0
2311 0 0 0
2313 0 0 0
2315 0 0 0
2317 0 0 0
2343 0 0 0
2345 0 0 0
2347 0 0 0
2349 0 0 0
2377 0 0 0
2379 0 0 0
3553 0 0 0
3554 0 0 0
3587 0 0 0
3588 0 0 0
3589 0 0 0
3590 0 0 0
3591 0 0 0
3592 0 0 0
3619 0 0 0
3620 0 0 0
3621 0 0 0
3622 0 0 0
3623 0 0 0
3624 0 0 0
3651 0 0 0
3652 0 0 0
250 0 0 0
294 0 0 0
546 0 0 0
561 0 0 0
574 0 0 0
575 0 0 0
587 0 0 0
1182 0 0 0
1183 0 0 0
1196 0 0 0
1197 0 0 0
1210 0 0 0
1211 0 0 0
2351 0 0 0
2353 0 0 0
2381 0 0 0
2383 0 0 0
2407 0 0 0
2409 0 0 0
2411 0 0 0
2435 0 0 0
3625 0 0 0
3626 0 0 0
3627 0 0 0
3628 0 0 0
3653 0 0 0
3654 0 0 0
3655 0 0 0
3656 0 0 0
3657 0 0 0
3658 0 0 0
3681 0 0 0
3682 0 0 0
3683 0 0 0
3684 0 0 0
3707 0 0 0
3708 0 0 0
501 0 0 0
502 0 0 0
520 0 0 0
521 0 0 0
522 0 0 0
536 0 0 0
537 0 0 0
538 0 0 0
552 0 0 0
553 0 0 0
1119 0 0 0
1120 0 0 0
1139 0 0 0
1140 0 0 0
1156 0 0 0
1157 0 0 0
2223 0 0 0
2263 0 0 0
2265 0 0 0
2299 0 0 0
2301 0 0 0
2303 0 0 0
2333 0 0 0
2335 0 0 0
2365 0 0 0
3501 0 0 0
3502 0 0 0
3539 0 0 0
3540 0 0 0
3541 0 0 0
3542 0 0 0
3543 0 0 0
3544 0 0 0
3575 0 0 0
3576 0 0 0
3577 0 0 0
3578 0 0 0
3607 0 0 0
3608 0 0 0
3609 0 0 0
3610 0 0 0
539 0 0 0
540 0 0 0
554 0 0 0
555 0 0 0
556 0 0 0
567 0 0 0
568 0 0 0
569 0 0 0
1141 0 0 0
1158 0 0 0
1159 0 0 0
1160 0 0 0
1174 0 0 0
1175 0 0 0
1176 0 0 0
1177 0 0 0
1189 0 0 0
1190 0 0 0
1191 0 0 0
1204 0 0 0
2305 0 0 0
2337 0 0 0
2339 0 0 0
2341 0 0 0
2367 0 0 0
2369 0 0 0
2371 0 0 0
2373 0 0 0
2395 0 0 0
2397 0 0 0
2399 0 0 0
3579 0 0 0
3580 0 0 0
3581 0 0 0
3582 0 0 0
3611 0 0 0
3612 0 0 0
3613 0 0 0
3614 0 0 0
3615 0 0 0
3616 0 0 0
3617 0 0 0
3618 0 0 0
3639 0 0 0
3640 0 0 0
3641 0 0 0
3642 0 0 0
3643 0 0 0
3644 0 0 0
3645 0 0 0
3646 0 0 0
3669 0 0 0
3670 0 0 0
3671 0 0 0
3672 0 0 0
557 0 0 0
570 0 0 0
571 0 0 0
572 0 0 0
582 0 0 0
583 0 0 0
584 0 0 0
585 0 0 0
594 0 0 0
595 0 0 0
1178 0 0 0
1192 0 0 0
1193 0 0 0
1194 0 0 0
1205 0 0 0
1206 0 0 0
1207 0 0 0
1208 0 0 0
1217 0 0 0
1218 0 0 0
1219 0 0 0
1229 0 0 0
2375 0 0 0
2401 0 0 0
2403 0 0 0
2405 0 0 0
2425 0 0 0
2427 0 0 0
2429 0 0 0
2449 0 0 0
3647 0 0 0
3648 0 0 0
3649 0 0 0
3650 0 0 0
3673 0 0 0
3674 0 0 0
3675 0 0 0
3676 0 0 0
3677 0 0 0
3678 0 0 0
3695 0 0 0
3696 0 0 0
3697 0 0 0
3698 0 0 0
3699 0 0 0
3700 0 0 0
3719 0 0 0
3720 0 0 0
586 0 0 0
596 0 0 0
597 0 0 0
598 0 0 0
605 0 0 0
606 0 0 0
607 0 0 0
614 0 0 0
1209 0 0 0
1220 0 0 0
1221 0 0 0
1222 0 0 0
1230 0 0 0
1231 0 0 0
1232 0 0 0
1239 0 0 0
1240 0 0 0
2431 0 0 0
2433 0 0 0
2451 0 0 0
2453 0 0 0
2455 0 0 0
2457 0 0 0
2471 0 0 0
2473 0 0 0
2475 0 0 0
2489 0 0 0
3679 0 0 0
3680 0 0 0
3701 0 0 0
3702 0 0 0
3703 0 0 0
3704 0 0 0
3705 0 0 0
3706 0 0 0
3721 0 0 0
3722 0 0 0
3723 0 0 0
3724 0 0 0
3725 0 0 0
3726 0 0 0
3727 0 0 0
3728 0 0 0
3739 0 0 0
3740 0 0 0
3741 0 0 0
3742 0 0 0
3743 0 0 0
3744 0 0 0
3757 0 0 0
3758 0 0 0
338 0 0 0
382 0 0 0
615 0 0 0
1233 0 0 0
1241 0 0 0
1248 0 0 0
1249 0 0 0
2491 0 0 0
3745 0 0 0
3746 0 0 0
3759 0 0 0
3760 0 0 0
3771 0 0 0
3772 0 0 0
565 0 0 0
566 0 0 0
578 0 0 0
1262 0 0 0
1173 0 0 0
1187 0 0 0
2363 0 0 0
2391 0 0 0
2516 0 0 0
3637 0 0 0
3638 0 0 0
3663 0 0 0
3664 0 0 0
579 0 0 0
580 0 0 0
581 0 0 0
589 0 0 0
590 0 0 0
591 0 0 0
599 0 0 0
600 0 0 0
1188 0 0 0
1201 0 0 0
1202 0 0 0
1203 0 0 0
1212 0 0 0
1213 0 0 0
1214 0 0 0
1215 0 0 0
1224 0 0 0
1225 0 0 0
2393 0 0 0
2417 0 0 0
2419 0 0 0
2421 0 0 0
2423 0 0 0
2437 0 0 0
2439 0 0 0
2441 0 0 0
2443 0 0 0
2459 0 0 0
2461 0 0 0
3665 0 0 0
3666 0 0 0
3667 0 0 0
3668 0 0 0
3687 0 0 0
3688 0 0 0
3689 0 0 0
3690 0 0 0
3691 0 0 0
3692 0 0 0
3693 0 0 0
3694 0 0 0
3709 0 0 0
3710 0 0 0
3711 0 0 0
3712 0 0 0
3713 0 0 0
3714 0 0 0
3729 0 0 0
3730 0 0 0
592 0 0 0
593 0 0 0
601 0 0 0
602 0 0 0
603 0 0 0
604 0 0 0
608 0 0 0
609 0 0 0
610 0 0 0
611 0 0 0
616 0 0 0
617 0 0 0
1216 0 0 0
1226 0 0 0
1227 0 0 0
1228 0 0 0
1234 0 0 0
1235 0 0 0
1236 0 0 0
1237 0 0 0
1243 0 0 0
1244 0 0 0
2445 0 0 0
2447 0 0 0
2463 0 0 0
2465 0 0 0
2467 0 0 0
2477 0 0 0
2479 0 0 0
2481 0 0 0
2493 0 0 0
3715 0 0 0
3716 0 0 0
3717 0 0 0
3718 0 0 0
3731 0 0 0
3732 0 0 0
3733 0 0 0
3734 0 0 0
3735 0 0 0
3736 0 0 0
3747 0 0 0
3748 0 0 0
3749 0 0 0
3750 0 0 0
612 0 0 0
613 0 0 0
618 0 0 0
619 0 0 0
620 0 0 0
622 0 0 0
623 0 0 0
624 0 0 0
625 0 0 0
627 0 0 0
628 0 0 0
1238 0 0 0
1245 0 0 0
1246 0 0 0
1247 0 0 0
1250 0 0 0
1251 0 0 0
1252 0 0 0
1256 0 0 0
2469 0 0 0
2483 0 0 0
2485 0 0 0
2487 0 0 0
2495 0 0 0
2497 0 0 0
2499 0 0 0
2501 0 0 0
2505 0 0 0
2507 0 0 0
2509 0 0 0
2515 0 0 0
3737 0 0 0
3738 0 0 0
3751 0 0 0
3752 0 0 0
3753 0 0 0
3754 0 0 0
3755 0 0 0
3756 0 0 0
3761 0 0 0
3762 0 0 0
3763 0 0 0
3764 0 0 0
3765 0 0 0
3766 0 0 0
3767 0 0 0
3768 0 0 0
3773 0 0 0
3774 0 0 0
3775 0 0 0
3776 0 0 0
426 0 0 0
470 0 0 0
621 0 0 0
626 0 0 0
629 0 0 0
630 0 0 0
631 0 0 0
1253 0 0 0
1254 0 0 0
1257 0 0 0
1258 0 0 0
1259 0 0 0
1260 0 0 0
1261 0 0 0
2524 0 0 0
2503 0 0 0
2511 0 0 0
2513 0 0 0
2517 0 0 0
2519 0 0 0
2521 0 0 0
2523 0 0 0
3349 0 0 0
3350 0 0 0
3769 0 0 0
3770 0 0 0
3777 0 0 0
3778 0 0 0
3779 0 0 0
3780 0 0 0
3781 0 0 0
3782 0 0 0
3783 0 0 0
3784 0 0 0
3785 0 0 0
3786 0 0 0
2510 0 0 0
1960 0 0 0
1962 0 0 0
1964 0 0 0
2004 0 0 0
2006 0 0 0
2048 0 0 0
2050 0 0 0
2008 0 0 0
2010 0 0 0
2052 0 0 0
2054 0 0 0
2056 0 0 0
2058 0 0 0
2094 0 0 0
2096 0 0 0
2098 0 0 0
2100 0 0 0
2142 0 0 0
2144 0 0 0
2102 0 0 0
2104 0 0 0
2146 0 0 0
2148 0 0 0
2150 0 0 0
2188 0 0 0
2190 0 0 0
2192 0 0 0
2236 0 0 0
2152 0 0 0
2194 0 0 0
2196 0 0 0
2198 0 0 0
2238 0 0 0
2240 0 0 0
2242 0 0 0
2244 0 0 0
2278 0 0 0
2280 0 0 0
2282 0 0 0
2284 0 0 0
2320 0 0 0
2092 0 0 0
2136 0 0 0
2138 0 0 0
2140 0 0 0
2180 0 0 0
2182 0 0 0
2184 0 0 0
2186 0 0 0
2226 0 0 0
2228 0 0 0
2230 0 0 0
2268 0 0 0
2232 0 0 0
2234 0 0 0
2270 0 0 0
2272 0 0 0
2274 0 0 0
2308 0 0 0
2310 0 0 0
2276 0 0 0
2312 0 0 0
2314 0 0 0
2316 0 0 0
2318 0 0 0
2344 0 0 0
2346 0 0 0
2348 0 0 0
2350 0 0 0
2378 0 0 0
2380 0 0 0
2352 0 0 0
2354 0 0 0
2382 0 0 0
2384 0 0 0
2408 0 0 0
2410 0 0 0
2412 0 0 0
2436 0 0 0
2224 0 0 0
2264 0 0 0
2266 0 0 0
2300 0 0 0
2302 0 0 0
2304 0 0 0
2334 0 0 0
2336 0 0 0
2366 0 0 0
2306 0 0 0
2338 0 0 0
2340 0 0 0
2342 0 0 0
2368 0 0 0
2370 0 0 0
2372 0 0 0
2374 0 0 0
2396 0 0 0
2398 0 0 0
2400 0 0 0
2376 0 0 0
2402 0 0 0
2404 0 0 0
2406 0 0 0
2426 0 0 0
2428 0 0 0
2430 0 0 0
2450 0 0 0
2432 0 0 0
2434 0 0 0
2452 0 0 0
2454 0 0 0
2456 0 0 0
2458 0 0 0
2472 0 0 0
2474 0 0 0
2476 0 0 0
2490 0 0 0
2492 0 0 0
2364 0 0 0
2392 0 0 0
2512 0 0 0
2394 0 0 0
2418 0 0 0
2420 0 0 0
2422 0 0 0
2424 0 0 0
2438 0 0 0
2440 0 0 0
2442 0 0 0
2444 0 0 0
2460 0 0 0
2462 0 0 0
2446 0 0 0
2448 0 0 0
2464 0 0 0
2466 0 0 0
2468 0 0 0
2478 0 0 0
2480 0 0 0
2482 0 0 0
2494 0 0 0
2470 0 0 0
2484 0 0 0
2486 0 0 0
2488 0 0 0
2496 0 0 0
2498 0 0 0
2500 0 0 0
2502 0 0 0
3479 0 0 0
