LAMMPS data file via write_data, version 28 Mar 2023, timestep = 60, units = metal

546 atoms
2 atom types

0 31.6930985893992 xlo xhi
0 27.447028503064466 ylo yhi
0 30 zlo zhi
-15.846549294699596 0 0 xy xz yz

Masses

1 95.95
2 78.971

Atoms # atomic

120 1 -0.8930912549798978 1.764753150971299 6.808812074829855 1 0 0
126 1 -3.4878483153929585 6.906085171815817 6.7253042019699265 1 0 0
127 1 -0.7037331200105861 5.081563011069032 6.775563535777299 1 0 0
135 1 -0.5229095717531846 8.39694886748854 6.7179571120343775 1 0 0
245 2 -0.1884839634228146 3.298243038625887 1.3785585739446957 1 0 0
259 2 -3.326287113311739 8.095194351642172 1.4696676618651103 1 0 0
261 2 -0.3753343161143916 6.603701581105525 1.4255977084964668 1 0 0
435 2 -2.634574269380264 5.2152664465660665 8.433176954521707 1 0 0
436 2 -2.602424518831902 5.174630954874651 5.083673615381041 1 0 0
437 2 0.15863338976754382 3.3833588608826837 8.471131829900829 1 0 0
438 2 0.16288265007283642 3.351439674178174 5.121468145044536 1 0 0
451 2 -2.4497508898358693 8.534730389921354 8.380492881030534 1 0 0
452 2 -2.42669566724414 8.484324162080195 5.030767817282392 1 0 0
453 2 0.3460956013818941 6.711860034474252 8.4238040200886 1 0 0
454 2 0.34890999131333666 6.65696048845641 5.074461811863325 1 0 0
273 2 -6.443361453264767 12.945341477481756 1.5502609666306495 1 0 0
133 1 -6.118059343844462 12.027501164231257 6.632674433896147 1 0 0
134 1 -3.315599891951119 10.217219641369908 6.67172289024794 1 0 0
141 1 -3.152788341234901 13.525554381620028 6.627204691875836 1 0 0
142 1 -0.3532027595495668 11.711571071211461 6.656129753529505 1 0 0
275 2 -3.5003635662088732 11.423921589518722 1.5235133213410639 1 0 0
277 2 -0.5526567691821835 9.920029440545479 1.4878815658126092 1 0 0
293 2 -0.718891063925188 13.247953804457268 1.5433570033196726 1 0 0
449 2 -5.246656299289867 10.340762512125282 8.330970080789346 1 0 0
450 2 -5.220186441930818 10.309935888782343 4.9802587928614095 1 0 0
463 2 -5.073676218417654 13.63652673502629 8.300346129888515 1 0 0
464 2 -5.071322515053314 13.623229244425383 4.9491290057980315 1 0 0
465 2 -2.274342849219524 11.841808995032924 8.325974118793996 1 0 0
466 2 -2.2644504812266986 11.799748163832655 4.975560311240727 1 0 0
467 2 0.5229038080472153 10.030485018913941 8.361854706622278 1 0 0
468 2 0.5247479389058327 9.972135976358542 5.012064928664997 1 0 0
483 2 0.6877835384225612 13.33973017739398 8.306918047335799 1 0 0
484 2 0.6891089239625972 13.297551675013679 4.956167446242646 1 0 0
128 1 2.0757520579350794 3.254287556776168 6.795873547899222 1 0 0
136 1 2.2618102071860564 6.570997559328056 6.748272607379173 1 0 0
183 2 2.7639200340372785 1.8175210035402032 1.3762056106931906 0 0 0
263 2 2.5757922574319587 5.121142369977113 1.4081303007192845 1 0 0
279 2 2.3980380098542744 8.430781868955531 1.4631016212726131 1 0 0
365 2 2.951570860771986 1.547492045733715 8.473524287196367 0 0 0
366 2 2.924957264087949 1.5321222528570857 5.123802601068968 0 0 0
367 2 3.14095018403281 4.879504369994801 8.44109085513068 0 0 0
368 2 3.115685082768764 4.833637985076402 5.091637610728983 0 0 0
92 1 4.854102421075122 1.4299623695775303 6.779631526788039 0 0 0
93 1 5.042797400726445 4.746093472515961 6.748270031685301 0 0 0
94 1 7.822957142982679 2.928189651980604 6.719605544965355 0 0 0
95 1 10.603685247902945 1.121545944009342 6.676480147910399 0 0 0
96 1 8.003987804868204 6.246629345680088 6.683447399547566 0 0 0
97 1 10.78621729254429 4.439047480162397 6.654492974167238 0 0 0
101 1 10.957147162670086 7.760143238410122 6.625531521254065 0 0 0
144 1 5.2217654558299005 8.06534396782063 6.697419705871148 1 0 0
185 2 5.718536329377887 0.331819935410763 1.408830211295047 0 0 0
187 2 5.529131137513497 3.637516049066372 1.423924150269534 0 0 0
189 2 8.488677812793822 2.144497551320891 1.4650593668081964 0 0 0
191 2 11.457121217324033 0.635926022531311 1.5132201638323046 0 0 0
193 2 5.351103854581944 6.945904147388756 1.4639476637991953 0 0 0
195 2 8.309229009488988 5.454305540208674 1.4899499343416451 0 0 0
197 2 11.275180870896948 3.9478223715141914 1.5262804257336489 0 0 0
203 2 8.145327731094806 8.76617218663297 1.5239053645008804 0 0 0
205 2 11.107883220955255 7.261974138294167 1.549701711987344 0 0 0
369 2 5.9317551602911545 3.047576882639585 8.425712900494577 0 0 0
370 2 5.88382964977688 3.0168586881514483 5.076084371692973 0 0 0
371 2 8.715145551374201 1.224078502342255 8.385707823595128 0 0 0
372 2 8.66006073072102 1.2085960804671487 5.035734118821009 0 0 0
373 2 6.111476237892895 6.375696308148293 8.385245512802477 0 0 0
374 2 6.070696255551965 6.326254577552169 5.035265571726506 0 0 0
375 2 8.897187526594568 4.552107279483819 8.36071129964741 0 0 0
376 2 8.847425507231883 4.516079320315525 5.010064849290904 0 0 0
377 2 11.67392827408247 2.7407616094070706 8.327188304543094 0 0 0
378 2 11.633726263309441 2.7183579010786176 4.975983038640749 0 0 0
383 2 9.064832300218459 7.876034838676582 8.325143257903605 0 0 0
384 2 9.025852049393022 7.837719894394145 4.973848928664195 0 0 0
385 2 11.846506967946867 6.064767407718613 8.302392062397136 0 0 0
386 2 11.812448469730748 6.035934898278492 4.9503351130593165 0 0 0
469 2 3.3187728279510766 8.20523673387613 8.386270687058095 1 0 0
470 2 3.299587976158107 8.145948750744179 5.0366330076498205 1 0 0
143 1 2.43733826957771 9.889479007991351 6.686224334642631 1 0 0
151 1 2.60178634980793 13.211086595120507 6.63196148036638 1 0 0
295 2 2.2331824862429706 11.747598350296501 1.5215592448881488 1 0 0
100 1 8.172866327216866 9.57016104977977 6.644521216209203 0 0 0
106 1 11.116322082589814 11.08564863626917 6.609400215425165 0 0 0
152 1 5.388860876150196 11.389620743731388 6.64780364156751 1 0 0
161 1 8.331605432791768 12.899374450241995 6.622349514552102 1 0 0
215 2 7.995916824265615 12.079010523377413 1.549155756773605 0 0 0
217 2 10.956112863439792 10.57832613909599 1.5654009713520374 0 0 0
297 2 5.187812288466291 10.257697076394182 1.511927675828456 1 0 0
313 2 5.036712011583989 13.572042992015213 1.5494843390657183 1 0 0
381 2 6.275691482424738 9.69867577332772 8.337712800550005 0 0 0
382 2 6.2485712582614115 9.651101313395722 4.987182506682072 0 0 0
393 2 9.217466299600368 11.195892778614349 8.298878395849748 0 0 0
394 2 9.194092969928223 11.174577385122014 4.94705124388377 0 0 0
485 2 3.4822017411780886 11.523685329466801 8.329709653793628 1 0 0
486 2 3.473414163328596 11.472688163482475 4.979341745197571 1 0 0
503 2 6.426324490202496 13.017579996679052 8.303406098392363 1 0 0
504 2 6.417418198987383 12.990818344139171 4.952221169866843 1 0 0
98 1 13.569001586314622 2.643801356576647 6.628333581249879 0 0 0
99 1 16.351206785282333 0.8556926862633606 6.6203772264367755 0 0 0
102 1 13.743082367371352 5.962656771306305 6.607254330645513 0 0 0
103 1 16.52959658207413 4.174193260009089 6.607000776102265 0 0 0
104 1 19.31387750731849 2.3850449607260047 6.633049797433881 0 0 0
108 1 16.696374914765656 7.491094579897262 6.589922414406461 0 0 0
109 1 19.488402549148546 5.701602723127031 6.615090511285021 0 0 0
116 1 19.65107968232433 9.013958763995053 6.599373043533874 0 0 0
199 2 14.2492222368864 2.4249481382913722 1.5529665019838803 0 0 0
201 2 17.229359831130058 0.8934849308536857 1.5540134109619945 0 0 0
207 2 14.076218895738378 5.740729954285773 1.5707928046069903 0 0 0
209 2 17.049370863001368 4.207582788768454 1.5689795049662445 0 0 0
211 2 20.02539113368852 2.676666423185794 1.53648572583896 0 0 0
219 2 13.918426991040874 9.061752941586784 1.584503655664876 0 0 0
221 2 16.882530894705695 7.5302089010880895 1.5870375553113392 0 0 0
223 2 19.848084312970723 5.994818594146725 1.5600511501994356 0 0 0
379 2 14.442749586694099 0.9414877000090229 8.302310644360176 0 0 0
380 2 14.428066932766178 0.9326498910094112 4.950772737309571 0 0 0
387 2 14.620385808958357 4.2665421314842655 8.287197900257416 0 0 0
388 2 14.608664242416936 4.2464903268584795 4.93473658525456 0 0 0
389 2 17.38859911081874 2.474956254030877 8.293470137502915 0 0 0
390 2 17.408611451090756 2.4643508412065245 4.941454893723497 0 0 0
391 2 20.15491610656057 0.6787007111384041 8.324124243952662 0 0 0
392 2 20.203039453927918 0.6786562349507547 4.973298358592306 0 0 0
397 2 14.786605381838886 7.5844144910943365 8.268835840153898 0 0 0
398 2 14.776594033693575 7.570039015042706 4.915577341259596 0 0 0
399 2 17.56358202586575 5.795449028198563 8.276640379171898 0 0 0
400 2 17.581550479085504 5.7809929939599956 4.92372746880587 0 0 0
401 2 20.337497461893403 4.0048957400940175 8.31205967506915 0 0 0
402 2 20.3840509157819 3.991205505811589 4.960433515097066 0 0 0
413 2 17.728526768367615 9.10507681255373 8.264706284676144 0 0 0
414 2 17.739636535713835 9.103951905435984 4.911264972506701 0 0 0
415 2 20.51332057620538 7.319346312494304 8.291491100501714 0 0 0
416 2 20.550412545066226 7.306620529572145 4.939090084338228 0 0 0
395 2 12.004766318163224 9.383175731457994 8.281849892448506 0 0 0
396 2 11.979285880210817 9.36701811451476 4.929136028431427 0 0 0
409 2 12.152776767780326 12.697778526922436 8.283255743399751 0 0 0
410 2 12.138102442716505 12.708284450519237 4.9306596507554845 0 0 0
107 1 13.904601757968887 9.283142977117452 6.592295379477697 0 0 0
114 1 14.058107879779197 12.60560108041626 6.601031824284673 0 0 0
115 1 16.85221828069094 10.806748944734952 6.58817564880399 0 0 0
123 1 19.805853998003105 12.3229214182873 6.603221739606673 0 0 0
233 2 13.771439680864056 12.385513718518094 1.576665356741378 0 0 0
235 2 16.72827757569809 10.860705172480712 1.588878278321288 0 0 0
237 2 19.68315957916991 9.325537060097847 1.5781333021278898 0 0 0
253 2 19.52630070868606 12.66534193977872 1.572660261713404 0 0 0
411 2 14.941654316646973 10.894832399602821 8.266102176435018 0 0 0
412 2 14.932367762379755 10.902639882530142 4.9127253537285505 0 0 0
427 2 17.887035770519248 12.406352236323723 8.274547107126493 0 0 0
428 2 17.887613472314367 12.430436755141438 4.9215334945838 0 0 0
429 2 20.681399642897915 10.621052825144313 8.280305022088527 0 0 0
430 2 20.701613668983562 10.62476585712208 4.927552754468682 0 0 0
487 2 31.658196386965134 0.04829593746150254 8.486786364746434 0 1 0
488 2 31.663308344191716 0.05151299253953529 5.136866934307148 0 1 0
105 1 22.0933177984355 0.585625328368323 6.680233127981326 0 0 0
110 1 22.276107740014446 3.904453478108507 6.667080165050755 0 0 0
111 1 25.056872046771748 2.0939729272502507 6.731185709063872 0 0 0
112 1 27.832458488361784 0.27241407196842793 6.7840072092769645 0 0 0
117 1 22.448905437646133 7.21780720987097 6.641028442140954 0 0 0
118 1 25.239835461858554 5.410517866978808 6.704420064667872 0 0 0
119 1 28.022459094316705 3.591011049736582 6.7683933529230185 0 0 0
125 1 25.412449861079214 8.721539651763667 6.665545170813042 0 0 0
213 2 23.00098654266647 1.161870440840305 1.4812123029168596 0 0 0
225 2 22.814712411639416 4.47071971515661 1.5053103420230016 0 0 0
227 2 25.78036045598815 2.9669203261130677 1.4388160559607446 0 0 0
229 2 28.741418996554753 1.4798347271142462 1.3849827958398406 0 0 0
239 2 22.63799314026161 7.793546501047898 1.5381053485049678 0 0 0
241 2 25.59434438516768 6.277716402168215 1.4774803632010611 0 0 0
243 2 28.550740654736604 4.781692511983078 1.4166285750460148 0 0 0
403 2 23.11143792277182 2.2014283628162805 8.367942435259263 0 0 0
404 2 23.1740659350616 2.1920398181082636 5.017715558779135 0 0 0
405 2 25.889850208744658 0.3808506236177069 8.425408718370223 0 0 0
406 2 25.94764092173556 0.38219752792085404 5.075942325326636 0 0 0
417 2 23.296413781258174 5.524760037771431 8.345297770522524 0 0 0
418 2 23.35202066167185 5.502768944081367 4.994329134567503 0 0 0
419 2 26.08010096941938 3.7129048480119153 8.410826470002261 0 0 0
420 2 26.135984543199445 3.6890670974766264 5.061054449413635 0 0 0
421 2 28.867460123100145 1.8846359674509316 8.464614734057513 0 0 0
422 2 28.90356645223833 1.8700958934877203 5.114987825299316 0 0 0
431 2 23.474939990666492 8.834158984094504 8.315956633153235 0 0 0
432 2 23.51414235824238 8.81553549200235 4.9643908262419085 0 0 0
433 2 26.266773118991658 7.033772561137812 8.373678414000556 0 0 0
434 2 26.312103874338767 6.998179506411852 5.0234320852614704 0 0 0
124 1 22.610731703702584 10.525637507629632 6.620014120455931 0 0 0
255 2 22.471694542871624 11.130921060856567 1.559743615392736 0 0 0
257 2 25.41766361566102 9.604225657019594 1.5212731914558992 0 0 0
447 2 23.647229125889332 12.130952164245016 8.297345320943222 0 0 0
448 2 23.662075019253393 12.129086480220783 4.945525588576825 0 0 0
1 1 0.8626651778369321 1.7120643898657235 29.6880625325685 0 0 -1
40 1 -2.292203994001069 6.5187258178479786 29.75693352149298 1 0 -1
41 1 0.6729397440405855 5.028743187887768 29.721548533305874 1 0 -1
49 1 0.49170127213481063 8.344789416575107 29.77988017218496 1 0 -1
47 1 -5.4169576876308305 11.340406617875752 29.85689217028083 1 0 -1
48 1 -2.4671923710472954 9.838257407023777 29.816940701298932 1 0 -1
56 1 -2.63110201977322 13.161768230046212 29.86820865114142 1 0 -1
57 1 0.3216976047465927 11.661109403347139 29.842675599608302 1 0 -1
246 2 -0.19424857391538786 3.3304615573501986 28.02889704375237 1 0 -1
260 2 -3.3512443938258105 8.152707748647453 28.119898452083063 1 0 -1
262 2 -0.3809031449214779 6.659424282479912 28.076251592458426 1 0 -1
274 2 -6.45423476680187 12.9664996572537 28.198896607513735 1 0 -1
276 2 -3.5123945327758572 11.47215982358723 28.173035162237127 1 0 -1
278 2 -0.5559659165215818 9.97937040210683 28.13807878236424 1 0 -1
294 2 -0.7184987411742467 13.29075076139025 28.192600804828853 1 0 -1
2 1 3.8309005193764616 0.22071781730152662 29.704486782713055 0 0 -1
3 1 3.6401193537689673 3.539049881742784 29.720213993777698 0 0 -1
4 1 6.606301840760262 2.0443057946975514 29.75201375657327 0 0 -1
5 1 9.570310510272321 0.5395301453983642 29.80309077041965 0 0 -1
6 1 3.456212416782682 6.854486964291423 29.765151995190095 0 0 -1
7 1 6.421951391867326 5.361011353485573 29.780293474090705 0 0 -1
8 1 9.386302109206618 3.858434955014495 29.816719539965828 0 0 -1
11 1 6.247607251835964 8.672572252181949 29.823213827087926 0 0 -1
12 1 9.211892087727536 7.171790396530592 29.845489337157296 0 0 -1
66 1 3.119120993301686 13.47694082484733 29.871689858785427 1 0 -1
17 1 6.083542263129525 11.979364688867033 29.862393881458623 0 0 -1
18 1 9.048466578813983 10.479452232801906 29.87165028488553 0 0 -1
26 1 11.854041175270005 12.278142332025242 29.89329840496012 0 0 -1
58 1 3.2827240961097033 10.166745504025112 29.822419727532097 1 0 -1
184 2 2.7908505936643815 1.832385843536461 28.02648403314187 0 0 -1
264 2 2.599568926989793 5.163794442709335 28.05867171500311 1 0 -1
280 2 2.4150754482768084 8.484818313648587 28.113505097075663 1 0 -1
186 2 5.771045063130458 0.33032550815780154 28.05937989462432 0 0 -1
188 2 5.5799588136721 3.66328146499409 28.07429590210656 0 0 -1
190 2 8.551927921490263 2.154753935478558 28.11508026718532 0 0 -1
192 2 11.511670626250881 0.6353625199375876 28.16268833915509 0 0 -1
194 2 5.392397321866759 6.985658458835285 28.113972263154913 0 0 -1
196 2 8.365488493117736 5.479189310595933 28.139303450647727 0 0 -1
198 2 11.32777703703221 3.9622617172071233 28.174988627193425 0 0 -1
204 2 8.185137703166504 8.789759693617599 28.172695789256988 0 0 -1
206 2 11.149960654404744 7.277082836059185 28.197643154600136 0 0 -1
296 2 2.240772441322515 11.794020132624496 28.17124435740139 1 0 -1
216 2 8.011300393633242 12.087389085706139 28.19761110290952 0 0 -1
218 2 10.979573531637254 10.578615403263477 28.21293114046258 0 0 -1
298 2 5.212062750159104 10.294496981337181 28.16148690227231 1 0 -1
314 2 5.039268417200282 13.59194910096484 28.198384673219998 1 0 -1
9 1 12.349000536009214 2.342767159206256 29.855675377369604 0 0 -1
13 1 12.173493010715536 5.659109075374924 29.87450411208725 0 0 -1
19 1 12.009667226606012 8.970634185983393 29.892837854182726 0 0 -1
10 1 15.311582383083342 0.8155391078012499 29.87767987743196 0 0 -1
14 1 15.133079839344958 4.134072523770922 29.89045828943943 0 0 -1
15 1 18.093661233917135 2.6031957839226814 29.878973840993297 0 0 -1
16 1 21.0583973883736 1.0776462008362138 29.838568597805512 0 0 -1
20 1 14.966033699574604 7.450108982450197 29.90762809507693 0 0 -1
21 1 17.92018226245834 5.921745509765956 29.898536229738262 0 0 -1
22 1 20.87690193065111 4.395421153828334 29.858846760444816 0 0 -1
29 1 20.707132982042214 7.716243577987044 29.884754430378585 0 0 -1
27 1 14.80986187074819 10.763959528065186 29.910293817575827 0 0 -1
28 1 17.759204812391104 9.240970781351185 29.911678281299597 0 0 -1
36 1 17.605987964409934 12.56130289040794 29.90096163562277 0 0 -1
37 1 20.54899760224191 11.04078954341375 29.896614510255315 0 0 -1
200 2 14.279075533683995 2.4343879322001083 28.201145116777678 0 0 -1
202 2 17.225096504836177 0.9006780878569416 28.202352418738503 0 0 -1
208 2 14.102784403759632 5.754778628429105 28.218082681801466 0 0 -1
210 2 17.04729041680711 4.2255556048220155 28.21639940621022 0 0 -1
212 2 19.992453919746755 2.6971511844821947 28.184998872151613 0 0 -1
220 2 13.935864984885043 9.063494074468279 28.231241477255956 0 0 -1
222 2 16.880190148377025 7.542432022215631 28.233670523058294 0 0 -1
224 2 19.82024484415522 6.020457804955361 28.20768281205206 0 0 -1
234 2 13.775103126193452 12.363047136422244 28.22373573412577 0 0 -1
236 2 16.723593456757317 10.850968667209692 28.235430467769376 0 0 -1
238 2 19.66176930118084 9.33752521545168 28.22513256755262 0 0 -1
254 2 19.512804293284432 12.650262351013437 28.21990031212403 0 0 -1
23 1 23.83950841434524 2.8805353809850165 29.797024561294414 0 0 -1
24 1 26.80795042826581 1.3791750461286096 29.734143423234848 0 0 -1
30 1 23.659685828293227 6.199272816406135 29.83059198166699 0 0 -1
31 1 26.619963990310275 4.695367940593864 29.764453631017773 0 0 -1
32 1 29.586633976088777 3.201823685653741 29.710218249418023 0 0 -1
39 1 26.442081248688385 8.015165257775864 29.812241181986522 0 0 -1
38 1 23.492184664093877 9.522991177916312 29.86491970465537 0 0 -1
46 1 23.334519115149458 12.852131033396098 29.88092885056304 0 0 -1
214 2 22.947936996193476 1.1769245765485834 28.131007850638845 0 0 -1
226 2 22.76705936268316 4.5043297374734115 28.154348253227923 0 0 -1
228 2 25.728867763270596 2.996860415813774 28.08904056786432 0 0 -1
230 2 28.706404122450273 1.4952744435769934 28.03535276947474 0 0 -1
240 2 22.60039627563917 7.827505735486769 28.186443307347748 0 0 -1
242 2 25.550598191925015 6.3244369416426425 28.12722705344318 0 0 -1
244 2 28.517916641231462 4.8268276773050145 28.06713127192441 0 0 -1
256 2 22.448319292627378 11.14648234235061 28.207588982188703 0 0 -1
258 2 25.388059364869687 9.647246862300724 28.170449136475852 0 0 -1
153 1 -13.9634337510881 27.385089382694787 6.811755998220899 1 0 0
315 2 -15.842206621711743 27.44601399359654 1.3631422438603 1 0 0
139 1 -8.764341855358825 17.132938351118856 6.642420254292217 1 0 0
287 2 -9.55361037661956 17.82096974135782 1.5205738858195788 1 0 0
289 2 -6.609881667298517 16.293099397973975 1.5512058785573382 1 0 0
461 2 -7.874805421614407 15.421888215816155 8.300794939436305 1 0 0
462 2 -7.887298019579574 15.441382836267264 4.949420130774694 1 0 0
140 1 -5.9590786106466265 15.33075919161382 6.619968735022624 1 0 0
146 1 -11.378061577401326 22.249700190187113 6.7420363781776915 1 0 0
147 1 -8.590586873655337 20.438517198475004 6.682071985816586 1 0 0
154 1 -11.185940083598187 25.562525439466384 6.777786481157471 1 0 0
155 1 -8.404693426909859 23.747661813785264 6.7192140419437045 1 0 0
162 1 -8.213127965802054 27.06010990677415 6.734319774618089 1 0 0
301 2 -12.691767946355018 22.656211014413994 1.417284928659676 1 0 0
303 2 -9.737679554800838 21.153281932506125 1.4702939821180665 1 0 0
305 2 -6.785414962866388 19.635826932350476 1.5252620834177275 1 0 0
317 2 -12.888032340361438 25.962808401135295 1.3790723969568344 1 0 0
319 2 -9.932322633479245 24.470958017020443 1.4264325555271364 1 0 0
321 2 -6.97338451345419 22.96539422955855 1.4888794725766652 1 0 0
333 2 -7.167442245720622 26.281757922444683 1.4640784522154608 1 0 0
475 2 -10.492400353190114 20.515633012748637 8.379056352917491 1 0 0
476 2 -10.52968522452369 20.56599021903946 5.029275124166024 1 0 0
477 2 -7.698158634850082 18.716613170469053 8.326190175426186 1 0 0
478 2 -7.73364638821379 18.750859566753896 4.975695372451369 1 0 0
489 2 -13.09019310502759 25.660348530184805 8.470567890442101 1 0 0
490 2 -13.115456755430857 25.681957745152083 5.120913940250614 1 0 0
491 2 -10.300561306128357 23.834418106411825 8.422860314029151 1 0 0
492 2 -10.346110656843056 23.867423576648587 5.073512812387281 1 0 0
493 2 -7.512896560804125 22.023103659589637 8.36099679905222 1 0 0
494 2 -7.562497578940135 22.055692502362156 5.011182188337225 1 0 0
505 2 -10.105590045483662 27.163266046964193 8.440867238282948 1 0 0
506 2 -10.154555123325888 27.16447948339801 5.091412518589 1 0 0
507 2 -7.321782039586213 25.34316893964596 8.385778058768448 1 0 0
508 2 -7.37705202038742 25.355771354751585 5.03617792660333 1 0 0
149 1 -2.9922848437545637 16.833577427740757 6.60637467213841 1 0 0
150 1 -0.19191092964968526 15.026888506786142 6.611019359124228 1 0 0
159 1 2.7612156862598507 16.535770800380604 6.6031676106773425 1 0 0
291 2 -3.666514306154931 14.764660470324666 1.5582537574112636 1 0 0
307 2 -3.8337061119156486 18.108417531000917 1.563314501427554 1 0 0
309 2 -0.879842336439161 16.58286208600203 1.5743342052333256 1 0 0
311 2 2.0776174584625906 15.070338983493683 1.5636593888152244 1 0 0
479 2 -4.9024436503358695 16.928651455513997 8.2927816745676 1 0 0
480 2 -4.923369718050105 16.93654471348751 4.941496257342419 1 0 0
481 2 -2.1068648886922325 15.140240023894114 8.288358297213042 1 0 0
482 2 -2.111239746162524 15.119744701921448 4.937022764315227 1 0 0
499 2 0.8463804196515241 16.64434847023702 8.27610208664311 1 0 0
500 2 0.8482364986393094 16.62917467807943 4.924390351486743 1 0 0
501 2 3.6350808792327864 14.837013623780894 8.29152014757147 1 0 0
502 2 3.6388120702951685 14.811053495952164 4.940248543699328 1 0 0
515 2 3.7875848074467324 18.15004227832985 8.282242342626565 1 0 0
516 2 3.8046902877509368 18.152737496098247 4.930725803087322 1 0 0
148 1 -5.794120824239376 18.63488487196776 6.6311918747515595 1 0 0
156 1 -5.617540668433585 21.94237740003421 6.6565070735785925 1 0 0
157 1 -2.82470176154324 20.14376711994578 6.610939473511773 1 0 0
158 1 -0.030202381482027363 18.343960197483806 6.594520421182613 1 0 0
163 1 -5.431313666080749 25.253848465879535 6.676915764747157 1 0 0
164 1 -2.6463176341292396 23.457119615023682 6.627768827834874 1 0 0
165 1 0.14034676337859864 21.662960510154537 6.602624505992367 1 0 0
166 1 2.925610953518806 19.862125319458237 6.60409938054232 1 0 0
169 1 -2.461114849833164 26.773175176434762 6.637290845537072 1 0 0
170 1 0.3207364804052908 24.982943562994564 6.617429738220649 1 0 0
171 1 3.1008971759878605 23.18794953079251 6.622289998730895 1 0 0
323 2 -4.011367376568321 21.44482268256228 1.5445192801990528 1 0 0
325 2 -1.0466158390570115 19.916804256903028 1.575868061633051 1 0 0
327 2 1.920467462400861 18.394732586397826 1.5781583705199074 1 0 0
335 2 -4.199448445558618 24.76870720510437 1.521330354129053 1 0 0
337 2 -1.2256582932072817 23.242654996634396 1.560159384740365 1 0 0
339 2 1.751199756036561 21.71555971668203 1.569365848689105 1 0 0
345 2 -1.41265400062532 26.55919001844009 1.5480386497895378 1 0 0
347 2 1.5692131889881171 25.029870555342388 1.555336852983252 1 0 0
495 2 -4.726341068537463 20.226874322677986 8.306762188359926 1 0 0
496 2 -4.763307863960921 20.24772831446659 4.955989629330392 1 0 0
497 2 -1.9402154919613999 18.438082580486224 8.277174319352117 1 0 0
498 2 -1.9555674873168787 18.4407637660141 4.925492712788479 1 0 0
509 2 -4.543064669081264 23.537834287120777 8.328065462916927 1 0 0
510 2 -4.586849635452303 23.55460759181915 4.977738807275936 1 0 0
511 2 -1.7672790974306967 21.744196368309375 8.287236034114178 1 0 0
512 2 -1.7869257835869448 21.758433870312263 4.935900057010436 1 0 0
513 2 1.0084183988714308 19.951913884451887 8.273555562915908 1 0 0
514 2 1.013507496966822 19.959950973819208 4.921741976814683 1 0 0
519 2 -4.356097830139564 26.86067190140872 8.3380741227442 1 0 0
520 2 -4.3999257312066415 26.858406455362875 4.987632575323264 1 0 0
521 2 -1.5868264007210016 25.062423095824744 8.301260611025077 1 0 0
522 2 -1.6050847819788157 25.070383103191215 4.950155744315902 1 0 0
523 2 1.1802761335486398 23.268672708266614 8.287604903500618 1 0 0
524 2 1.1914261315617107 23.283499045148943 4.9361983630118464 1 0 0
531 2 1.3605134807162091 26.594440028186217 8.298482516310438 1 0 0
532 2 1.3777228049286574 26.5987975666085 4.947139338305996 1 0 0
175 1 3.284268871694607 26.511568944086704 6.636610971939873 1 0 0
525 2 3.9500435671523455 21.46848908320435 8.29685203056139 1 0 0
113 1 11.270806147257984 14.414944717258395 6.620602626607085 0 0 0
160 1 5.547784171972353 14.718878263882223 6.6187152367440545 1 0 0
167 1 5.707930759787873 18.050743163152816 6.619401473616971 1 0 0
168 1 8.488583261802173 16.23237399791342 6.628753589637056 1 0 0
174 1 11.431849732380792 17.745217785329274 6.660814099960711 1 0 0
231 2 10.812676194713905 13.894302560693161 1.5588724062712407 0 0 0
247 2 10.663575705356928 17.207299200115553 1.5271444665360216 0 0 0
329 2 4.887595745974766 16.88726997423718 1.5636326390853776 1 0 0
331 2 7.851777446375406 15.391055201909078 1.5529094262974537 1 0 0
407 2 9.362271470496246 14.514058117511475 8.297442053877626 0 0 0
408 2 9.357825786687277 14.52110923372041 4.945767725445221 0 0 0
423 2 12.301662134600278 16.01247430426158 8.314377712168223 0 0 0
424 2 12.300115740445685 16.051042614408257 4.96286891997713 0 0 0
517 2 6.572616286119224 16.335298324278096 8.295948879619347 1 0 0
518 2 6.58388529444397 16.337858661076933 4.944678861125359 1 0 0
529 2 9.511774891415437 17.833900402114775 8.324537677326543 1 0 0
530 2 9.52803672634227 17.866461970916877 4.973815741597353 1 0 0
249 2 13.622765586981556 15.707587964959094 1.5402421534614523 0 0 0
172 1 5.878361806461637 21.3816830632682 6.643167330642766 1 0 0
173 1 8.654353033939845 19.565204530037658 6.6614018169511375 1 0 0
176 1 6.060153285820306 24.709227230180208 6.670132911806482 1 0 0
177 1 8.833345644533711 22.894644320026796 6.703218000328351 1 0 0
178 1 11.606726440153912 21.07328333839967 6.716513930521855 1 0 0
179 1 9.021347335009372 26.219851298653627 6.731354459757587 1 0 0
180 1 11.793859327418044 24.39791931653494 6.764432735094649 1 0 0
341 2 4.727466692019481 20.200710638540013 1.5541294906468437 1 0 0
343 2 7.698862069171161 18.700860816796304 1.533633391494293 1 0 0
349 2 4.5514499441813605 23.50979838470197 1.5350895186471198 1 0 0
351 2 7.528840361076496 22.006549576783595 1.5030626953270891 1 0 0
353 2 10.498087421418667 20.51506255401319 1.481042576223655 1 0 0
355 2 4.365104132596597 26.81543022444115 1.5257890424061789 1 0 0
357 2 7.344309378530953 25.307776310784842 1.480502638258005 1 0 0
359 2 10.31597190834699 23.81635715943944 1.4401994217421297 1 0 0
361 2 10.125141047319698 27.113748867146015 1.4237145409011158 1 0 0
439 2 12.462678473282587 19.331963954211652 8.368285046126468 0 0 0
440 2 12.47579934197108 19.385488826233388 5.018063401792241 0 0 0
526 2 3.9807943193629303 21.48788562022104 4.945827936918942 1 0 0
527 2 6.7268942751806655 19.65589881787213 8.31538870280836 1 0 0
528 2 6.758442389687696 19.680731729750566 4.96478538386051 1 0 0
533 2 4.125341315439307 24.795006511661832 8.317124165730354 1 0 0
534 2 4.167519450707424 24.81130608896576 4.966479592827977 1 0 0
535 2 6.896064948942742 22.983002247643732 8.346925372723106 1 0 0
536 2 6.9451743881502885 23.01104380605609 4.996930493570096 1 0 0
537 2 9.675705413318086 21.159235870862503 8.36895053894248 1 0 0
538 2 9.71178901507936 21.20051750610375 5.019162352695337 1 0 0
539 2 7.077869538420112 26.315999046926187 8.369142193571486 1 0 0
540 2 7.13815022235325 26.328358115579427 5.019307419735276 1 0 0
541 2 9.854935653950765 24.491734716513236 8.409187463980043 1 0 0
542 2 9.905946324610262 24.51990687168602 5.059808995013492 1 0 0
265 2 13.45984439392726 19.023577849679338 1.4830291916547278 0 0 0
281 2 13.279423840289992 22.330658046299348 1.4245598325467754 0 0 0
363 2 13.088342893308564 25.62990796551994 1.3874238414407827 1 0 0
543 2 12.639668124548145 22.659780406816104 8.425272218802657 1 0 0
544 2 12.6661372386835 22.7059151915025 5.075801989257193 1 0 0
545 2 12.828192021414004 25.9950404768852 8.462131113179643 1 0 0
546 2 12.862671285308352 26.01412296054251 5.112586518801026 1 0 0
121 1 14.214504616160395 15.929275802912702 6.64037447987259 0 0 0
122 1 17.00568219545065 14.12201433753886 6.6146228109249465 0 0 0
130 1 17.16802808868045 17.437402789923155 6.6684228752436 0 0 0
131 1 19.962883968900442 15.630633653480535 6.634377998313134 0 0 0
251 2 16.5771305879497 14.193682671195898 1.5615150189442584 0 0 0
267 2 16.415917867913727 17.522077845126333 1.5065914577173676 0 0 0
269 2 19.365822867627834 16.005817293369013 1.5363627203457182 0 0 0
425 2 15.093631973003639 14.201910112619302 8.29168823232692 0 0 0
426 2 15.085340752096362 14.238503982728279 4.939299063315013 0 0 0
441 2 15.253909060615387 17.511827399366048 8.344738755064752 0 0 0
442 2 15.24846402212595 17.5697628553294 4.993755717215638 0 0 0
443 2 18.048577269706108 15.7061745996321 8.312767097406704 0 0 0
444 2 18.038087815118168 15.755364649854545 4.961084286360649 0 0 0
445 2 20.846883177401914 13.915186624520244 8.292068390956427 0 0 0
446 2 20.84545108217973 13.942721993075455 4.939901687698512 0 0 0
459 2 21.01827037748572 17.210552718364426 8.32872000074122 0 0 0
460 2 20.996030016107802 17.257366110296662 4.977876757543555 0 0 0
132 1 22.767287092899767 13.829597141083092 6.618935945536027 0 0 0
271 2 22.309332511424394 14.47697605787305 1.554756591190265 0 0 0
129 1 14.383664952103786 19.252360259697017 6.702068335576985 0 0 0
137 1 17.345522151728787 20.752962304058375 6.734508035531402 0 0 0
138 1 20.131788947079283 18.93915161161344 6.686711660393845 0 0 0
145 1 17.535284888625945 24.06889591247705 6.789061195696416 0 0 0
181 1 14.567502569737327 22.573759229723308 6.765166176602429 1 0 0
182 1 14.759910445957448 25.893489817419557 6.805482220918441 1 0 0
283 2 16.23738096123833 20.840156337340765 1.43986186605674 0 0 0
285 2 19.191136844921488 19.337854770847546 1.4776173073410528 0 0 0
299 2 16.045974549344667 24.146632205062062 1.3855684618674413 0 0 0
455 2 15.429139122753313 20.830349737101972 8.410059419450178 0 0 0
456 2 15.42866891388681 20.890103911412805 5.0602727456952294 0 0 0
457 2 18.221826455562724 19.012439617411147 8.371724775052884 0 0 0
458 2 18.203183522685514 19.07361171137966 5.021454656697164 0 0 0
471 2 15.617393588014753 24.159588779097515 8.464102201378763 0 0 0
472 2 15.621205967750166 24.198104948716605 5.114476456451717 0 0 0
473 2 18.408379237564564 22.330766272169225 8.43191649081382 0 0 0
474 2 18.385516820013123 22.382039119820366 5.082417329734222 0 0 0
54 1 -8.515299774158443 16.18475891583302 29.86783520283388 1 0 -1
61 1 -11.635082920239935 21.02348802737927 29.775781888872757 1 0 -1
62 1 -8.681609012540378 19.51696142929403 29.829238955863133 1 0 -1
68 1 -14.790007129009924 25.84144600088384 29.69158092338563 1 0 -1
69 1 -11.822957244655337 24.34694488387803 29.725285895158184 1 0 -1
70 1 -8.86145707272263 22.84572299457172 29.78307402929505 1 0 -1
76 1 -9.05031777367741 26.17041249638934 29.752463087448408 1 0 -1
77 1 -6.0887409121234946 24.66304393979772 29.814606601748807 1 0 -1
288 2 -9.540335885600367 17.78305522447473 28.169846097719375 1 0 -1
290 2 -6.599810518374657 16.284997789439483 28.199979129468716 1 0 -1
302 2 -12.672553748270305 22.607821457115502 28.067779280741114 1 0 -1
304 2 -9.705664079985823 21.108167112058958 28.120557188673974 1 0 -1
306 2 -6.754204397080674 19.606552718343615 28.17483145648438 1 0 -1
318 2 -12.862286322901308 25.942698425185963 28.02941629723375 1 0 -1
320 2 -9.886167569498792 24.440778932359667 28.077089408761406 1 0 -1
322 2 -6.923984851594044 22.934573399611754 28.139077937935244 1 0 -1
334 2 -7.106598158598796 26.26841636902044 28.114437043695364 1 0 -1
55 1 -5.575133192204204 14.670834212996205 29.87995031625883 1 0 -1
63 1 -5.735233301478318 18.00372407774856 29.87332531188465 1 0 -1
64 1 -2.790171211026758 16.488776494316173 29.893595981774503 1 0 -1
65 1 0.1603989165831443 14.978976227022564 29.88860828145682 1 0 -1
74 1 2.9586917769078056 16.787248154147658 29.897116370003435 1 0 -1
71 1 -5.9061899173505426 21.33525906557192 29.8447453758679 1 0 -1
72 1 -2.9544818734279765 19.817253472450567 29.88943952160989 1 0 -1
73 1 -0.000963211944128517 18.298869937612523 29.90547503497885 1 0 -1
78 1 -3.1299922817615347 23.14455931688039 29.868673527075853 1 0 -1
79 1 -0.17104509921207445 21.620314375680444 29.89710866209649 1 0 -1
80 1 2.791877110844048 20.099662137962223 29.89588253058124 1 0 -1
82 1 -3.3138077527318366 26.46899481603029 29.852675952323473 1 0 -1
83 1 -0.3511279386937929 24.94195755282209 29.881538791882587 1 0 -1
84 1 2.6144502230851323 23.41481621927873 29.880601568844316 1 0 -1
87 1 2.4300462595727943 26.732055565648427 29.871046891326827 1 0 -1
292 2 -3.663105101436101 14.78728547803971 28.206975977299216 1 0 -1
308 2 -3.8140738299956682 18.102432239153043 28.211967689355475 1 0 -1
310 2 -0.874668485131366 16.59793613563524 28.222659659378834 1 0 -1
312 2 2.0751833998980693 15.094742740666085 28.212335872891504 1 0 -1
324 2 -3.9758501805820554 21.42276249606247 28.193752112057567 1 0 -1
326 2 -1.034723078890714 19.907897658096736 28.224147036858884 1 0 -1
328 2 1.9108447011242635 18.394586485075063 28.226347625800372 1 0 -1
336 2 -4.151203082355822 24.75068109003432 28.170952334844 1 0 -1
338 2 -1.205436677162739 23.226450878364364 28.20887618841721 1 0 -1
340 2 1.7400236980366053 21.702141288475648 28.217847555616856 1 0 -1
346 2 -1.3854046257341697 26.55333743972581 28.196851608129528 1 0 -1
348 2 1.5609822279645993 25.0212328789531 28.20407118737475 1 0 -1
25 1 8.891030587773287 13.78301023990675 29.87972141579921 0 0 -1
33 1 8.729773374844125 17.085795135075625 29.863590983681682 0 0 -1
34 1 11.696844418991251 15.584028468441707 29.867451825479343 0 0 -1
75 1 5.924097213877586 15.283609143870057 29.882387653667617 1 0 -1
42 1 11.52841195985888 18.890826006532617 29.820305542087116 0 0 -1
50 1 11.345925137756884 22.200077596937614 29.76895049376204 0 0 -1
81 1 5.759781412503493 18.58872220832502 29.877665540657592 1 0 -1
85 1 5.584375133242844 21.897119051760928 29.85677038512779 1 0 -1
86 1 8.557001998703315 20.39091095265363 29.830022905122124 1 0 -1
88 1 5.399314804761062 25.20935663746678 29.838301145944797 1 0 -1
89 1 8.372228365783318 23.69980325781172 29.796663028491757 1 0 -1
90 1 8.181570007940579 27.01225284762739 29.78293879399185 1 0 -1
91 1 11.154395924960449 25.512096179633826 29.735400512394012 1 0 -1
232 2 10.812191004100724 13.87183495808221 28.206838899272647 0 0 -1
248 2 10.639894297739742 17.165629115826217 28.17630094825297 0 0 -1
330 2 4.869352603905252 16.885157051951563 28.212228742270415 1 0 -1
332 2 7.839766060381963 15.378412626789903 28.20155866541357 1 0 -1
250 2 13.611570502683234 15.66063729642101 28.188592586553266 0 0 -1
342 2 4.695265244014932 20.183774343309224 28.203105806997463 1 0 -1
344 2 7.66389880190348 18.672441343253627 28.18298272353785 1 0 -1
350 2 4.513975932606577 23.49469059632435 28.184490869790313 1 0 -1
352 2 7.4800830824308875 21.977788534144437 28.153066476865853 1 0 -1
354 2 10.457519401999285 20.46882316758827 28.131199725826832 1 0 -1
356 2 4.32848964304184 26.81734194984332 28.175082798118087 1 0 -1
358 2 7.290470593956401 25.296764945498577 28.130722242852453 1 0 -1
360 2 10.266263027988819 23.7858222263705 28.09082019572471 1 0 -1
362 2 10.072070746068304 27.113386276666077 28.07424935138485 1 0 -1
266 2 13.436924916475709 18.964596839414153 28.13278456939559 0 0 -1
282 2 13.24964046492816 22.2809270659422 28.07508834011398 0 0 -1
364 2 13.054860123805001 25.60904821296547 28.037879605640388 1 0 -1
35 1 14.65618832316567 14.076752976902561 29.885492829888328 0 0 -1
43 1 14.493855284913694 17.389621690750804 29.83374047772774 0 0 -1
44 1 17.44952389955815 15.882444263225192 29.859768117925295 0 0 -1
45 1 20.394956095506352 14.368548146764569 29.880421578731443 0 0 -1
53 1 20.233609037340393 17.697029971236777 29.835380397483714 0 0 -1
51 1 14.316528863260656 20.703124035630474 29.769580429041262 0 0 -1
52 1 17.280065472782734 19.20319269837375 29.796596711828567 0 0 -1
59 1 14.126922515534655 24.017659016701415 29.716373485268022 0 0 -1
60 1 17.095829897925405 22.522840483365265 29.73246972477391 0 0 -1
67 1 13.93261354677347 27.33300801351859 29.694330698055847 0 0 -1
316 2 15.84587155148793 27.44264315260525 28.013222852470726 0 0 -1
252 2 16.569613026605943 14.155621328325042 28.20909442725633 0 0 -1
268 2 16.40725474506032 17.46312828074683 28.155602157640367 0 0 -1
270 2 19.362250089144325 15.963013184036384 28.18477874352526 0 0 -1
272 2 22.303299682525548 14.463803542020099 28.202929500299057 0 0 -1
284 2 16.230255731059163 20.77969797421188 28.09007805042077 0 0 -1
286 2 19.1992779382261 19.280946716050174 28.12735512317452 0 0 -1
300 2 16.040777281594256 24.10764940336773 28.035945506655672 0 0 -1

Velocities

120 0 0 0
126 0 0 0
127 0 0 0
135 0 0 0
245 0 0 0
259 0 0 0
261 0 0 0
435 0 0 0
436 0 0 0
437 0 0 0
438 0 0 0
451 0 0 0
452 0 0 0
453 0 0 0
454 0 0 0
273 0 0 0
133 0 0 0
134 0 0 0
141 0 0 0
142 0 0 0
275 0 0 0
277 0 0 0
293 0 0 0
449 0 0 0
450 0 0 0
463 0 0 0
464 0 0 0
465 0 0 0
466 0 0 0
467 0 0 0
468 0 0 0
483 0 0 0
484 0 0 0
128 0 0 0
136 0 0 0
183 0 0 0
263 0 0 0
279 0 0 0
365 0 0 0
366 0 0 0
367 0 0 0
368 0 0 0
92 0 0 0
93 0 0 0
94 0 0 0
95 0 0 0
96 0 0 0
97 0 0 0
101 0 0 0
144 0 0 0
185 0 0 0
187 0 0 0
189 0 0 0
191 0 0 0
193 0 0 0
195 0 0 0
197 0 0 0
203 0 0 0
205 0 0 0
369 0 0 0
370 0 0 0
371 0 0 0
372 0 0 0
373 0 0 0
374 0 0 0
375 0 0 0
376 0 0 0
377 0 0 0
378 0 0 0
383 0 0 0
384 0 0 0
385 0 0 0
386 0 0 0
469 0 0 0
470 0 0 0
143 0 0 0
151 0 0 0
295 0 0 0
100 0 0 0
106 0 0 0
152 0 0 0
161 0 0 0
215 0 0 0
217 0 0 0
297 0 0 0
313 0 0 0
381 0 0 0
382 0 0 0
393 0 0 0
394 0 0 0
485 0 0 0
486 0 0 0
503 0 0 0
504 0 0 0
98 0 0 0
99 0 0 0
102 0 0 0
103 0 0 0
104 0 0 0
108 0 0 0
109 0 0 0
116 0 0 0
199 0 0 0
201 0 0 0
207 0 0 0
209 0 0 0
211 0 0 0
219 0 0 0
221 0 0 0
223 0 0 0
379 0 0 0
380 0 0 0
387 0 0 0
388 0 0 0
389 0 0 0
390 0 0 0
391 0 0 0
392 0 0 0
397 0 0 0
398 0 0 0
399 0 0 0
400 0 0 0
401 0 0 0
402 0 0 0
413 0 0 0
414 0 0 0
415 0 0 0
416 0 0 0
395 0 0 0
396 0 0 0
409 0 0 0
410 0 0 0
107 0 0 0
114 0 0 0
115 0 0 0
123 0 0 0
233 0 0 0
235 0 0 0
237 0 0 0
253 0 0 0
411 0 0 0
412 0 0 0
427 0 0 0
428 0 0 0
429 0 0 0
430 0 0 0
487 0 0 0
488 0 0 0
105 0 0 0
110 0 0 0
111 0 0 0
112 0 0 0
117 0 0 0
118 0 0 0
119 0 0 0
125 0 0 0
213 0 0 0
225 0 0 0
227 0 0 0
229 0 0 0
239 0 0 0
241 0 0 0
243 0 0 0
403 0 0 0
404 0 0 0
405 0 0 0
406 0 0 0
417 0 0 0
418 0 0 0
419 0 0 0
420 0 0 0
421 0 0 0
422 0 0 0
431 0 0 0
432 0 0 0
433 0 0 0
434 0 0 0
124 0 0 0
255 0 0 0
257 0 0 0
447 0 0 0
448 0 0 0
1 0 0 0
40 0 0 0
41 0 0 0
49 0 0 0
47 0 0 0
48 0 0 0
56 0 0 0
57 0 0 0
246 0 0 0
260 0 0 0
262 0 0 0
274 0 0 0
276 0 0 0
278 0 0 0
294 0 0 0
2 0 0 0
3 0 0 0
4 0 0 0
5 0 0 0
6 0 0 0
7 0 0 0
8 0 0 0
11 0 0 0
12 0 0 0
66 0 0 0
17 0 0 0
18 0 0 0
26 0 0 0
58 0 0 0
184 0 0 0
264 0 0 0
280 0 0 0
186 0 0 0
188 0 0 0
190 0 0 0
192 0 0 0
194 0 0 0
196 0 0 0
198 0 0 0
204 0 0 0
206 0 0 0
296 0 0 0
216 0 0 0
218 0 0 0
298 0 0 0
314 0 0 0
9 0 0 0
13 0 0 0
19 0 0 0
10 0 0 0
14 0 0 0
15 0 0 0
16 0 0 0
20 0 0 0
21 0 0 0
22 0 0 0
29 0 0 0
27 0 0 0
28 0 0 0
36 0 0 0
37 0 0 0
200 0 0 0
202 0 0 0
208 0 0 0
210 0 0 0
212 0 0 0
220 0 0 0
222 0 0 0
224 0 0 0
234 0 0 0
236 0 0 0
238 0 0 0
254 0 0 0
23 0 0 0
24 0 0 0
30 0 0 0
31 0 0 0
32 0 0 0
39 0 0 0
38 0 0 0
46 0 0 0
214 0 0 0
226 0 0 0
228 0 0 0
230 0 0 0
240 0 0 0
242 0 0 0
244 0 0 0
256 0 0 0
258 0 0 0
153 0 0 0
315 0 0 0
139 0 0 0
287 0 0 0
289 0 0 0
461 0 0 0
462 0 0 0
140 0 0 0
146 0 0 0
147 0 0 0
154 0 0 0
155 0 0 0
162 0 0 0
301 0 0 0
303 0 0 0
305 0 0 0
317 0 0 0
319 0 0 0
321 0 0 0
333 0 0 0
475 0 0 0
476 0 0 0
477 0 0 0
478 0 0 0
489 0 0 0
490 0 0 0
491 0 0 0
492 0 0 0
493 0 0 0
494 0 0 0
505 0 0 0
506 0 0 0
507 0 0 0
508 0 0 0
149 0 0 0
150 0 0 0
159 0 0 0
291 0 0 0
307 0 0 0
309 0 0 0
311 0 0 0
479 0 0 0
480 0 0 0
481 0 0 0
482 0 0 0
499 0 0 0
500 0 0 0
501 0 0 0
502 0 0 0
515 0 0 0
516 0 0 0
148 0 0 0
156 0 0 0
157 0 0 0
158 0 0 0
163 0 0 0
164 0 0 0
165 0 0 0
166 0 0 0
169 0 0 0
170 0 0 0
171 0 0 0
323 0 0 0
325 0 0 0
327 0 0 0
335 0 0 0
337 0 0 0
339 0 0 0
345 0 0 0
347 0 0 0
495 0 0 0
496 0 0 0
497 0 0 0
498 0 0 0
509 0 0 0
510 0 0 0
511 0 0 0
512 0 0 0
513 0 0 0
514 0 0 0
519 0 0 0
520 0 0 0
521 0 0 0
522 0 0 0
523 0 0 0
524 0 0 0
531 0 0 0
532 0 0 0
175 0 0 0
525 0 0 0
113 0 0 0
160 0 0 0
167 0 0 0
168 0 0 0
174 0 0 0
231 0 0 0
247 0 0 0
329 0 0 0
331 0 0 0
407 0 0 0
408 0 0 0
423 0 0 0
424 0 0 0
517 0 0 0
518 0 0 0
529 0 0 0
530 0 0 0
249 0 0 0
172 0 0 0
173 0 0 0
176 0 0 0
177 0 0 0
178 0 0 0
179 0 0 0
180 0 0 0
341 0 0 0
343 0 0 0
349 0 0 0
351 0 0 0
353 0 0 0
355 0 0 0
357 0 0 0
359 0 0 0
361 0 0 0
439 0 0 0
440 0 0 0
526 0 0 0
527 0 0 0
528 0 0 0
533 0 0 0
534 0 0 0
535 0 0 0
536 0 0 0
537 0 0 0
538 0 0 0
539 0 0 0
540 0 0 0
541 0 0 0
542 0 0 0
265 0 0 0
281 0 0 0
363 0 0 0
543 0 0 0
544 0 0 0
545 0 0 0
546 0 0 0
121 0 0 0
122 0 0 0
130 0 0 0
131 0 0 0
251 0 0 0
267 0 0 0
269 0 0 0
425 0 0 0
426 0 0 0
441 0 0 0
442 0 0 0
443 0 0 0
444 0 0 0
445 0 0 0
446 0 0 0
459 0 0 0
460 0 0 0
132 0 0 0
271 0 0 0
129 0 0 0
137 0 0 0
138 0 0 0
145 0 0 0
181 0 0 0
182 0 0 0
283 0 0 0
285 0 0 0
299 0 0 0
455 0 0 0
456 0 0 0
457 0 0 0
458 0 0 0
471 0 0 0
472 0 0 0
473 0 0 0
474 0 0 0
54 0 0 0
61 0 0 0
62 0 0 0
68 0 0 0
69 0 0 0
70 0 0 0
76 0 0 0
77 0 0 0
288 0 0 0
290 0 0 0
302 0 0 0
304 0 0 0
306 0 0 0
318 0 0 0
320 0 0 0
322 0 0 0
334 0 0 0
55 0 0 0
63 0 0 0
64 0 0 0
65 0 0 0
74 0 0 0
71 0 0 0
72 0 0 0
73 0 0 0
78 0 0 0
79 0 0 0
80 0 0 0
82 0 0 0
83 0 0 0
84 0 0 0
87 0 0 0
292 0 0 0
308 0 0 0
310 0 0 0
312 0 0 0
324 0 0 0
326 0 0 0
328 0 0 0
336 0 0 0
338 0 0 0
340 0 0 0
346 0 0 0
348 0 0 0
25 0 0 0
33 0 0 0
34 0 0 0
75 0 0 0
42 0 0 0
50 0 0 0
81 0 0 0
85 0 0 0
86 0 0 0
88 0 0 0
89 0 0 0
90 0 0 0
91 0 0 0
232 0 0 0
248 0 0 0
330 0 0 0
332 0 0 0
250 0 0 0
342 0 0 0
344 0 0 0
350 0 0 0
352 0 0 0
354 0 0 0
356 0 0 0
358 0 0 0
360 0 0 0
362 0 0 0
266 0 0 0
282 0 0 0
364 0 0 0
35 0 0 0
43 0 0 0
44 0 0 0
45 0 0 0
53 0 0 0
51 0 0 0
52 0 0 0
59 0 0 0
60 0 0 0
67 0 0 0
316 0 0 0
252 0 0 0
268 0 0 0
270 0 0 0
272 0 0 0
284 0 0 0
286 0 0 0
300 0 0 0
