LAMMPS data file via write_data, version 28 Mar 2023, timestep = 56, units = metal

42 atoms
2 atom types

0 8.790084003262635 xlo xhi
0 7.612436048224658 ylo yhi
0 30 zlo zhi
-4.395042001631316 0 0 xy xz yz

Masses

1 95.95
2 78.971

Atoms # atomic

8 1 4.965306243677541 0.796823232172842 6.695469233479747 0 0 0
9 1 5.587669927174719 4.0577830333242275 6.695472975044736 0 0 0
10 1 -0.687062728182283 1.8859105017683238 6.69699967653096 1 0 0
11 1 -2.5683230092307356 7.316854198130927 6.697004530667673 1 0 0
12 1 -0.05991349652187772 5.1444503078526855 6.690326098975937 1 0 0
13 1 2.4524159982610536 2.9662907781118593 6.695468043677742 1 0 0
14 1 3.0756530271318883 6.23059105890409 6.696993849493324 1 0 0
15 2 2.4499353978881793 2.2495381797536984 1.4827289414432558 0 0 0
17 2 5.586853377650183 1.151544911462203 1.4827486857351266 0 0 0
19 2 4.969291880824876 4.417177921895271 1.4827369028243091 0 0 0
21 2 -0.69326539321762 3.3288007371003854 1.4837835509015416 1 0 0
23 2 8.730408680334492 0.06859265655664541 1.468922035406202 0 1 0
25 2 -1.314503928408425 6.599633803005884 1.4837862273343079 1 0 0
27 2 1.828716805230317 5.502245235744141 1.483796606255504 1 0 0
30 2 3.08364225656262 1.1524157645947264 5.017263864313685 0 0 0
32 2 3.7012110008029 4.4180631027603 5.017254980452111 0 0 0
34 2 6.2205462300735 2.2504178345486956 5.017252675352281 0 0 0
36 2 8.73017303257354 0.06950652753608301 5.031078490993616 0 1 0
38 2 -1.9483302113707548 5.503126845315714 5.016214586907478 1 0 0
40 2 0.5736699910507692 3.329710843028766 5.016204401432209 1 0 0
42 2 1.1949191801933257 6.6005128363991545 5.016199412521007 1 0 0
29 2 3.081322705696061 1.1555065532399167 8.371024482280223 0 0 0
31 2 3.7050308374922336 4.418525085166647 8.371018128639673 0 0 0
33 2 6.219037913426266 2.246866355418051 8.371019183871482 0 0 0
35 2 8.730168783978092 0.06949407834722532 8.370672458648095 0 1 0
37 2 -1.9418769526984023 5.5043931000897315 8.369444909861741 1 0 0
39 2 0.5693497672162005 3.334654916008221 8.369444128433898 1 0 0
41 2 1.192795913747061 6.594297471435284 8.369439220816744 1 0 0
1 1 0.5674693539834057 1.8850025106859774 29.80299907405394 0 0 -1
2 1 3.7051896782709584 0.7959445233019024 29.804533231254556 0 0 -1
3 1 3.082816389136555 4.0569059341608025 29.804533640542175 0 0 -1
4 1 6.218073065482753 2.9654010597655174 29.804528890025946 0 0 -1
5 1 2.4487279469309247 7.315967981919568 29.803009458098913 0 0 -1
6 1 -3.1952376918430594 6.2297064844606265 29.803000101812284 1 0 -1
7 1 -0.05968399037985517 5.1435575494261885 29.809675750884725 1 0 -1
16 2 2.4514541514437322 2.2459841708842565 28.1289815723682 0 0 -1
18 2 5.589168402171589 1.1546176007715863 28.128980878363798 0 0 -1
20 2 4.965459556616981 4.4176452627146885 28.128984402306877 0 0 -1
22 2 -0.6889410036278214 3.333752301006415 28.13055963256942 1 0 -1
24 2 8.730400730348476 0.06859688468189218 28.12932199564213 0 1 -1
26 2 -1.3123794231821164 6.593417295183641 28.1305582659079 1 0 -1
28 2 1.8222790733454564 5.503511807794468 28.130564823873975 1 0 -1

Velocities

8 0 0 0
9 0 0 0
10 0 0 0
11 0 0 0
12 0 0 0
13 0 0 0
14 0 0 0
15 0 0 0
17 0 0 0
19 0 0 0
21 0 0 0
23 0 0 0
25 0 0 0
27 0 0 0
30 0 0 0
32 0 0 0
34 0 0 0
36 0 0 0
38 0 0 0
40 0 0 0
42 0 0 0
29 0 0 0
31 0 0 0
33 0 0 0
35 0 0 0
37 0 0 0
39 0 0 0
41 0 0 0
1 0 0 0
2 0 0 0
3 0 0 0
4 0 0 0
5 0 0 0
6 0 0 0
7 0 0 0
16 0 0 0
18 0 0 0
20 0 0 0
22 0 0 0
24 0 0 0
26 0 0 0
28 0 0 0
