LAMMPS data file via write_data, version 28 Mar 2023, timestep = 78, units = metal

546 atoms
3 atom types

0 31.695649594532846 xlo xhi
0 27.449237738315386 ylo yhi
0 30 zlo zhi
-15.84782479726642 0 0 xy xz yz

Masses

1 95.95
2 183.84
3 78.971

Atoms # atomic

120 3 -0.8943404356175109 1.7638903963912145 6.811810686721868 1 0 0
126 3 -3.491791777856869 6.9037652216692456 6.734786950912499 1 0 0
127 3 -0.7068569292650579 5.081103510416643 6.781189969983639 1 0 0
133 3 -6.119982300022439 12.025827006914955 6.648577028128406 1 0 0
134 3 -3.319136398713709 10.21570889604793 6.684909788448439 1 0 0
135 3 -0.5266984762191607 8.396888392600715 6.727832053291782 1 0 0
141 3 -3.154788516627338 13.525326829975148 6.643056654335521 1 0 0
142 3 -0.35627116495080013 11.7119631472825 6.670064817343409 1 0 0
245 2 -0.18775351554089093 3.298254051824152 1.3621694575629424 1 0 0
259 2 -3.3252929837394603 8.095725466139724 1.455421537438462 1 0 0
261 2 -0.3741960608005406 6.60352099598749 1.4103211333864523 1 0 0
273 2 -6.443972230202395 12.946559592807892 1.5383510077942781 1 0 0
275 2 -3.4999051079315264 11.424470737551312 1.511093980731932 1 0 0
277 2 -0.5516077360058178 9.919830166331323 1.474476342008174 1 0 0
293 2 -0.7183223406353934 13.248178090337921 1.5319021771844774 1 0 0
435 2 -2.6368265259355264 5.211724411319309 8.449269753793958 1 0 0
436 2 -2.6070509583443284 5.1740135813734645 5.081470362973555 1 0 0
437 2 0.15665931639670405 3.3822106136202077 8.484185833394728 1 0 0
438 2 0.16064848923969555 3.352685032589873 5.116334229416806 1 0 0
449 2 -5.24900813174677 10.337457418363686 8.354519582433081 1 0 0
450 2 -5.224538527118099 10.308361938891776 4.985456916374837 1 0 0
451 2 -2.452922369447678 8.531474268578007 8.400434770803113 1 0 0
452 2 -2.431600118039699 8.484336376660865 5.03238324955048 1 0 0
453 2 0.34268545611617185 6.710282241585918 8.440505889352753 1 0 0
454 2 0.3453316161826172 6.659222049979659 5.072867578693114 1 0 0
463 2 -5.075058165316561 13.635556153309059 8.325586665553002 1 0 0
464 2 -5.073204299535652 13.62270398560291 4.956175440443418 1 0 0
465 2 -2.277141185510814 11.839892629264517 8.349399071484264 1 0 0
466 2 -2.268172987245607 11.800175614108278 4.980792747585304 1 0 0
467 2 0.5194154447519326 10.029220574433738 8.382855703348154 1 0 0
468 2 0.5210734757386026 9.974520518910426 5.014797470431555 1 0 0
483 2 0.6854891746088008 13.339385051309984 8.331235384051086 1 0 0
484 2 0.6866304709828874 13.299506615565178 4.962397429681219 1 0 0
92 3 4.853641687552931 1.433480986353911 6.784970983366474 0 0 0
93 3 5.040791460530148 4.750205042764891 6.756025046628212 0 0 0
94 3 7.821838157539178 2.9333268828698724 6.729559679785714 0 0 0
95 3 10.603123493231822 1.1262303092142707 6.689509539616102 0 0 0
96 3 8.00237050547773 6.251888007814235 6.695992852929066 0 0 0
97 3 10.784956562992427 4.44405335865824 6.669129936738853 0 0 0
100 3 8.17214425881766 9.574716405527491 6.659674271363754 0 0 0
101 3 10.956594882393698 7.764763124524847 6.642108650406799 0 0 0
106 3 11.117778723200075 11.08922136455258 6.627024246792447 0 0 0
128 3 2.073981186130453 3.2560279616206347 6.799906815127825 1 0 0
136 3 2.2587560980947115 6.573110973686855 6.755940711540885 1 0 0
143 3 2.434338723860635 9.891567355022987 6.698216980044571 1 0 0
144 3 5.219457343526845 8.069390986279062 6.708812980673872 1 0 0
151 3 2.600050865605831 13.212831622299971 6.647318566858286 1 0 0
152 3 5.387572260685964 11.39289886596644 6.662445516321664 1 0 0
161 3 8.332809466482644 12.902524999565674 6.638902882374731 1 0 0
183 2 2.7642675257517944 1.8168494881960473 1.3597356461583847 0 0 0
185 2 5.718497795306243 0.33076813502999447 1.393027581418553 0 0 0
187 2 5.52984000422194 3.6361624796277967 1.4082880931106934 0 0 0
189 2 8.489161495884058 2.143180345460864 1.4503777278485595 0 0 0
191 2 11.457706888285621 0.6350974809969673 1.5000671264884073 0 0 0
193 2 5.352180936453903 6.9444863523364235 1.4493090168984848 0 0 0
195 2 8.310158800195207 5.452850945849296 1.4756401290957541 0 0 0
197 2 11.27619034373559 3.94683537763387 1.512916634975744 0 0 0
203 2 8.146349685260562 8.764999736642418 1.5106054479544055 0 0 0
205 2 11.108977632384594 7.261095900238905 1.5367124457982122 0 0 0
215 2 7.996788440841627 12.078668743667226 1.5369498384005813 0 0 0
217 2 10.956978865139556 10.578009713459464 1.5529781014222293 0 0 0
263 2 2.5767705769638427 5.120240319827244 1.392342001784835 1 0 0
279 2 2.399225610933354 8.429868456027648 1.4488320524833433 1 0 0
295 2 2.2341989217010747 11.747136997366807 1.5092707754778791 1 0 0
297 2 5.188897427853285 10.256705948988929 1.4988972103695617 1 0 0
313 2 5.037619802942486 13.572025090054755 1.5379570407928886 1 0 0
365 2 2.949876016885724 1.549078106035846 8.486397624080377 0 0 0
366 2 2.9253157165902848 1.5348363855633707 5.118497175187202 0 0 0
367 2 3.1375547873588374 4.880472210013816 8.456526827138472 0 0 0
368 2 3.1142510941860704 4.837921788604806 5.088793921221859 0 0 0
369 2 5.928621517750301 3.0508580349015864 8.442427621723857 0 0 0
370 2 5.884225785246178 3.022403597032238 5.074477199570725 0 0 0
371 2 8.712650765979971 1.228514171727907 8.40545213092524 0 0 0
372 2 8.661369824940305 1.214295927057874 5.037095708586254 0 0 0
373 2 6.107828059316661 6.378533626665156 8.404988069363686 0 0 0
374 2 6.070013286062943 6.332564545270731 5.03660058526834 0 0 0
375 2 8.893927971530108 4.556231654805527 8.38240861317529 0 0 0
376 2 8.847605013912984 4.522825703078481 5.013270179849104 0 0 0
377 2 11.67148375101215 2.7445954297512856 8.351255653784051 0 0 0
378 2 11.63386562404478 2.723945472719883 4.981553917886267 0 0 0
381 2 6.273117679668329 9.701082998797336 8.36069328820441 0 0 0
382 2 6.24801365698704 9.656638067263334 4.991755814410145 0 0 0
383 2 9.062386207740786 7.879706692687108 8.349337621154564 0 0 0
384 2 9.02611339513667 7.84406518156715 4.97948419229899 0 0 0
385 2 11.8443812657073 6.068281499833811 8.328303728891848 0 0 0
386 2 11.812532785305912 6.041524160875986 4.957595888045383 0 0 0
393 2 9.217285103853616 11.198964998720069 8.324762340968617 0 0 0
394 2 9.195691808236983 11.179123131167598 4.954439355236926 0 0 0
469 2 3.3150632839978504 8.20589965725796 8.405706093762616 1 0 0
470 2 3.297319834413371 8.150596128307496 5.037728484390787 1 0 0
485 2 3.479643907220761 11.524354562361326 8.35282071292222 1 0 0
486 2 3.471572510818123 11.476440536555666 4.984204640145327 1 0 0
503 2 6.426041586708442 13.019487062101348 8.328483443974395 1 0 0
504 2 6.418078680186755 12.99433728864116 4.959027340713476 1 0 0
430 2 20.702316170658168 10.622624853532317 4.936303691613917 0 0 0
429 2 20.68344610607926 10.619365258849509 8.307708949056627 0 0 0
98 3 13.567894566710926 2.6469561021017722 6.644711675977882 0 0 0
99 3 16.350468989059344 0.8560619688445278 6.637088042735203 0 0 0
102 3 13.74224811704299 5.965734745593407 6.625084778649823 0 0 0
103 3 16.528413994922378 4.174594708551758 6.6247975972936635 0 0 0
104 3 19.312855196668497 2.382815141670956 6.648979421985139 0 0 0
107 3 13.905569559544885 9.285751657147486 6.6110882850306645 0 0 0
108 3 16.69630478388356 7.491464502463661 6.608869997271156 0 0 0
109 3 19.487371820164885 5.699453596885539 6.632361115916019 0 0 0
114 3 14.061757170337199 12.607437711979689 6.61926530009825 0 0 0
115 3 16.854629596777162 10.807122185404138 6.607235604708052 0 0 0
116 3 19.651664168594557 9.012222730353729 6.617714119723665 0 0 0
123 3 19.809034546043215 12.322014415412983 6.621276750269171 0 0 0
199 2 14.250723259062172 2.424758936214197 1.5405856125780981 0 0 0
201 2 17.231587444506246 0.8941665082432504 1.5419872115280626 0 0 0
207 2 14.077742883956574 5.740537504505852 1.5583348257175145 0 0 0
209 2 17.05162264025998 4.208246300640284 1.5566754658136206 0 0 0
211 2 20.028355974157076 2.6780054849368042 1.5235506439999957 0 0 0
219 2 13.91957793209336 9.061838232130631 1.572232605291863 0 0 0
221 2 16.884356291402213 7.530939536334821 1.5748241204202766 0 0 0
223 2 19.85076135397592 5.996102045852697 1.5473067315212767 0 0 0
233 2 13.771983757908332 12.386270353534423 1.5643374788741933 0 0 0
235 2 16.72928119988705 10.861748477568065 1.5766802766292398 0 0 0
237 2 19.68504180878805 9.32688443919629 1.5657777135807325 0 0 0
253 2 19.52711003445542 12.666934331768207 1.560317443509068 0 0 0
379 2 14.441623606022473 0.9435076471858697 8.327853712715058 0 0 0
380 2 14.427694138667263 0.9356202194469678 4.957945486596419 0 0 0
387 2 14.61891778994651 4.268306763025802 8.314100843439702 0 0 0
388 2 14.60778624820172 4.249741299649056 4.943034048536363 0 0 0
389 2 17.388293221753372 2.474136081915605 8.319739748968397 0 0 0
390 2 17.406787663902165 2.4644277145170466 4.949232021522299 0 0 0
391 2 20.15635092786843 0.6758029887087724 8.348035184925772 0 0 0
392 2 20.201206302481687 0.6759939525211441 4.978810377078087 0 0 0
395 2 12.004538822515293 9.386333141017962 8.309145281699658 0 0 0
396 2 11.980792786427745 9.371380612313049 4.937753021540226 0 0 0
397 2 14.786271393934328 7.5860830610487575 8.297067791793502 0 0 0
398 2 14.776834259070366 7.572726241999572 4.925076507045081 0 0 0
399 2 17.563354579231238 5.7945247843728005 8.30429845703223 0 0 0
400 2 17.579982206120103 5.7810222603119445 4.932699306443847 0 0 0
401 2 20.337936536612105 4.001532624775426 8.33716972083633 0 0 0
402 2 20.38124201944891 3.988793098176903 4.966967653158564 0 0 0
409 2 12.155443130916387 12.700570435244018 8.310408946993965 0 0 0
410 2 12.141951110943744 12.7104839272948 4.939203446796306 0 0 0
411 2 14.943780522688066 10.896682500514196 8.294516258747048 0 0 0
412 2 14.935179497969042 10.904036379189177 4.92239946589454 0 0 0
413 2 17.72980878104036 9.104663657589727 8.293220536319907 0 0 0
414 2 17.74016943052628 9.103540787793671 4.921030789910377 0 0 0
415 2 20.513950501526672 7.316320326504529 8.318162037921542 0 0 0
416 2 20.548487054942658 7.304319866938059 4.947080990413892 0 0 0
427 2 17.890679713019395 12.407077828973573 8.30236440384743 0 0 0
428 2 17.891317703768962 12.429483781442718 4.930641175677598 0 0 0
448 2 23.662768717340626 12.127086442206434 4.953072069394832 0 0 0
447 2 23.649058268056994 12.129171604111715 8.32332156372071 0 0 0
434 2 26.309010733192444 6.995927816866583 5.025692947270486 0 0 0
433 2 26.26696681788019 7.029186062690873 8.394358428208424 0 0 0
432 2 23.512120589411218 8.812738857327584 4.970746897750972 0 0 0
431 2 23.47566934541108 8.830333776153925 8.340858810418343 0 0 0
422 2 28.903133706097936 1.8683896106248608 5.110372900789655 0 0 0
421 2 28.869738596499328 1.8817651060639509 8.478211795612273 0 0 0
488 2 31.665848045790042 0.051048057994192486 5.130526194151029 0 1 0
420 2 26.133291304872493 3.686162713512824 5.06057043286904 0 0 0
419 2 26.08148659972777 3.708264236661099 8.428701198897517 0 0 0
418 2 23.348765375665486 5.499505348896284 4.998619306077774 0 0 0
417 2 23.297076064508765 5.520054289088286 8.368127219652239 0 0 0
406 2 25.94686598656038 0.37847835206151176 5.074265786870071 0 0 0
405 2 25.893265225471385 0.3770997593425765 8.442045659520886 0 0 0
404 2 23.171451750315857 2.1883373408577467 5.020281233224846 0 0 0
403 2 23.113220652666847 2.1969762546629177 8.388947090809246 0 0 0
487 2 31.66113291336527 0.04806266765308128 8.498566467357614 0 1 0
257 2 25.420575180007603 9.60532220138142 1.5081930844343712 0 0 0
255 2 22.473561977542758 11.132390593844828 1.547375625097997 0 0 0
243 2 28.554297281640686 4.782443835426598 1.4009420535027721 0 0 0
241 2 25.597806993356084 6.278957334312904 1.4630116237041972 0 0 0
239 2 22.64083440238948 7.79496471001852 1.524944192825221 0 0 0
229 2 28.744499106562788 1.4807155826568783 1.3686704431113266 0 0 0
227 2 25.78382005566008 2.9683681194608593 1.423473617209948 0 0 0
225 2 22.818044052730993 4.472266450767564 1.4913580366346493 0 0 0
213 2 23.004265901353588 1.1635074769873233 1.4670318049818643 0 0 0
125 3 25.411461048360497 8.718475756961938 6.67937057594203 0 0 0
124 3 22.611517163468832 10.523225116856493 6.636967817421515 0 0 0
119 3 28.022098254834813 3.5882593948084707 6.77462032537421 0 0 0
118 3 25.23853037200498 5.406728201177818 6.715492825638434 0 0 0
117 3 22.447972200816782 7.21439729126274 6.656588818776054 0 0 0
112 3 27.834229602582667 0.26948473893121544 6.788973156910591 0 0 0
111 3 25.0567388471696 2.089951094361345 6.740215053463964 0 0 0
110 3 22.27493699936937 3.9006479994229633 6.680766462854744 0 0 0
105 3 22.09338302904475 0.581844957856637 6.692816833441942 0 0 0
246 2 -0.19366659699345634 3.331180164056745 28.012545206857613 1 0 -1
260 2 -3.350847445163338 8.154885759993839 28.10573259728864 1 0 -1
262 2 -0.37998610860394155 6.660761732082076 28.06104549419024 1 0 -1
274 2 -6.454752211697244 12.96861989916003 28.18703977867975 1 0 -1
276 2 -3.512211067991308 11.47439149774888 28.16067579940762 1 0 -1
278 2 -0.5551686256841899 9.98112363169433 28.124745291600053 1 0 -1
294 2 -0.7180744111303801 13.292562829972605 28.181193379566025 1 0 -1
1 1 0.8630615603885062 1.7120749070153185 29.671401327300444 0 0 -1
40 1 -2.2914135160293734 6.51989249829111 29.74176452285046 1 0 -1
41 1 0.6738803654149002 5.029023234752756 29.705598364905875 1 0 -1
47 1 -5.416981758674074 11.342153592237779 29.844530221810984 1 0 -1
48 1 -2.466542956856947 9.839567492587454 29.803586280313606 1 0 -1
49 1 0.4927516300551087 8.345345005531621 29.76549215817743 1 0 -1
56 1 -2.630892039689525 13.163158964524834 29.85669105533869 1 0 -1
57 1 0.3224577263819759 11.661951469648333 29.83034562440004 1 0 -1
184 2 2.7916640100390913 1.832064365533066 28.010050437809003 0 0 -1
186 2 5.772175150736377 0.3292143452220825 28.043637643847823 0 0 -1
188 2 5.581588752856237 3.6626609048915864 28.05873310367307 0 0 -1
190 2 8.553909779630994 2.1536420439779156 28.100482171053994 0 0 -1
192 2 11.513848694957382 0.6342601691568505 28.1496007758725 0 0 -1
194 2 5.394078933043736 6.985642833469212 28.09941559640657 0 0 -1
196 2 8.367538319178772 5.478571476731555 28.12507768887342 0 0 -1
198 2 11.330094367272325 3.9615302348596697 28.161688556117845 0 0 -1
204 2 8.186713937136759 8.789663460714792 28.159459001043075 0 0 -1
206 2 11.151879280074175 7.276768772612267 28.184701079159698 0 0 -1
216 2 8.012027069507237 12.087743321368349 28.185457143109915 0 0 -1
218 2 10.98063199650882 10.57866179832069 28.200548983781218 0 0 -1
264 2 2.600856471920182 5.164081102086464 28.04294016517485 1 0 -1
280 2 2.416367942342216 8.485705107291977 28.099306481579735 1 0 -1
296 2 2.2416355860557013 11.795304370756803 28.15900412069432 1 0 -1
298 2 5.213291474888857 10.295029478726864 28.14851342952546 1 0 -1
314 2 5.039766061318126 13.592878521943256 28.186900288646477 1 0 -1
2 1 3.8312451183013487 0.21996337240997352 29.68812665376691 0 0 -1
3 1 3.6411065009510453 3.5384730968697564 29.704111441717913 0 0 -1
4 1 6.60735666085205 2.0431779112634145 29.73652867878729 0 0 -1
5 1 9.571498966063515 0.5383280565448818 29.789016033150826 0 0 -1
6 1 3.4574485217054223 6.854197434504819 29.750163318508868 0 0 -1
7 1 6.423313911388371 5.360098819394509 29.765358087986968 0 0 -1
8 1 9.387822973688984 3.8573520764876537 29.802589948567405 0 0 -1
11 1 6.248830846342047 8.672069534617284 29.80957166855793 0 0 -1
12 1 9.21330527685005 7.171014608347736 29.83200127668325 0 0 -1
17 1 6.084317928001053 11.979464911365787 29.850255483725007 0 0 -1
18 1 9.049392099352456 10.479193129753067 29.859129314871666 0 0 -1
26 1 11.854518812918199 12.278463790891097 29.88113426362085 0 0 -1
58 1 3.2837812349889255 10.16687315615342 29.80923268492531 1 0 -1
66 1 3.1197510622931706 13.477597735887082 29.860312221831045 1 0 -1
200 2 14.281392080866333 2.434003252882655 28.188820207009456 0 0 -1
202 2 17.227128993173576 0.9008724651425128 28.19037649400933 0 0 -1
208 2 14.104910391582301 5.754755540967034 28.205666421015295 0 0 -1
210 2 17.049404201292944 4.226167504917038 28.204134994748635 0 0 -1
212 2 19.994396445544172 2.6983522228986505 28.172121454058125 0 0 -1
220 2 13.937297046360678 9.063721250055005 28.219002730680252 0 0 -1
222 2 16.881923666102004 7.5432919776762875 28.221488119651962 0 0 -1
224 2 19.822165692898906 6.0220482061079 28.194980202184645 0 0 -1
234 2 13.775563360509949 12.363418111588588 28.211444706224803 0 0 -1
236 2 16.724570481057192 10.851828747184511 28.22326315987692 0 0 -1
238 2 19.663275594508946 9.339162029389849 28.212813032128953 0 0 -1
254 2 19.513697306977658 12.65161778355427 28.207593701320842 0 0 -1
37 1 20.55047789211516 11.04245026229772 29.884428494234637 0 0 -1
9 1 12.35073144758124 2.3419768053039327 29.842799523070397 0 0 -1
10 1 15.313544193596107 0.815331668472527 29.865771636990946 0 0 -1
13 1 12.175179730085816 5.658528860012846 29.86167614319736 0 0 -1
14 1 15.135106025846245 4.134060664498942 29.878239907651228 0 0 -1
15 1 18.095974364386844 2.603884187789529 29.866696991247423 0 0 -1
16 1 21.06080595732097 1.0788211667583525 29.82538697009978 0 0 -1
19 1 12.010870285092137 8.970415118612644 29.8804246786817 0 0 -1
20 1 14.96767419573026 7.450343187124626 29.895497842857736 0 0 -1
21 1 17.922316756854933 5.922655668997579 29.886280254013375 0 0 -1
22 1 20.87941995048755 4.396888339515923 29.8457131986283 0 0 -1
27 1 14.810746711268088 10.764520799952455 29.898217365808193 0 0 -1
28 1 17.76071819616601 9.242065027099386 29.899615105807115 0 0 -1
29 1 20.709312626366692 7.717864415774386 29.87213162139151 0 0 -1
36 1 17.606659864240406 12.562550501233439 29.888699519399392 0 0 -1
214 2 22.9496896495916 1.1783139193852974 28.11690444151373 0 0 -1
226 2 22.76911515631073 4.506315303274734 28.14047077406599 0 0 -1
228 2 25.731080002724646 2.9986536672023383 28.07378181934276 0 0 -1
230 2 28.708744802268853 1.4963226748856948 28.01908126704425 0 0 -1
240 2 22.602381194131503 7.829763178570652 28.173340434250477 0 0 -1
242 2 25.55303696134126 6.326761899142103 28.112841289855446 0 0 -1
244 2 28.520770872137547 4.8285520752818485 28.051511860212187 0 0 -1
256 2 22.449955941058178 11.148562472869312 28.195272119501496 0 0 -1
258 2 25.390379382136075 9.64970266514219 28.157433622983266 0 0 -1
46 1 23.336157405437778 12.853938953683851 29.86893067699948 0 0 -1
39 1 26.445029153308926 8.016923094586584 29.798301936528187 0 0 -1
38 1 23.4944841422447 9.524886194861052 29.852157763234004 0 0 -1
32 1 29.589660899757988 3.20272954180255 29.693948457427325 0 0 -1
31 1 26.622955157346304 4.6969861214777415 29.74919257058575 0 0 -1
30 1 23.662387519671377 6.201124461152885 29.816746778615737 0 0 -1
24 1 26.810537167958017 1.3804551537318528 29.718322958517238 0 0 -1
23 1 23.842187428511178 2.8821660190156075 29.782490017305243 0 0 -1
153 3 -13.964244988788623 27.388379739040158 6.814512962399579 1 0 0
139 3 -8.762103806602473 17.13413550678142 6.657497041339592 1 0 0
140 3 -5.959021611777336 15.331038273050929 6.63638546379583 1 0 0
146 3 -11.375431142561144 22.253018520879532 6.750173564366561 1 0 0
147 3 -8.588181210748264 20.441789027230417 6.694365456316808 1 0 0
154 3 -11.185428821692003 25.56721544391287 6.783224378926331 1 0 0
155 3 -8.403559708459065 23.752773777699442 6.728967575258713 1 0 0
162 3 -8.213927495782176 27.06661695878837 6.743103225290822 1 0 0
287 2 -9.556214870809557 17.8228213934772 1.5076588183152067 1 0 0
289 2 -6.61150215862018 16.29458045770324 1.5396102391189843 1 0 0
301 2 -12.694463362124319 22.658197495085265 1.401641733194545 1 0 0
303 2 -9.740430156332252 21.155075598214445 1.456151189484197 1 0 0
305 2 -6.787618243165358 19.637470074469178 1.5130254137494226 1 0 0
317 2 -12.889861183645236 25.964583915530163 1.362693204134026 1 0 0
319 2 -9.934523858872232 24.47246141381508 1.4111838607110354 1 0 0
321 2 -6.975513873723096 22.966921552507397 1.4755191190898804 1 0 0
333 2 -7.168959712529199 26.282969987475212 1.4497671845378375 1 0 0
461 2 -7.87425865089957 15.422846599525368 8.32619178235309 1 0 0
462 2 -7.886183325495454 15.440775301691739 4.956499731724185 1 0 0
475 2 -10.490672843571291 20.52037796928777 8.399052169214928 1 0 0
476 2 -10.52553584415511 20.56718847006893 5.030907035377045 1 0 0
477 2 -7.697262150849329 18.72025617563969 8.349615155032424 1 0 0
478 2 -7.730707056687395 18.7521853007958 4.980846129679486 1 0 0
489 2 -13.09065838312064 25.66475980159187 8.483663280332232 1 0 0
490 2 -13.114079634112136 25.68469407008887 5.115818755102016 1 0 0
491 2 -10.300757225278954 23.84020222871314 8.4396222184934 1 0 0
492 2 -10.343157019185426 23.870834132237555 5.071975380459012 1 0 0
493 2 -7.5129927291384835 22.02873119543721 8.382043925434045 1 0 0
494 2 -7.559479505058973 22.059259642088538 5.0139522776899526 1 0 0
505 2 -10.108166487204194 27.169139133673976 8.456334034638981 1 0 0
506 2 -10.153577209262329 27.170287224814885 5.088602914921766 1 0 0
507 2 -7.323752664609322 25.349737504600828 8.405278558639754 1 0 0
508 2 -7.3753214347309415 25.361666372905507 5.037367338242936 1 0 0
315 2 -15.843501708635907 27.44836813302096 1.3464480952297988 1 0 0
148 3 -5.792899774425297 18.637303290332714 6.64664882058943 1 0 0
149 3 -2.992610475256936 16.834930029335208 6.6232156798013415 1 0 0
150 3 -0.19338259988820994 15.027851481686927 6.627533459807184 1 0 0
156 3 -5.616550038573613 21.946762698064973 6.670379275668369 1 0 0
157 3 -2.8242916354230534 20.14665873509644 6.627439840142417 1 0 0
158 3 -0.030285931820477785 18.345525862692742 6.611878437410271 1 0 0
159 3 2.7611480876971175 16.537028076151703 6.620127055954227 1 0 0
163 3 -5.43164442887247 25.25976945521041 6.689683063487477 1 0 0
164 3 -2.6464454301014424 23.461262732251363 6.6435006492618065 1 0 0
165 3 0.1405234104487807 21.665018176384482 6.619624386313049 1 0 0
166 3 2.926482726075152 19.862877789394076 6.6209686575565225 1 0 0
169 3 -2.46252217933829 26.77815706724202 6.652817287021988 1 0 0
170 3 0.31999055853913916 24.98534127903017 6.633912485298086 1 0 0
171 3 3.101307631947357 23.188293223728287 6.638227225310933 1 0 0
175 3 3.2832395621661465 26.511655038263694 6.6519909652047735 1 0 0
291 2 -3.6669054340247644 14.765581720375325 1.5471764731817816 1 0 0
307 2 -3.8348726582452395 18.10979154460509 1.5525354159089217 1 0 0
309 2 -0.8798884316913238 16.58383393364592 1.5640134137273531 1 0 0
311 2 2.07829102139036 15.070811708481394 1.5529325056112955 1 0 0
323 2 -4.012843371319976 21.44644773128474 1.5331204084994017 1 0 0
325 2 -1.0470876314364794 19.918455860420355 1.565610958950349 1 0 0
327 2 1.9208446436103266 18.39629243532271 1.567982806162301 1 0 0
335 2 -4.20068012907277 24.770290090132267 1.5089448188613217 1 0 0
337 2 -1.2261166404614023 23.24467795652766 1.5492313765729548 1 0 0
339 2 1.751569609795249 21.717932574754762 1.5588446633212643 1 0 0
345 2 -1.4127691531881617 26.561282976898774 1.5362373823407887 1 0 0
347 2 1.5698567060804383 25.032653765596255 1.5440264856478212 1 0 0
479 2 -4.902791440388828 16.930410232071512 8.318123171705183 1 0 0
480 2 -4.92276782737891 16.937605362617678 4.94874070094502 1 0 0
481 2 -2.1084221670961245 15.140336842755094 8.313811810734974 1 0 0
482 2 -2.1128473816874935 15.120769629855978 4.944472705804258 1 0 0
495 2 -4.726557821145846 20.231001874501377 8.331094439450924 1 0 0
496 2 -4.761477183728471 20.25070800827264 4.962222878104086 1 0 0
497 2 -1.9406804602345638 18.44021478576982 8.303094519719954 1 0 0
498 2 -1.955320310152695 18.44273852842589 4.933496806924742 1 0 0
499 2 0.8457912932093876 16.645126604757163 8.302060901481656 1 0 0
500 2 0.8475253299428687 16.6306761688375 4.932446923412603 1 0 0
501 2 3.634601441891272 14.837807578188109 8.316823856353441 1 0 0
502 2 3.6383662112302506 14.813219367207404 4.947491677675622 1 0 0
509 2 -4.544261587448448 23.543465408202692 8.351268216007664 1 0 0
510 2 -4.585413770195283 23.559547564053066 4.982759891755723 1 0 0
511 2 -1.7676360564808107 21.74780528973204 8.31268180384908 1 0 0
512 2 -1.7862280524641871 21.761553385858278 4.9433636207527405 1 0 0
513 2 1.0089580803114213 19.95358588964585 8.299642986823173 1 0 0
514 2 1.0138145347236769 19.96126361297963 4.929944864105406 1 0 0
515 2 3.789058420627212 18.150889501375218 8.307957017739602 1 0 0
516 2 3.8054885004810117 18.153315228731838 4.938483313890163 1 0 0
519 2 -4.35879710793869 26.866828986138355 8.361038879723035 1 0 0
520 2 -4.399857860909082 26.865092547655873 4.992279120813246 1 0 0
521 2 -1.5880820762878258 25.06668205450585 8.326311811242673 1 0 0
522 2 -1.6053509480103738 25.07465769157006 4.957058395128015 1 0 0
523 2 1.1807092759187725 23.270687277475496 8.313149541574589 1 0 0
524 2 1.1911761309503266 23.28499936405698 4.943705055079242 1 0 0
531 2 1.3599104917414557 26.596241321790345 8.323901347422812 1 0 0
532 2 1.375886456704091 26.600737096892328 4.954303467507476 1 0 0
525 2 3.9522705048987685 21.469139369012645 8.32172211780135 1 0 0
113 3 11.274685040640978 14.417036891889971 6.637479200253573 0 0 0
160 3 5.548286698555472 14.720911517993263 6.635090270577499 1 0 0
167 3 5.709908524288986 18.051415429329104 6.635622012194183 1 0 0
168 3 8.491748591660187 16.233796306664587 6.644811641564947 1 0 0
172 3 5.8804358211327195 21.381227972682414 6.657857125557927 1 0 0
173 3 8.658258915388371 19.565097957314304 6.675202733002019 1 0 0
174 3 11.437207293091964 17.74589444389818 6.674925196143581 1 0 0
176 3 6.060853604690774 24.70802903706631 6.683177421788688 1 0 0
177 3 8.836235691999114 22.89351128928953 6.7140904385558615 1 0 0
178 3 11.61171529233522 21.073024031154603 6.726605736087828 1 0 0
179 3 9.022087793406842 26.218186918794142 6.7402539906318175 1 0 0
180 3 11.796892014330812 24.397255879384936 6.770898215827213 1 0 0
231 2 10.813186720898656 13.895009505912961 1.5466337119245064 0 0 0
247 2 10.663924487678257 17.209191494047165 1.5143798607354344 0 0 0
249 2 13.622832209933966 15.709240247614968 1.527222126802181 0 0 0
265 2 13.459796961764944 19.025978232932783 1.4687834716336672 0 0 0
281 2 13.279740143180549 22.333494092965775 1.4090962169179286 0 0 0
329 2 4.8883355553845504 16.888556089884855 1.55281465258572 1 0 0
331 2 7.852462999543931 15.391989456773786 1.5412392510907136 1 0 0
341 2 4.728270882925205 20.203165187539568 1.543078715368133 1 0 0
343 2 7.699581796565139 18.70310166122319 1.521643082388865 1 0 0
349 2 4.552576447006487 23.512981842589806 1.5232692246682729 1 0 0
351 2 7.529893143457617 22.00972491714814 1.490185786082836 1 0 0
353 2 10.49862375388322 20.517893157476525 1.4672110219610222 1 0 0
355 2 4.366621158137804 26.81893435659883 1.5132029256814374 1 0 0
357 2 7.34587008026735 25.31145519667241 1.4667548282500118 1 0 0
359 2 10.317024079048881 23.81974717677245 1.4253308072089423 1 0 0
361 2 10.126854704223692 27.11740038074005 1.4082844820834728 1 0 0
363 2 13.089400980675165 25.63294718111713 1.3712282833254001 1 0 0
407 2 9.36498843452307 14.516407072231132 8.323282577794714 0 0 0
408 2 9.36124999692156 14.522998718148147 4.953237432768086 0 0 0
423 2 12.306940593707832 16.01495593152413 8.339324523185377 0 0 0
424 2 12.305795670344219 16.05095358618381 4.969315207453789 0 0 0
439 2 12.469043369703371 19.334133402161136 8.389302938183574 0 0 0
440 2 12.481493249282828 19.38392029103373 5.020678182032132 0 0 0
517 2 6.5748918502135965 16.336615851984487 8.321305603138894 1 0 0
518 2 6.58596692510015 16.33888232315909 4.951897769900497 1 0 0
526 2 3.9814116896902174 21.487457427493112 4.952659181267963 1 0 0
527 2 6.730736894400261 19.656553220270215 8.33936793489759 1 0 0
528 2 6.760756105056306 19.67974895370378 4.970626523312348 1 0 0
529 2 9.516704933723585 17.835509100219795 8.348399066435668 1 0 0
530 2 9.532344879936954 17.86586628980102 4.979380618781293 1 0 0
533 2 4.126887140390881 24.79508535047178 8.34103122162088 1 0 0
534 2 4.166450450317175 24.810628941601813 4.972170552836734 1 0 0
535 2 6.899788668736349 22.98280681346961 8.36886299596446 1 0 0
536 2 6.945936801289964 23.009104351910203 5.000627753051645 1 0 0
537 2 9.681144616610787 21.160032830309582 8.389627224808768 1 0 0
538 2 9.715074101420946 21.198494333380093 5.021537456890594 1 0 0
539 2 7.080152660278767 26.31472135312668 8.389768941332946 1 0 0
540 2 7.136379830996198 26.326424400868987 5.021589405007803 1 0 0
541 2 9.859177956658213 24.49144862044899 8.426942629097912 1 0 0
542 2 9.906683236831666 24.517725102025704 5.059258214762944 1 0 0
543 2 12.645230581859677 22.66134488944239 8.44194256495939 1 0 0
544 2 12.669871433735754 22.70415470805092 5.074166568163311 1 0 0
545 2 12.831648263265217 25.995547213095826 8.475894902823343 1 0 0
546 2 12.863544727824706 26.013286803534402 5.108131210246055 1 0 0
129 3 14.390062546098441 19.252963678543942 6.713306855717349 0 0 0
474 2 18.391633955580012 22.38271034321803 5.080278542290553 0 0 0
473 2 18.41291361203809 22.33524673607281 8.448081182092142 0 0 0
472 2 15.625123130837682 24.198056755624183 5.109900193461933 0 0 0
471 2 15.621639541369976 24.1624448860591 8.4777389031855 0 0 0
460 2 21.00226997338018 17.256855998078176 4.9831284108183995 0 0 0
459 2 21.023129260007416 17.213340294864633 8.352415201202957 0 0 0
458 2 18.210393047305715 19.072917037498215 5.023788888238827 0 0 0
457 2 18.22774797671689 19.01609454899285 8.39250602776467 0 0 0
121 3 14.220366534310953 15.93032345678208 6.655980212488227 0 0 0
456 2 15.434887278921781 20.88892727945104 5.0598480660649585 0 0 0
455 2 15.435274375593924 20.83351702652781 8.427993656331099 0 0 0
446 2 20.849400714735545 13.941109941245092 4.94779216027479 0 0 0
122 3 17.010778650493236 14.122501065577968 6.631938144423892 0 0 0
445 2 20.85075273207911 13.915623332770986 8.318507588661829 0 0 0
444 2 18.044426060259365 15.754191418729235 4.967585679817937 0 0 0
443 2 18.054136219764175 15.708401742501543 8.337873222959548 0 0 0
442 2 15.255405437242885 17.5685940534198 4.998090489722581 0 0 0
441 2 15.260328528849811 17.51467342216166 8.36760751141993 0 0 0
426 2 15.090897856710018 14.238370605245779 4.947281329136663 0 0 0
425 2 15.098467125789039 14.204199999180155 8.318340444490863 0 0 0
299 2 16.046342209560613 24.14903423087043 1.369258014677456 0 0 0
285 2 19.190658668649892 19.339948057542838 1.4632188692224033 0 0 0
283 2 16.237085694450506 20.84252670731626 1.424521681121083 0 0 0
271 2 22.31007555087235 14.478646070804347 1.5425495178424897 0 0 0
269 2 19.365735809793442 16.007740221033952 1.523276112531614 0 0 0
267 2 16.4155866321306 17.52419522873527 1.4926408905040112 0 0 0
251 2 16.577301277939668 14.195272750376134 1.5487708665193212 0 0 0
182 3 14.762483434965445 25.894440952359332 6.808744672045151 1 0 0
181 3 14.57254380196393 22.574400195976853 6.771635760269081 1 0 0
145 3 17.539568625916257 24.071358437948668 6.793635555212123 0 0 0
138 3 20.137956955215195 18.940911792749535 6.698895010227735 0 0 0
137 3 17.351760304215002 20.754531422191747 6.74331018029764 0 0 0
132 3 22.770410905292092 13.828798778924183 6.635797921732502 0 0 0
131 3 19.968290589564496 15.63092101783983 6.65026032071802 0 0 0
130 3 17.17463115706799 17.43825741085984 6.682040575408493 0 0 0
288 2 -9.54184947993079 17.78408271075644 28.15698942273562 1 0 -1
290 2 -6.600565859246656 16.286505405751317 28.188426954604363 1 0 -1
302 2 -12.674446570180367 22.60881203624612 28.05220007907922 1 0 -1
304 2 -9.707000763085421 21.10890843081668 28.10648302982864 1 0 -1
306 2 -6.75492307044488 19.607507764351396 28.16264134412895 1 0 -1
318 2 -12.863482979171387 25.94407760088794 28.013074672209406 1 0 -1
320 2 -9.886982182945033 24.44157216359107 28.06190992257672 1 0 -1
322 2 -6.924330537895635 22.93527325059563 28.12578609474855 1 0 -1
334 2 -7.106373874164907 26.26918877274848 28.10020761659362 1 0 -1
54 1 -8.516833440435109 16.186372426001125 29.855727509384398 1 0 -1
61 1 -11.637361022836215 21.024887191357323 29.760978369959396 1 0 -1
62 1 -8.683382050478384 19.518325795986257 29.81616829922066 1 0 -1
68 1 -14.791685257599163 25.84339782527178 29.674975522101825 1 0 -1
69 1 -11.824677893128376 24.34831555146902 29.709397941372895 1 0 -1
70 1 -8.862959281249381 22.84686776971757 29.768756324496124 1 0 -1
76 1 -9.051185783046641 26.17145017518264 29.737235878759172 1 0 -1
77 1 -6.089385556436548 24.664099240707134 29.801246505276936 1 0 -1
292 2 -3.663205513140671 14.7891651993696 28.195941938810652 1 0 -1
308 2 -3.8142998642335044 18.10380255377286 28.20123059551983 1 0 -1
310 2 -0.8745672643526863 16.59953744716608 28.212387757937847 1 0 -1
312 2 2.0754993802517454 15.096177131700793 28.201651356177145 1 0 -1
324 2 -3.9758768427234177 21.423766185107663 28.18239838124926 1 0 -1
326 2 -1.0346698955986362 19.909276446417614 28.213939887810582 1 0 -1
328 2 1.9108302572098843 18.39609101058119 28.216224298359908 1 0 -1
336 2 -4.150766885532553 24.75160028813844 28.158625982965034 1 0 -1
338 2 -1.2050928595596098 23.22777549895594 28.19799254393507 1 0 -1
340 2 1.7400582088707797 21.703807353753472 28.20737053612994 1 0 -1
346 2 -1.3846245852478312 26.55482895926493 28.185102568703154 1 0 -1
348 2 1.561364923334347 25.023212362961452 28.19280204900369 1 0 -1
55 1 -5.5757348013431605 14.672476753002384 29.868596373211417 1 0 -1
63 1 -5.736266420431631 18.00517858472164 29.861933420130196 1 0 -1
65 1 0.1607143017565864 14.980130523133992 29.877960180895748 1 0 -1
71 1 -5.907239298296416 21.336489225588345 29.832470299428117 1 0 -1
72 1 -2.9549654223448734 19.81866282333637 29.878816289897696 1 0 -1
74 1 2.9589445785553874 16.788508306343413 29.886758498025102 1 0 -1
78 1 -3.130299388273846 23.1459099155021 29.857231863125712 1 0 -1
79 1 -0.17102140219070527 21.621989761630026 29.886755341768616 1 0 -1
80 1 2.792052893263735 20.101482197200358 29.885508871850003 1 0 -1
82 1 -3.31368993918613 26.470330848880813 29.8403235114779 1 0 -1
83 1 -0.3507918200607403 24.943797062785805 29.870368789364285 1 0 -1
84 1 2.6148720104967307 23.41708353118393 29.869550440296322 1 0 -1
87 1 2.4308575746922916 26.734672968550864 29.859216143303843 1 0 -1
64 1 -2.7904316512135265 16.490210459029797 29.883077813982723 1 0 -1
73 1 -0.0009576994307174402 18.300325251124324 29.89546296531873 1 0 -1
232 2 10.812248589506444 13.872214695678807 28.19465149464658 0 0 -1
248 2 10.639257571658181 17.166446501040124 28.163598756275764 0 0 -1
250 2 13.611202775078203 15.661189485888391 28.175631773501813 0 0 -1
266 2 13.436230041643011 18.965576577887237 28.118616799151884 0 0 -1
282 2 13.249225051860842 22.2826301992569 28.059696796654332 0 0 -1
330 2 4.869231233893583 16.886411066156725 28.201452852164486 1 0 -1
332 2 7.839633384975015 15.379188357820228 28.189937072609887 1 0 -1
342 2 4.69493692693127 20.185433798829184 28.192099844079944 1 0 -1
344 2 7.663302620150297 18.673738438860905 28.171047485211396 1 0 -1
350 2 4.513864099318637 23.496902016743743 28.17271475441047 1 0 -1
352 2 7.479556822302527 21.97980435033465 28.140251825858954 1 0 -1
354 2 10.456769638730147 20.470331916730714 28.117445489775193 1 0 -1
356 2 4.32881712339257 26.82017764916305 28.16254958454268 1 0 -1
358 2 7.2904009250599096 25.299602704436627 28.11703943652102 1 0 -1
360 2 10.265932556053007 23.78821290436482 28.076028459790297 1 0 -1
362 2 10.07242389114876 27.116637582938928 28.05888561197119 1 0 -1
364 2 13.055153317264288 25.611550558450347 28.02172648362288 1 0 -1
25 1 8.891343518021248 13.783474777900341 29.867846596066506 0 0 -1
33 1 8.729700357640539 17.087087856505143 29.851574452723348 0 0 -1
34 1 11.696720797125186 15.585010584909112 29.854896926432303 0 0 -1
42 1 11.528085644939132 18.89251038425887 29.806702024343117 0 0 -1
50 1 11.345889979674686 22.202459344567924 29.754145595529184 0 0 -1
75 1 5.9243961876670195 15.28447204114687 29.871227046454617 1 0 -1
81 1 5.759878679168352 18.590381836402504 29.866537298857835 1 0 -1
85 1 5.5846469669652805 21.899491832711988 29.84494471376479 1 0 -1
86 1 8.556958003504153 20.39302385981941 29.81715238503136 1 0 -1
88 1 5.400020277911386 25.21230722542116 29.82563137062474 1 0 -1
89 1 8.372601350661496 23.7026461584828 29.7827876652558 1 0 -1
90 1 8.182540275441008 27.015676771279534 29.76842482678955 1 0 -1
91 1 11.155020629483428 25.515094433856135 29.719781778593884 1 0 -1
252 2 16.569796018075383 14.156362075947216 28.19639243989824 0 0 -1
268 2 16.406971044738285 17.463883122081675 28.141725772957848 0 0 -1
270 2 19.36266064223713 15.964004003815491 28.17174852612764 0 0 -1
272 2 22.304530306694033 14.465370567252801 28.19077281101164 0 0 -1
284 2 16.230030437759172 20.78078647155263 28.074822226424303 0 0 -1
286 2 19.19958107415785 19.28177581221367 28.113039609636527 0 0 -1
300 2 16.04112917112706 24.109306315826846 28.01967635943632 0 0 -1
35 1 14.65629576146624 14.077708665962716 29.872930289685605 0 0 -1
43 1 14.493504325665418 17.39100833693283 29.820024439849124 0 0 -1
44 1 17.449518840094775 15.883827973367792 29.846579678618404 0 0 -1
45 1 20.395661550040085 14.370149417824965 29.868013564310594 0 0 -1
51 1 14.316224336865407 20.704972561945567 29.754475411153646 0 0 -1
67 1 13.933689258589006 27.335756583328575 29.67778744062002 0 0 -1
60 1 17.095940670870817 22.524556032028222 29.716574572562124 0 0 -1
59 1 14.127198701530434 24.019975510156712 29.70024635218116 0 0 -1
53 1 20.233836217401304 17.698526772842936 29.8219519511193 0 0 -1
52 1 17.27982873816085 19.204723708177305 29.781984526122116 0 0 -1
316 2 15.84703115309094 27.444924709107315 27.996561789162932 0 0 -1

Velocities

120 0 0 0
126 0 0 0
127 0 0 0
133 0 0 0
134 0 0 0
135 0 0 0
141 0 0 0
142 0 0 0
245 0 0 0
259 0 0 0
261 0 0 0
273 0 0 0
275 0 0 0
277 0 0 0
293 0 0 0
435 0 0 0
436 0 0 0
437 0 0 0
438 0 0 0
449 0 0 0
450 0 0 0
451 0 0 0
452 0 0 0
453 0 0 0
454 0 0 0
463 0 0 0
464 0 0 0
465 0 0 0
466 0 0 0
467 0 0 0
468 0 0 0
483 0 0 0
484 0 0 0
92 0 0 0
93 0 0 0
94 0 0 0
95 0 0 0
96 0 0 0
97 0 0 0
100 0 0 0
101 0 0 0
106 0 0 0
128 0 0 0
136 0 0 0
143 0 0 0
144 0 0 0
151 0 0 0
152 0 0 0
161 0 0 0
183 0 0 0
185 0 0 0
187 0 0 0
189 0 0 0
191 0 0 0
193 0 0 0
195 0 0 0
197 0 0 0
203 0 0 0
205 0 0 0
215 0 0 0
217 0 0 0
263 0 0 0
279 0 0 0
295 0 0 0
297 0 0 0
313 0 0 0
365 0 0 0
366 0 0 0
367 0 0 0
368 0 0 0
369 0 0 0
370 0 0 0
371 0 0 0
372 0 0 0
373 0 0 0
374 0 0 0
375 0 0 0
376 0 0 0
377 0 0 0
378 0 0 0
381 0 0 0
382 0 0 0
383 0 0 0
384 0 0 0
385 0 0 0
386 0 0 0
393 0 0 0
394 0 0 0
469 0 0 0
470 0 0 0
485 0 0 0
486 0 0 0
503 0 0 0
504 0 0 0
430 0 0 0
429 0 0 0
98 0 0 0
99 0 0 0
102 0 0 0
103 0 0 0
104 0 0 0
107 0 0 0
108 0 0 0
109 0 0 0
114 0 0 0
115 0 0 0
116 0 0 0
123 0 0 0
199 0 0 0
201 0 0 0
207 0 0 0
209 0 0 0
211 0 0 0
219 0 0 0
221 0 0 0
223 0 0 0
233 0 0 0
235 0 0 0
237 0 0 0
253 0 0 0
379 0 0 0
380 0 0 0
387 0 0 0
388 0 0 0
389 0 0 0
390 0 0 0
391 0 0 0
392 0 0 0
395 0 0 0
396 0 0 0
397 0 0 0
398 0 0 0
399 0 0 0
400 0 0 0
401 0 0 0
402 0 0 0
409 0 0 0
410 0 0 0
411 0 0 0
412 0 0 0
413 0 0 0
414 0 0 0
415 0 0 0
416 0 0 0
427 0 0 0
428 0 0 0
448 0 0 0
447 0 0 0
434 0 0 0
433 0 0 0
432 0 0 0
431 0 0 0
422 0 0 0
421 0 0 0
488 0 0 0
420 0 0 0
419 0 0 0
418 0 0 0
417 0 0 0
406 0 0 0
405 0 0 0
404 0 0 0
403 0 0 0
487 0 0 0
257 0 0 0
255 0 0 0
243 0 0 0
241 0 0 0
239 0 0 0
229 0 0 0
227 0 0 0
225 0 0 0
213 0 0 0
125 0 0 0
124 0 0 0
119 0 0 0
118 0 0 0
117 0 0 0
112 0 0 0
111 0 0 0
110 0 0 0
105 0 0 0
246 0 0 0
260 0 0 0
262 0 0 0
274 0 0 0
276 0 0 0
278 0 0 0
294 0 0 0
1 0 0 0
40 0 0 0
41 0 0 0
47 0 0 0
48 0 0 0
49 0 0 0
56 0 0 0
57 0 0 0
184 0 0 0
186 0 0 0
188 0 0 0
190 0 0 0
192 0 0 0
194 0 0 0
196 0 0 0
198 0 0 0
204 0 0 0
206 0 0 0
216 0 0 0
218 0 0 0
264 0 0 0
280 0 0 0
296 0 0 0
298 0 0 0
314 0 0 0
2 0 0 0
3 0 0 0
4 0 0 0
5 0 0 0
6 0 0 0
7 0 0 0
8 0 0 0
11 0 0 0
12 0 0 0
17 0 0 0
18 0 0 0
26 0 0 0
58 0 0 0
66 0 0 0
200 0 0 0
202 0 0 0
208 0 0 0
210 0 0 0
212 0 0 0
220 0 0 0
222 0 0 0
224 0 0 0
234 0 0 0
236 0 0 0
238 0 0 0
254 0 0 0
37 0 0 0
9 0 0 0
10 0 0 0
13 0 0 0
14 0 0 0
15 0 0 0
16 0 0 0
19 0 0 0
20 0 0 0
21 0 0 0
22 0 0 0
27 0 0 0
28 0 0 0
29 0 0 0
36 0 0 0
214 0 0 0
226 0 0 0
228 0 0 0
230 0 0 0
240 0 0 0
242 0 0 0
244 0 0 0
256 0 0 0
258 0 0 0
46 0 0 0
39 0 0 0
38 0 0 0
32 0 0 0
31 0 0 0
30 0 0 0
24 0 0 0
23 0 0 0
153 0 0 0
139 0 0 0
140 0 0 0
146 0 0 0
147 0 0 0
154 0 0 0
155 0 0 0
162 0 0 0
287 0 0 0
289 0 0 0
301 0 0 0
303 0 0 0
305 0 0 0
317 0 0 0
319 0 0 0
321 0 0 0
333 0 0 0
461 0 0 0
462 0 0 0
475 0 0 0
476 0 0 0
477 0 0 0
478 0 0 0
489 0 0 0
490 0 0 0
491 0 0 0
492 0 0 0
493 0 0 0
494 0 0 0
505 0 0 0
506 0 0 0
507 0 0 0
508 0 0 0
315 0 0 0
148 0 0 0
149 0 0 0
150 0 0 0
156 0 0 0
157 0 0 0
158 0 0 0
159 0 0 0
163 0 0 0
164 0 0 0
165 0 0 0
166 0 0 0
169 0 0 0
170 0 0 0
171 0 0 0
175 0 0 0
291 0 0 0
307 0 0 0
309 0 0 0
311 0 0 0
323 0 0 0
325 0 0 0
327 0 0 0
335 0 0 0
337 0 0 0
339 0 0 0
345 0 0 0
347 0 0 0
479 0 0 0
480 0 0 0
481 0 0 0
482 0 0 0
495 0 0 0
496 0 0 0
497 0 0 0
498 0 0 0
499 0 0 0
500 0 0 0
501 0 0 0
502 0 0 0
509 0 0 0
510 0 0 0
511 0 0 0
512 0 0 0
513 0 0 0
514 0 0 0
515 0 0 0
516 0 0 0
519 0 0 0
520 0 0 0
521 0 0 0
522 0 0 0
523 0 0 0
524 0 0 0
531 0 0 0
532 0 0 0
525 0 0 0
113 0 0 0
160 0 0 0
167 0 0 0
168 0 0 0
172 0 0 0
173 0 0 0
174 0 0 0
176 0 0 0
177 0 0 0
178 0 0 0
179 0 0 0
180 0 0 0
231 0 0 0
247 0 0 0
249 0 0 0
265 0 0 0
281 0 0 0
329 0 0 0
331 0 0 0
341 0 0 0
343 0 0 0
349 0 0 0
351 0 0 0
353 0 0 0
355 0 0 0
357 0 0 0
359 0 0 0
361 0 0 0
363 0 0 0
407 0 0 0
408 0 0 0
423 0 0 0
424 0 0 0
439 0 0 0
440 0 0 0
517 0 0 0
518 0 0 0
526 0 0 0
527 0 0 0
528 0 0 0
529 0 0 0
530 0 0 0
533 0 0 0
534 0 0 0
535 0 0 0
536 0 0 0
537 0 0 0
538 0 0 0
539 0 0 0
540 0 0 0
541 0 0 0
542 0 0 0
543 0 0 0
544 0 0 0
545 0 0 0
546 0 0 0
129 0 0 0
474 0 0 0
473 0 0 0
472 0 0 0
471 0 0 0
460 0 0 0
459 0 0 0
458 0 0 0
457 0 0 0
121 0 0 0
456 0 0 0
455 0 0 0
446 0 0 0
122 0 0 0
445 0 0 0
444 0 0 0
443 0 0 0
442 0 0 0
441 0 0 0
426 0 0 0
425 0 0 0
299 0 0 0
285 0 0 0
283 0 0 0
271 0 0 0
269 0 0 0
267 0 0 0
251 0 0 0
182 0 0 0
181 0 0 0
145 0 0 0
138 0 0 0
137 0 0 0
132 0 0 0
131 0 0 0
130 0 0 0
288 0 0 0
290 0 0 0
302 0 0 0
304 0 0 0
306 0 0 0
318 0 0 0
320 0 0 0
322 0 0 0
334 0 0 0
54 0 0 0
61 0 0 0
62 0 0 0
68 0 0 0
69 0 0 0
70 0 0 0
76 0 0 0
77 0 0 0
292 0 0 0
308 0 0 0
310 0 0 0
312 0 0 0
324 0 0 0
326 0 0 0
328 0 0 0
336 0 0 0
338 0 0 0
340 0 0 0
346 0 0 0
348 0 0 0
55 0 0 0
63 0 0 0
65 0 0 0
71 0 0 0
72 0 0 0
74 0 0 0
78 0 0 0
79 0 0 0
80 0 0 0
82 0 0 0
83 0 0 0
84 0 0 0
87 0 0 0
64 0 0 0
73 0 0 0
232 0 0 0
248 0 0 0
250 0 0 0
266 0 0 0
282 0 0 0
330 0 0 0
332 0 0 0
342 0 0 0
344 0 0 0
350 0 0 0
352 0 0 0
354 0 0 0
356 0 0 0
358 0 0 0
360 0 0 0
362 0 0 0
364 0 0 0
25 0 0 0
33 0 0 0
34 0 0 0
42 0 0 0
50 0 0 0
75 0 0 0
81 0 0 0
85 0 0 0
86 0 0 0
88 0 0 0
89 0 0 0
90 0 0 0
91 0 0 0
252 0 0 0
268 0 0 0
270 0 0 0
272 0 0 0
284 0 0 0
286 0 0 0
300 0 0 0
35 0 0 0
43 0 0 0
44 0 0 0
45 0 0 0
51 0 0 0
67 0 0 0
60 0 0 0
59 0 0 0
53 0 0 0
52 0 0 0
316 0 0 0
