LAMMPS data file via write_data, version 28 Mar 2023, timestep = 47, units = metal

42 atoms
2 atom types

0 8.442333499217797 xlo xhi
0 7.311275277542988 ylo yhi
0 30 zlo zhi
-4.221166749608897 0 0 xy xz yz

Masses

1 183.84
2 32.06

Atoms # atomic

8 1 2.637513279783125 1.3785013353040858 6.513356373627188 0 0 0
9 1 3.2405942861079584 4.512553212441618 6.5138904125199915 0 0 0
10 1 5.652662249062663 2.4187152972714183 6.514747730279492 0 0 0
11 1 8.067885496149136 0.3316711314780059 6.512978214973266 0 1 0
12 1 -2.1820564468206323 5.555256088478519 6.514226104154068 1 0 0
13 1 0.22582298346108454 3.4638329319787906 6.512768574193422 1 0 0
14 1 0.8298208171621226 6.598945615315574 6.509538089666031 1 0 0
15 2 2.562020181827803 2.0173292578652378 1.5688717163708716 0 0 0
17 2 5.578981625067402 0.977105758038209 1.5668073051702893 0 0 0
19 2 4.969634429189429 4.110043217672386 1.55576569672272 0 0 0
21 2 -0.4543296449957084 3.0727373370773394 1.5674990844681207 1 0 0
23 2 -4.0799674529885825 7.243483429633536 1.569351688623904 1 0 0
25 2 -1.0615178139493011 6.203215538144871 1.567562590733487 1 0 0
27 2 1.9530778875670332 5.152407916757117 1.56825657814079 1 0 0
30 2 4.441434369971708 1.029820889016602 4.932455313939321 0 0 0
32 2 5.052209891460418 4.162546585457034 4.9442313753623 0 0 0
34 2 -0.9815803303948093 2.068274661845836 4.933239221797644 1 0 0
36 2 -2.7844495772416495 7.296038036959365 4.931770993287685 1 0 0
38 2 -0.37390139833992864 5.201080665775878 4.931223237420321 1 0 0
40 2 2.0339370278868754 3.12080873660842 4.932364914576219 1 0 0
42 2 2.6422143474645656 6.25504977587415 4.9305985550878715 1 0 0
29 2 4.446608970069867 1.0266313407411567 8.091386712266303 0 0 0
31 2 5.051193783876972 4.162366552326252 8.092919839865411 0 0 0
33 2 -0.9797170828535852 2.0713588507611145 8.092185391594866 1 0 0
35 2 -2.786997920250767 7.295594118595048 8.092237671328006 1 0 0
37 2 -0.37381388400020255 5.2062262238666905 8.091100169003822 1 0 0
39 2 2.034864626881208 3.1190383843911516 8.092054337913043 1 0 0
41 2 2.637795837914914 6.2524725655298745 8.09103604506715 1 0 0
1 1 0.7496227009351119 1.673761847955112 29.99046173272386 0 0 -1
2 1 3.766674190822347 0.6293175596855033 29.987254619494212 0 0 -1
3 1 3.159421994764385 3.760274001108219 29.985814926291273 0 0 -1
4 1 6.179568683989525 2.718169033439819 29.98523753594107 0 0 -1
5 1 2.558181406736208 6.894324591650811 29.986999794572583 0 0 -1
6 1 -2.870091999943973 5.854012750837993 29.986084051728874 1 0 -1
7 1 0.14564989361437597 4.809330189418696 29.98664048045531 1 0 -1
16 2 2.5575609416494265 2.019799080848445 28.408919819419197 0 0 -1
18 2 5.575361947817877 0.977056084532096 28.407810238667707 0 0 -1
20 2 4.970234654435377 4.110882943528159 28.407079509913963 0 0 -1
22 2 -0.4541559896815004 3.066654070480395 28.408604889590436 1 0 -1
24 2 -4.075487336332718 7.246037463053878 28.408954916820612 1 0 -1
26 2 -1.060394454926458 6.201500501599929 28.407944460941653 1 0 -1
28 2 1.9547237490290348 5.154325982156521 28.407769085285217 1 0 -1

Velocities

8 0 0 0
9 0 0 0
10 0 0 0
11 0 0 0
12 0 0 0
13 0 0 0
14 0 0 0
15 0 0 0
17 0 0 0
19 0 0 0
21 0 0 0
23 0 0 0
25 0 0 0
27 0 0 0
30 0 0 0
32 0 0 0
34 0 0 0
36 0 0 0
38 0 0 0
40 0 0 0
42 0 0 0
29 0 0 0
31 0 0 0
33 0 0 0
35 0 0 0
37 0 0 0
39 0 0 0
41 0 0 0
1 0 0 0
2 0 0 0
3 0 0 0
4 0 0 0
5 0 0 0
6 0 0 0
7 0 0 0
16 0 0 0
18 0 0 0
20 0 0 0
22 0 0 0
24 0 0 0
26 0 0 0
28 0 0 0
