222
Lattice="19.409499926378302 0.0 0.0 9.704749963189148 16.8091200109958 0.0 0.0 0.0 30.0" Properties=species:S:1:pos:R:3:masses:R:1:momenta:R:3:id:I:1:type:I:1:travel:I:3 comment="LAMMPS data file via write_data, version 28 Mar 2023, timestep = 38, units = metal" pbc="T T T"
W       20.19824861       1.66583409      12.53617481     183.84000005       0.00000000       0.00000000       0.00000000        1        1       -1        0        0
W        3.67438204       0.29776328      12.52780410     183.84000005       0.00000000       0.00000000       0.00000000        2        1        0        0        0
W        3.41340751       3.47439499      12.51645074     183.84000005       0.00000000       0.00000000       0.00000000        3        1        0        0        0
W        6.30363804       2.11022496      12.49464838     183.84000005       0.00000000       0.00000000       0.00000000        4        1        0        0       -1
W        9.19346709       0.75307839      12.48882889     183.84000005       0.00000000       0.00000000       0.00000000        5        1        0        0       -1
W       22.55488425       6.65482564      12.50874927     183.84000005       0.00000000       0.00000000       0.00000000        6        1       -1        0        0
W        6.03420765       5.28768646      12.47628838     183.84000005       0.00000000       0.00000000       0.00000000        7        1        0        0       -1
W        8.92590518       3.93091301      12.45509027     183.84000005       0.00000000       0.00000000       0.00000000        8        1        0        0       -1
W       11.81504120       2.57702371      12.46707428     183.84000005       0.00000000       0.00000000       0.00000000        9        1        0        0       -1
W       14.69695444       1.21787566      12.50245049     183.84000005       0.00000000       0.00000000       0.00000000       10        1        0        0        0
W        5.76298264       8.46879074      12.48324626     183.84000005       0.00000000       0.00000000       0.00000000       11        1        0        0       -1
W        8.65147380       7.11070532      12.44819317     183.84000005       0.00000000       0.00000000       0.00000000       12        1        0        0       -1
W       11.54309469       5.75850213      12.44303373     183.84000005       0.00000000       0.00000000       0.00000000       13        1        0        0       -1
W       14.43217480       4.40288911      12.47417687     183.84000005       0.00000000       0.00000000       0.00000000       14        1        0        0       -1
W       17.31607598       3.03756414      12.51654110     183.84000005       0.00000000       0.00000000       0.00000000       15        1        0        0        0
W       24.90964915      11.65280751      12.50831552     183.84000005       0.00000000       0.00000000       0.00000000       16        1       -1        0        0
W        8.38098109      10.29200042      12.47599440     183.84000005       0.00000000       0.00000000       0.00000000       17        1        0        0       -1
W       11.26931189       8.93824640      12.45534275     183.84000005       0.00000000       0.00000000       0.00000000       18        1        0        0       -1
W       14.16047482       7.58415829      12.46705562     183.84000005       0.00000000       0.00000000       0.00000000       19        1        0        0       -1
W       17.04934661       6.22101304      12.50120541     183.84000005       0.00000000       0.00000000       0.00000000       20        1        0        0        0
W       19.93571935       4.84773862      12.52426360     183.84000005       0.00000000       0.00000000       0.00000000       21        1        0        0        0
W        8.12164783      13.47548559      12.51444255     183.84000005       0.00000000       0.00000000       0.00000000       22        1        0        0        0
W       11.00369709      12.11639443      12.49551388     183.84000005       0.00000000       0.00000000       0.00000000       23        1        0        0       -1
W       13.89274349      10.76066535      12.48937728     183.84000005       0.00000000       0.00000000       0.00000000       24        1        0        0       -1
W       16.78223704       9.40007549      12.50516985     183.84000005       0.00000000       0.00000000       0.00000000       25        1        0        0        0
W       19.66893805       8.02943641      12.52036572     183.84000005       0.00000000       0.00000000       0.00000000       26        1        0        0        0
W       27.27849782      16.66110531      12.52970719     183.84000005       0.00000000       0.00000000       0.00000000       27        1       -1        0        0
W       10.74808454      15.29470088      12.53036101     183.84000005       0.00000000       0.00000000       0.00000000       28        1        0        0        0
W       13.63410946      13.93367023      12.51874769     183.84000005       0.00000000       0.00000000       0.00000000       29        1        0        0        0
W       16.52307025      12.57417207      12.51842053     183.84000005       0.00000000       0.00000000       0.00000000       30        1        0        0        0
W       19.40823277      11.20858291      12.52644385     183.84000005       0.00000000       0.00000000       0.00000000       31        1        0        0        0
W       22.28963154       9.83696526      12.51754243     183.84000005       0.00000000       0.00000000       0.00000000       32        1        0        0        0
W       16.26849177      15.74601827      12.51630459     183.84000005       0.00000000       0.00000000       0.00000000       33        1        0        0        0
W       19.15470660      14.38567215      12.51955851     183.84000005       0.00000000       0.00000000       0.00000000       34        1        0        0        0
W       22.03363408      13.02004748      12.52418871     183.84000005       0.00000000       0.00000000       0.00000000       35        1        0        0        0
W       21.78089475      16.20348118      12.50492710     183.84000005       0.00000000       0.00000000       0.00000000       36        1        0        0        0
W       24.65619598      14.83970655      12.52031418     183.84000005       0.00000000       0.00000000       0.00000000       37        1        0        0        0
W        2.78684111       1.50458397      18.97821227     183.84000005       0.00000000       0.00000000       0.00000000       38        1        0        0        0
W        3.04889936       4.68704598      18.98962009     183.84000005       0.00000000       0.00000000       0.00000000       39        1        0        0        0
W        5.66694961       2.87267399      19.00838106     183.84000005       0.00000000       0.00000000       0.00000000       40        1        0        0        0
W        8.28617059       1.04959158      19.00939228     183.84000005       0.00000000       0.00000000       0.00000000       41        1        0        0        0
W        5.93604922       6.05479373      19.02451897     183.84000005       0.00000000       0.00000000       0.00000000       42        1        0        0        0
W        8.55297278       4.23155675      19.04514024     183.84000005       0.00000000       0.00000000       0.00000000       43        1        0        0        0
W       11.17229116       2.40482961      19.03193389     183.84000005       0.00000000       0.00000000       0.00000000       44        1        0        0        0
W       13.79855428       0.58416509      18.99912256     183.84000005       0.00000000       0.00000000       0.00000000       45        1        0        0        0
W        6.20741647       9.23374783      19.01389517     183.84000005       0.00000000       0.00000000       0.00000000       46        1        0        0        0
W        8.82726593       7.41189420      19.05159058     183.84000005       0.00000000       0.00000000       0.00000000       47        1        0        0        0
W       11.44402762       5.58391541      19.05700345     183.84000005       0.00000000       0.00000000       0.00000000       48        1        0        0        0
W       14.06303094       3.75908251      19.02763755     183.84000005       0.00000000       0.00000000       0.00000000       49        1        0        0        0
W       16.68782678       1.94412469      18.98976641     183.84000005       0.00000000       0.00000000       0.00000000       50        1        0        0        0
W        9.09834482      10.59048073      19.02472923     183.84000005       0.00000000       0.00000000       0.00000000       51        1        0        0        0
W       11.71795774       8.76482293      19.04490397     183.84000005       0.00000000       0.00000000       0.00000000       52        1        0        0        0
W       14.33449584       6.93869451      19.03200044     183.84000005       0.00000000       0.00000000       0.00000000       53        1        0        0        0
W       16.95248890       5.12124668      18.99975826     183.84000005       0.00000000       0.00000000       0.00000000       54        1        0        0        0
W       19.57392220       3.31309804      18.97762154     183.84000005       0.00000000       0.00000000       0.00000000       55        1        0        0        0
W        9.35850419      13.76727586      18.98925070     183.84000005       0.00000000       0.00000000       0.00000000       56        1        0        0        0
W       11.98344746      11.94710726      19.00807013     183.84000005       0.00000000       0.00000000       0.00000000       57        1        0        0        0
W       14.60283945      10.12251480      19.00835578     183.84000005       0.00000000       0.00000000       0.00000000       58        1        0        0        0
W       17.22074458       8.30338951      18.99039506     183.84000005       0.00000000       0.00000000       0.00000000       59        1        0        0        0
W       19.83946838       6.49400667      18.97894463     183.84000005       0.00000000       0.00000000       0.00000000       60        1        0        0        0
W       19.31641070       0.13484126      18.97331397     183.84000005       0.00000000       0.00000000       0.00000000       61        1       -1        1        0
W       12.23806743      15.13034222      18.97929265     183.84000005       0.00000000       0.00000000       0.00000000       62        1        0        0        0
W       14.86052312      13.30919857      18.98297577     183.84000005       0.00000000       0.00000000       0.00000000       63        1        0        0        0
W       17.48196591      11.48841619      18.97272648     183.84000005       0.00000000       0.00000000       0.00000000       64        1        0        0        0
W       20.10467742       9.67616088      18.96753991     183.84000005       0.00000000       0.00000000       0.00000000       65        1        0        0        0
W       22.72672563       7.86835061      18.98805957     183.84000005       0.00000000       0.00000000       0.00000000       66        1        0        0        0
W       15.11284508      16.49661770      18.98424658     183.84000005       0.00000000       0.00000000       0.00000000       67        1        0        0        0
W       17.73517914      14.67430796      18.97622266     183.84000005       0.00000000       0.00000000       0.00000000       68        1        0        0        0
W       20.36160254      12.85711388      18.96404574     183.84000005       0.00000000       0.00000000       0.00000000       69        1        0        0        0
W       22.99087933      11.04647607      18.97495818     183.84000005       0.00000000       0.00000000       0.00000000       70        1        0        0        0
W       20.61545411      16.03603439      18.98943323     183.84000005       0.00000000       0.00000000       0.00000000       71        1        0        0        0
W       23.24708126      14.22067686      18.97488487     183.84000005       0.00000000       0.00000000       0.00000000       72        1        0        0        0
W       25.88058401      12.40841707      18.99004571     183.84000005       0.00000000       0.00000000       0.00000000       73        1        0        0        0
W       26.13605762      15.58035710      18.97964886     183.84000005       0.00000000       0.00000000       0.00000000       74        1        0        0        0
S        2.63346677       1.81468473      14.10976880      32.06000001       0.00000000       0.00000000       0.00000000       75        2        0        0        0
S        2.61851421       1.80677016      10.94968923      32.06000001       0.00000000       0.00000000       0.00000000       76        2        0        0       -1
S        5.52537293       0.45432765      14.09356054      32.06000001       0.00000000       0.00000000       0.00000000       77        2        0        0        0
S        5.50273367       0.43887127      10.93503972      32.06000001       0.00000000       0.00000000       0.00000000       78        2        0        0       -1
S        5.26733476       3.62718637      14.07377949      32.06000001       0.00000000       0.00000000       0.00000000       79        2        0        0        0
S        5.23546845       3.61400204      10.91662434      32.06000001       0.00000000       0.00000000       0.00000000       80        2        0        0       -1
S        8.15450356       2.27672319      14.05524096      32.06000001       0.00000000       0.00000000       0.00000000       81        2        0        0        0
S        8.13099013       2.24981525      10.89932215      32.06000001       0.00000000       0.00000000       0.00000000       82        2        0        0       -1
S       11.03341369       0.92519888      14.06424468      32.06000001       0.00000000       0.00000000       0.00000000       83        2        0        0        0
S       11.02932313       0.89310546      10.90728859      32.06000001       0.00000000       0.00000000       0.00000000       84        2        0        0       -1
S        4.99535685       6.79617327      14.06686815      32.06000001       0.00000000       0.00000000       0.00000000       85        2        0        0        0
S        4.96641743       6.80357741      10.90989234      32.06000001       0.00000000       0.00000000       0.00000000       86        2        0        0       -1
S        7.88326604       5.44323877      14.03286893      32.06000001       0.00000000       0.00000000       0.00000000       87        2        0        0        0
S        7.85859613       5.43837918      10.87825920      32.06000001       0.00000000       0.00000000       0.00000000       88        2        0        0       -1
S       10.76338024       4.09935849      14.02754646      32.06000001       0.00000000       0.00000000       0.00000000       89        2        0        0        0
S       10.76272774       4.07883047      10.87314399      32.06000001       0.00000000       0.00000000       0.00000000       90        2        0        0       -1
S       13.64106996       2.74777243      14.05717810      32.06000001       0.00000000       0.00000000       0.00000000       91        2        0        0        0
S       13.66084063       2.72202471      10.90108081      32.06000001       0.00000000       0.00000000       0.00000000       92        2        0        0       -1
S       16.52131307       1.37848871      14.09745281      32.06000001       0.00000000       0.00000000       0.00000000       93        2        0        0        0
S       16.54088664       1.36468867      10.93844319      32.06000001       0.00000000       0.00000000       0.00000000       94        2        0        0       -1
S        7.60699006       8.60978908      14.04356116      32.06000001       0.00000000       0.00000000       0.00000000       95        2        0        0        0
S        7.58731387       8.63405245      10.88820494      32.06000001       0.00000000       0.00000000       0.00000000       96        2        0        0       -1
S       10.48645448       7.26401403      14.02056120      32.06000001       0.00000000       0.00000000       0.00000000       97        2        0        0        0
S       10.48779300       7.27450347      10.86651431      32.06000001       0.00000000       0.00000000       0.00000000       98        2        0        0       -1
S       13.36578248       5.92066694      14.03462463      32.06000001       0.00000000       0.00000000       0.00000000       99        2        0        0        0
S       13.39245280       5.91343986      10.87994222      32.06000001       0.00000000       0.00000000       0.00000000      100        2        0        0       -1
S       16.25139662       4.56376443      14.07550914      32.06000001       0.00000000       0.00000000       0.00000000      101        2        0        0        0
S       16.28373741       4.54824982      10.91829851      32.06000001       0.00000000       0.00000000       0.00000000      102        2        0        0       -1
S       19.14583834       3.18954280      14.10840866      32.06000001       0.00000000       0.00000000       0.00000000      103        2        0        0        0
S       19.15725618       3.17820169      10.94852572      32.06000001       0.00000000       0.00000000       0.00000000      104        2        0        0       -1
S        7.33755971      11.79014775      14.07828505      32.06000001       0.00000000       0.00000000       0.00000000      105        2        0        0        0
S        7.32752021      11.82261796      10.92084798      32.06000001       0.00000000       0.00000000       0.00000000      106        2        0        0       -1
S       10.21427710      10.43230755      14.05065176      32.06000001       0.00000000       0.00000000       0.00000000      107        2        0        0        0
S       10.21582486      10.46646124      10.89509592      32.06000001       0.00000000       0.00000000       0.00000000      108        2        0        0       -1
S       13.09337330       9.08705074      14.04523560      32.06000001       0.00000000       0.00000000       0.00000000      109        2        0        0        0
S       13.11676915       9.10540106      10.88972395      32.06000001       0.00000000       0.00000000       0.00000000      110        2        0        0       -1
S       15.97902976       7.73647667      14.06890422      32.06000001       0.00000000       0.00000000       0.00000000      111        2        0        0        0
S       16.01388214       7.73782917      10.91183456      32.06000001       0.00000000       0.00000000       0.00000000      112        2        0        0       -1
S       18.87580305       6.36841111      14.09649365      32.06000001       0.00000000       0.00000000       0.00000000      113        2        0        0        0
S       18.89457049       6.36349421      10.93774371      32.06000001       0.00000000       0.00000000       0.00000000      114        2        0        0       -1
S       21.77896384       4.99216184      14.09778966      32.06000001       0.00000000       0.00000000       0.00000000      115        2        0        0        0
S       21.76539198       4.98652892      10.93883844      32.06000001       0.00000000       0.00000000       0.00000000      116        2        0        0       -1
S        9.95427813      13.61496510      14.09417997      32.06000001       0.00000000       0.00000000       0.00000000      117        2        0        0        0
S        9.95580948      13.64437726      10.93546077      32.06000001       0.00000000       0.00000000       0.00000000      118        2        0        0       -1
S       12.83442931      12.25886709      14.08015673      32.06000001       0.00000000       0.00000000       0.00000000      119        2        0        0        0
S       12.84510705      12.28425246      10.92245685      32.06000001       0.00000000       0.00000000       0.00000000      120        2        0        0       -1
S       15.71855225      10.90829573      14.08444900      32.06000001       0.00000000       0.00000000       0.00000000      121        2        0        0        0
S       15.74130307      10.91892722      10.92601529      32.06000001       0.00000000       0.00000000       0.00000000      122        2        0        0       -1
S       18.60985035       9.54456152      14.09971366      32.06000001       0.00000000       0.00000000       0.00000000      123        2        0        0        0
S       18.62740576       9.54848040      10.94019987      32.06000001       0.00000000       0.00000000       0.00000000      124        2        0        0       -1
S       21.50815105       8.16736815      14.09738802      32.06000001       0.00000000       0.00000000       0.00000000      125        2        0        0        0
S       21.50045585       8.17501582      10.93816456      32.06000001       0.00000000       0.00000000       0.00000000      126        2        0        0       -1
S       29.11075637      16.80889205      14.11593072      32.06000001       0.00000000       0.00000000       0.00000000      127        2       -1        0        0
S       19.41017700       0.00400076      10.95530307      32.06000001       0.00000000       0.00000000       0.00000000      128        2       -1        1       -1
S       12.58773088      15.44022605      14.10840346      32.06000001       0.00000000       0.00000000       0.00000000      129        2        0        0        0
S       12.58223698      15.44955670      10.94851479      32.06000001       0.00000000       0.00000000       0.00000000      130        2        0        0       -1
S       15.47368140      14.08530700      14.09957470      32.06000001       0.00000000       0.00000000       0.00000000      131        2        0        0        0
S       15.47289701      14.08518593      10.94049077      32.06000001       0.00000000       0.00000000       0.00000000      132        2        0        0       -1
S       18.35937718      12.72657826      14.10461947      32.06000001       0.00000000       0.00000000       0.00000000      133        2        0        0        0
S       18.36356942      12.72101504      10.94471337      32.06000001       0.00000000       0.00000000       0.00000000      134        2        0        0       -1
S       21.24642347      11.35146660      14.10617641      32.06000001       0.00000000       0.00000000       0.00000000      135        2        0        0        0
S       21.24134482      11.35725521      10.94610343      32.06000001       0.00000000       0.00000000       0.00000000      136        2        0        0       -1
S       24.13325281       9.97258089      14.08301939      32.06000001       0.00000000       0.00000000       0.00000000      137        2        0        0        0
S       24.11329173       9.99465523      10.92468113      32.06000001       0.00000000       0.00000000       0.00000000      138        2        0        0       -1
S       18.11499291      15.91025602      14.08874802      32.06000001       0.00000000       0.00000000       0.00000000      139        2        0        0        0
S       18.10189150      15.88593729      10.93028000      32.06000001       0.00000000       0.00000000       0.00000000      140        2        0        0       -1
S       20.99460209      14.54531996      14.09849729      32.06000001       0.00000000       0.00000000       0.00000000      141        2        0        0        0
S       20.98910169      14.52914716      10.93898222      32.06000001       0.00000000       0.00000000       0.00000000      142        2        0        0       -1
S       23.87131240      13.16593488      14.09966164      32.06000001       0.00000000       0.00000000       0.00000000      143        2        0        0        0
S       23.86317037      13.17578109      10.94041065      32.06000001       0.00000000       0.00000000       0.00000000      144        2        0        0       -1
S       23.61267529      16.36716629      14.08965195      32.06000001       0.00000000       0.00000000       0.00000000      145        2        0        0        0
S       23.61884820      16.35040960      10.93118241      32.06000001       0.00000000       0.00000000       0.00000000      146        2        0        0       -1
S       26.48697158      14.98798877      14.10355785      32.06000001       0.00000000       0.00000000       0.00000000      147        2        0        0        0
S       26.49060818      14.99930104      10.94422354      32.06000001       0.00000000       0.00000000       0.00000000      148        2        0        0       -1
S        4.61224348       1.34616305      20.56807648      32.06000001       0.00000000       0.00000000       0.00000000      149        2        0        0        0
S        4.62825246       1.36710632      17.40929107      32.06000001       0.00000000       0.00000000       0.00000000      150        2        0        0        0
S        4.87051234       4.53431173      20.58676334      32.06000001       0.00000000       0.00000000       0.00000000      151        2        0        0        0
S        4.89664533       4.54926763      17.42936226      32.06000001       0.00000000       0.00000000       0.00000000      152        2        0        0        0
S        7.49196157       2.70400842      20.60119750      32.06000001       0.00000000       0.00000000       0.00000000      153        2        0        0        0
S        7.50865104       2.73482034      17.44518580      32.06000001       0.00000000       0.00000000       0.00000000      154        2        0        0        0
S       10.12054591       0.87510083      20.58981744      32.06000001       0.00000000       0.00000000       0.00000000      155        2        0        0        0
S       10.11907083       0.91117603      17.43319549      32.06000001       0.00000000       0.00000000       0.00000000      156        2        0        0        0
S        7.76010932       5.89854951      20.62204188      32.06000001       0.00000000       0.00000000       0.00000000      157        2        0        0        0
S        7.78356911       5.90489165      17.46736370      32.06000001       0.00000000       0.00000000       0.00000000      158        2        0        0        0
S       10.38880880       4.06252731      20.62660010      32.06000001       0.00000000       0.00000000       0.00000000      159        2        0        0        0
S       10.38726262       4.08389833      17.47225932      32.06000001       0.00000000       0.00000000       0.00000000      160        2        0        0        0
S       13.01793740       2.23561252      20.59975746      32.06000001       0.00000000       0.00000000       0.00000000      161        2        0        0        0
S       12.99818491       2.25951220      17.44355345      32.06000001       0.00000000       0.00000000       0.00000000      162        2        0        0        0
S       15.64399474       0.42712453      20.56736205      32.06000001       0.00000000       0.00000000       0.00000000      163        2        0        0        0
S       15.62897467       0.43590182      17.40857697      32.06000001       0.00000000       0.00000000       0.00000000      164        2        0        0        0
S        8.03332584       9.09128843      20.61096508      32.06000001       0.00000000       0.00000000       0.00000000      165        2        0        0        0
S        8.05816103       9.06990781      17.45577581      32.06000001       0.00000000       0.00000000       0.00000000      166        2        0        0        0
S       10.66407948       7.25860426      20.63351322      32.06000001       0.00000000       0.00000000       0.00000000      167        2        0        0        0
S       10.66374944       7.24823652      17.47945841      32.06000001       0.00000000       0.00000000       0.00000000      168        2        0        0        0
S       13.29329006       5.42402597      20.62038581      32.06000001       0.00000000       0.00000000       0.00000000      169        2        0        0        0
S       13.26660115       5.42674624      17.46562855      32.06000001       0.00000000       0.00000000       0.00000000      170        2        0        0        0
S       15.91540912       3.60263289      20.58478596      32.06000001       0.00000000       0.00000000       0.00000000      171        2        0        0        0
S       15.88316194       3.60944446      17.42723952      32.06000001       0.00000000       0.00000000       0.00000000      172        2        0        0        0
S       18.53178280       1.79515745      20.55713746      32.06000001       0.00000000       0.00000000       0.00000000      173        2        0        0        0
S       18.51783258       1.79802580      17.39732051      32.06000001       0.00000000       0.00000000       0.00000000      174        2        0        0        0
S       10.93468237      10.44904417      20.60650435      32.06000001       0.00000000       0.00000000       0.00000000      175        2        0        0        0
S       10.93755874      10.41774041      17.45067268      32.06000001       0.00000000       0.00000000       0.00000000      176        2        0        0        0
S       13.56567439       8.61737593      20.60922557      32.06000001       0.00000000       0.00000000       0.00000000      177        2        0        0        0
S       13.54234691       8.59574707      17.45390429      32.06000001       0.00000000       0.00000000       0.00000000      178        2        0        0        0
S       16.18751056       6.79085329      20.58666435      32.06000001       0.00000000       0.00000000       0.00000000      179        2        0        0        0
S       16.15275781       6.78055139      17.42981182      32.06000001       0.00000000       0.00000000       0.00000000      180        2        0        0        0
S       18.79825873       4.97633695      20.56292012      32.06000001       0.00000000       0.00000000       0.00000000      181        2        0        0        0
S       18.77853801       4.97584277      17.40404917      32.06000001       0.00000000       0.00000000       0.00000000      182        2        0        0        0
S        1.99657631       3.16538347      20.55890524      32.06000001       0.00000000       0.00000000       0.00000000      183        2        1        0        0
S        2.00275537       3.17517570      17.39928924      32.06000001       0.00000000       0.00000000       0.00000000      184        2        1        0        0
S       11.19340819      13.62595994      20.57018811      32.06000001       0.00000000       0.00000000       0.00000000      185        2        0        0        0
S       11.19877848      13.60167792      17.41138964      32.06000001       0.00000000       0.00000000       0.00000000      186        2        0        0        0
S       13.82451475      11.80226382      20.57857902      32.06000001       0.00000000       0.00000000       0.00000000      187        2        0        0        0
S       13.81305796      11.77891917      17.42087136      32.06000001       0.00000000       0.00000000       0.00000000      188        2        0        0        0
S       16.44998786       9.97784478      20.56874910      32.06000001       0.00000000       0.00000000       0.00000000      189        2        0        0        0
S       16.42506993       9.96018129      17.41037524      32.06000001       0.00000000       0.00000000       0.00000000      190        2        0        0        0
S       19.06367590       8.16342105      20.55631171      32.06000001       0.00000000       0.00000000       0.00000000      191        2        0        0        0
S       19.04918079       8.15235028      17.39699604      32.06000001       0.00000000       0.00000000       0.00000000      192        2        0        0        0
S       21.66975373       6.35317915      20.56321916      32.06000001       0.00000000       0.00000000       0.00000000      193        2        0        0        0
S       21.68122160       6.35242520      17.40441435      32.06000001       0.00000000       0.00000000       0.00000000      194        2        0        0        0
S       11.44523895      16.79650449      20.55353819      32.06000001       0.00000000       0.00000000       0.00000000      195        2        0        0        0
S       11.45038039      16.79576803      17.39344659      32.06000001       0.00000000       0.00000000       0.00000000      196        2        0        0        0
S       14.07044830      14.97769358      20.55941366      32.06000001       0.00000000       0.00000000       0.00000000      197        2        0        0        0
S       14.07365627      14.97791860      17.40019267      32.06000001       0.00000000       0.00000000       0.00000000      198        2        0        0        0
S       16.69827436      13.15484875      20.55456078      32.06000001       0.00000000       0.00000000       0.00000000      199        2        0        0        0
S       16.68895869      13.15568181      17.39503492      32.06000001       0.00000000       0.00000000       0.00000000      200        2        0        0        0
S       19.31994901      11.34192894      20.54490356      32.06000001       0.00000000       0.00000000       0.00000000      201        2        0        0        0
S       19.31362024      11.33804602      17.38429124      32.06000001       0.00000000       0.00000000       0.00000000      202        2        0        0        0
S       21.93397483       9.53759233      20.55419042      32.06000001       0.00000000       0.00000000       0.00000000      203        2        0        0        0
S       21.94952976       9.52797087      17.39449909      32.06000001       0.00000000       0.00000000       0.00000000      204        2        0        0        0
S        5.13839559       7.72628298      20.58830388      32.06000001       0.00000000       0.00000000       0.00000000      205        2        1        0        0
S        5.17027023       7.71930255      17.43146550      32.06000001       0.00000000       0.00000000       0.00000000      206        2        1        0        0
S       16.94229245      16.32912633      20.56795606      32.06000001       0.00000000       0.00000000       0.00000000      207        2        0        0        0
S       16.94784126      16.35661676      17.40970448      32.06000001       0.00000000       0.00000000       0.00000000      208        2        0        0        0
S       19.56976543      14.51102182      20.55389409      32.06000001       0.00000000       0.00000000       0.00000000      209        2        0        0        0
S       19.56778787      14.53224303      17.39418363      32.06000001       0.00000000       0.00000000       0.00000000      210        2        0        0        0
S       22.19368340      12.70805175      20.54825059      32.06000001       0.00000000       0.00000000       0.00000000      211        2        0        0        0
S       22.20380374      12.70979524      17.38802264      32.06000001       0.00000000       0.00000000       0.00000000      212        2        0        0        0
S       24.81631512      10.90737085      20.57132024      32.06000001       0.00000000       0.00000000       0.00000000      213        2        0        0        0
S       24.84398861      10.89001739      17.41326779      32.06000001       0.00000000       0.00000000       0.00000000      214        2        0        0        0
S       22.45416445      15.87171750      20.56581703      32.06000001       0.00000000       0.00000000       0.00000000      215        2        0        0        0
S       22.44945312      15.89325278      17.40721617      32.06000001       0.00000000       0.00000000       0.00000000      216        2        0        0        0
S       25.08189651      14.07322927      20.55886917      32.06000001       0.00000000       0.00000000       0.00000000      217        2        0        0        0
S       25.09150600      14.06675337      17.39983657      32.06000001       0.00000000       0.00000000       0.00000000      218        2        0        0        0
S        8.30202029      12.26992855      20.58008283      32.06000001       0.00000000       0.00000000       0.00000000      219        2        1        0        0
S        8.32001797      12.24177924      17.42251572      32.06000001       0.00000000       0.00000000       0.00000000      220        2        1        0        0
S       27.97409546      15.43598045      20.55771867      32.06000001       0.00000000       0.00000000       0.00000000      221        2        0        0        0
S       27.97635234      15.42336242      17.39809858      32.06000001       0.00000000       0.00000000       0.00000000      222        2        0        0        0
