LAMMPS data file via write_data, version 28 Mar 2023, timestep = 19, units = metal

42 atoms
2 atom types

0 8.442333499217797 xlo xhi
0 7.311275277542988 ylo yhi
0 30 zlo zhi
-4.221166749608897 0 0 xy xz yz

Masses

1 183.84
2 32.06

Atoms # atomic

8 1 4.711720020406609 0.8296240124835147 6.513305662980835 0 0 0
9 1 5.310566199300492 3.961956285001367 6.514330794779008 0 0 0
10 1 -0.7174117746028633 1.8760913939447696 6.514823683072692 1 0 0
11 1 -2.5256837065668964 7.093778196860662 6.5148411226389245 1 0 0
12 1 -0.11461317112450908 5.006732963020651 6.510243290488178 1 0 0
13 1 2.298980511518591 2.9155398792004696 6.513582509798015 1 0 0
14 1 2.8984025111685767 6.049877983582701 6.513596350429025 1 0 0
15 2 2.409619959679361 2.0950652195250536 1.56545222044478 0 0 0
17 2 5.424235678350266 1.0429112545372983 1.5677915060147125 0 0 0
19 2 4.827970642231274 4.176695143822658 1.5682310858025628 0 0 0
21 2 -0.6093440947840734 3.1314622952987587 1.5664324937087775 1 0 0
23 2 -4.2198663544465855 7.310109192939113 1.5559747511555155 1 0 0
25 2 -1.2045831568899326 6.271756846778443 1.5676788122870005 1 0 0
27 2 1.8117233917329982 5.22001339479707 1.5693765983977659 1 0 0
30 2 2.9041202197279667 1.1721465591270168 4.934524191975648 0 0 0
32 2 3.5009837605892815 4.308512215403793 4.931846741961771 0 0 0
34 2 5.916806058809318 2.226099766376981 4.93217482222923 0 0 0
36 2 8.32654072017453 0.13403693470908448 4.9440219983251374 0 1 0
38 2 -1.9284935746090954 5.350891216732231 4.932952743523366 1 0 0
40 2 0.4938356611212642 3.264836417011762 4.933089800807665 1 0 0
42 2 1.090568602057155 6.402797967160097 4.930457506088456 1 0 0
29 2 2.9019475683779303 1.1754694704864619 8.092695516100887 0 0 0
31 2 3.5021209458124507 4.309905206673878 8.092686540010806 0 0 0
33 2 5.915870017552458 2.22219355774552 8.093043890043463 0 0 0
35 2 8.327091462023873 0.13236474506789594 8.09302141959184 0 1 0
37 2 -1.9225801704603904 5.3533800669013605 8.091859817062302 1 0 0
39 2 0.48956285299370816 3.2676146161306905 8.091636931800092 1 0 0
41 2 1.0902572500645902 6.398533477364555 8.091183138334314 1 0 0
1 1 0.6018934733565562 1.7429580862046088 29.984942180380038 0 0 -1
2 1 3.616644897240903 0.6986512562074156 29.98668243970579 0 0 -1
3 1 3.0166975166816803 3.831377721326214 29.98643347355513 0 0 -1
4 1 6.028491706739155 2.7838060319192786 29.985667495484307 0 0 -1
5 1 2.4101351922846552 6.962099846447003 29.986373622234552 0 0 -1
6 1 -3.012691401002805 5.917486722541813 29.98540696060845 1 0 -1
7 1 -0.00015886483912463945 4.874452485390515 29.989756142233855 1 0 -1
16 2 2.4114974260628674 2.0909719389277504 28.40723613055483 0 0 -1
18 2 5.42582782083837 1.0435097710869257 28.407417690113352 0 0 -1
20 2 4.824809859469546 4.177948454930559 28.406922597733157 0 0 -1
22 2 -0.6041065424047962 3.1353743270806773 28.408078981970302 1 0 -1
24 2 4.220811612300509 7.310971270918 28.406975704620837 0 0 -1
26 2 -1.2042468745918113 6.267092428080507 28.408511965286056 1 0 -1
28 2 1.807619353561046 5.222023692616609 28.408738675666466 1 0 -1

Velocities

8 0 0 0
9 0 0 0
10 0 0 0
11 0 0 0
12 0 0 0
13 0 0 0
14 0 0 0
15 0 0 0
17 0 0 0
19 0 0 0
21 0 0 0
23 0 0 0
25 0 0 0
27 0 0 0
30 0 0 0
32 0 0 0
34 0 0 0
36 0 0 0
38 0 0 0
40 0 0 0
42 0 0 0
29 0 0 0
31 0 0 0
33 0 0 0
35 0 0 0
37 0 0 0
39 0 0 0
41 0 0 0
1 0 0 0
2 0 0 0
3 0 0 0
4 0 0 0
5 0 0 0
6 0 0 0
7 0 0 0
16 0 0 0
18 0 0 0
20 0 0 0
22 0 0 0
24 0 0 0
26 0 0 0
28 0 0 0
