366
Lattice="25.952477955894548 0.0 0.0 12.976238977947268 22.475505200960317 0.0 0.0 0.0 30.0" Properties=species:S:1:pos:R:3:masses:R:1:momenta:R:3:id:I:1:type:I:1:travel:I:3 comment="LAMMPS data file via write_data, version 28 Mar 2023, timestep = 62, units = metal" pbc="T T T"
W       26.79780177       1.72169751      12.19770637     183.84000005       0.00000000       0.00000000       0.00000000        1        1       -1        0       -1
W        3.82937311       0.25945598      12.21482053     183.84000005       0.00000000       0.00000000       0.00000000        2        1        0        0       -1
W        3.60601234       3.57576001      12.23026449     183.84000005       0.00000000       0.00000000       0.00000000        3        1        0        0       -1
W        6.58841672       2.10967272      12.26007860     183.84000005       0.00000000       0.00000000       0.00000000        4        1        0        0       -1
W        9.56842093       0.63351346      12.30230637     183.84000005       0.00000000       0.00000000       0.00000000        5        1        0        0       -1
W       29.34182981       6.88852899      12.27258121     183.84000005       0.00000000       0.00000000       0.00000000        6        1       -1        0       -1
W        6.37173263       5.42331631      12.28404353     183.84000005       0.00000000       0.00000000       0.00000000        7        1        0        0       -1
W        9.35194848       3.94951490      12.31164463     183.84000005       0.00000000       0.00000000       0.00000000        8        1        0        0       -1
W       12.32999863       2.46510955      12.33131990     183.84000005       0.00000000       0.00000000       0.00000000        9        1        0        0       -1
W       15.30888930       0.97592709      12.32329695     183.84000005       0.00000000       0.00000000       0.00000000       10        1        0        0       -1
W        6.16350102       8.73199316      12.31510161     183.84000005       0.00000000       0.00000000       0.00000000       11        1        0        0       -1
W        9.14374552       7.26043765      12.32929227     183.84000005       0.00000000       0.00000000       0.00000000       12        1        0        0       -1
W       12.11978443       5.77976051      12.34346665     183.84000005       0.00000000       0.00000000       0.00000000       13        1        0        0       -1
W       15.09371316       4.29259590      12.33531409     183.84000005       0.00000000       0.00000000       0.00000000       14        1        0        0       -1
W       18.07040442       2.80792412      12.29699012     183.84000005       0.00000000       0.00000000       0.00000000       15        1        0        0       -1
W       21.05271068       1.33332648      12.24352743     183.84000005       0.00000000       0.00000000       0.00000000       16        1        0        0       -1
W       31.91291484      12.03796049      12.33148198     183.84000005       0.00000000       0.00000000       0.00000000       17        1       -1        0       -1
W        8.94214976      10.56769787      12.33386131     183.84000005       0.00000000       0.00000000       0.00000000       18        1        0        0       -1
W       11.91813359       9.09180018      12.34611649     183.84000005       0.00000000       0.00000000       0.00000000       19        1        0        0       -1
W       14.88829665       7.60924652      12.34718431     183.84000005       0.00000000       0.00000000       0.00000000       20        1        0        0       -1
W       17.85749087       6.12567530      12.32082586     183.84000005       0.00000000       0.00000000       0.00000000       21        1        0        0       -1
W       20.83183120       4.64936794      12.27067160     183.84000005       0.00000000       0.00000000       0.00000000       22        1        0        0       -1
W       23.81309797       3.18302739      12.22031932     183.84000005       0.00000000       0.00000000       0.00000000       23        1        0        0       -1
W        8.73873825      13.87429904      12.31362035     183.84000005       0.00000000       0.00000000       0.00000000       24        1        0        0       -1
W       11.71816085      12.40294095      12.32259052     183.84000005       0.00000000       0.00000000       0.00000000       25        1        0        0       -1
W       14.68935124      10.92650738      12.33693948     183.84000005       0.00000000       0.00000000       0.00000000       26        1        0        0       -1
W       17.65467745       9.44627519      12.33545834     183.84000005       0.00000000       0.00000000       0.00000000       27        1        0        0       -1
W       20.62105035       7.96858195      12.30816442     183.84000005       0.00000000       0.00000000       0.00000000       28        1        0        0       -1
W       23.59447018       6.49919990      12.26532560     183.84000005       0.00000000       0.00000000       0.00000000       29        1        0        0       -1
W       26.57504448       5.03689085      12.23226495     183.84000005       0.00000000       0.00000000       0.00000000       30        1        0        0       -1
W       34.47785229      17.18297094      12.27638633     183.84000005       0.00000000       0.00000000       0.00000000       31        1       -1        0       -1
W       11.50971572      15.71497703      12.27532262     183.84000005       0.00000000       0.00000000       0.00000000       32        1        0        0       -1
W       14.48672581      14.24464468      12.29687442     183.84000005       0.00000000       0.00000000       0.00000000       33        1        0        0       -1
W       17.45515227      12.76952600      12.32193338     183.84000005       0.00000000       0.00000000       0.00000000       34        1        0        0       -1
W       20.41913290      11.29202547      12.32999603     183.84000005       0.00000000       0.00000000       0.00000000       35        1        0        0       -1
W       23.38609169       9.81812872      12.31404936     183.84000005       0.00000000       0.00000000       0.00000000       36        1        0        0       -1
W       26.36080655       8.35128594      12.28698513     183.84000005       0.00000000       0.00000000       0.00000000       37        1        0        0       -1
W       11.28924398      19.02857986      12.22668543     183.84000005       0.00000000       0.00000000       0.00000000       38        1        0        0       -1
W       14.27237956      17.56298298      12.24194596     183.84000005       0.00000000       0.00000000       0.00000000       39        1        0        0       -1
W       17.24835941      16.09342434      12.28118471     183.84000005       0.00000000       0.00000000       0.00000000       40        1        0        0       -1
W       20.21723434      14.61826689      12.32113641     183.84000005       0.00000000       0.00000000       0.00000000       41        1        0        0       -1
W       23.18402315      13.14061791      12.34027078     183.84000005       0.00000000       0.00000000       0.00000000       42        1        0        0       -1
W       26.15544205      11.66661891      12.33383404     183.84000005       0.00000000       0.00000000       0.00000000       43        1        0        0       -1
W       29.13390568      10.19850692      12.31816774     183.84000005       0.00000000       0.00000000       0.00000000       44        1        0        0       -1
W       37.01500144      22.34332974      12.20423891     183.84000005       0.00000000       0.00000000       0.00000000       45        1       -1        0       -1
W       14.04816794      20.88068838      12.20140068     183.84000005       0.00000000       0.00000000       0.00000000       46        1        0        0       -1
W       17.03013784      19.41558645      12.23598508     183.84000005       0.00000000       0.00000000       0.00000000       47        1        0        0       -1
W       20.00641813      17.94398328      12.28967523     183.84000005       0.00000000       0.00000000       0.00000000       48        1        0        0       -1
W       22.97854843      16.46504092      12.33497011     183.84000005       0.00000000       0.00000000       0.00000000       49        1        0        0       -1
W       25.95175811      14.98418384      12.35197592     183.84000005       0.00000000       0.00000000       0.00000000       50        1        0        0       -1
W       28.93022333      13.50830900      12.34356071     183.84000005       0.00000000       0.00000000       0.00000000       51        1        0        0       -1
W       19.78654566      21.26661090      12.26194089     183.84000005       0.00000000       0.00000000       0.00000000       52        1        0        0       -1
W       22.76417251      19.78855252      12.31373880     183.84000005       0.00000000       0.00000000       0.00000000       53        1        0        0       -1
W       25.74135915      18.30349316      12.34347788     183.84000005       0.00000000       0.00000000       0.00000000       54        1        0        0       -1
W       28.72195124      16.82025561      12.34162613     183.84000005       0.00000000       0.00000000       0.00000000       55        1        0        0       -1
W       31.70649101      15.34462166      12.32331381     183.84000005       0.00000000       0.00000000       0.00000000       56        1        0        0       -1
W       25.52382203      21.62291922      12.33020636     183.84000005       0.00000000       0.00000000       0.00000000       57        1        0        0       -1
W       28.50528672      20.13495874      12.32744291     183.84000005       0.00000000       0.00000000       0.00000000       58        1        0        0       -1
W       31.49070107      18.65446082      12.30095428     183.84000005       0.00000000       0.00000000       0.00000000       59        1        0        0       -1
W       31.26804462      21.96776543      12.28745240     183.84000005       0.00000000       0.00000000       0.00000000       60        1        0        0       -1
W       34.25474300      20.49471335      12.24587995     183.84000005       0.00000000       0.00000000       0.00000000       61        1        0        0       -1
W        4.86172123       1.39167056      19.26953584     183.84000005       0.00000000       0.00000000       0.00000000       62        1        0        0        0
W        5.08336825       4.70752377      19.24023916     183.84000005       0.00000000       0.00000000       0.00000000       63        1        0        0        0
W        7.84469582       2.86316554      19.21585090     183.84000005       0.00000000       0.00000000       0.00000000       64        1        0        0        0
W       10.60597508       1.02859991      19.18465980     183.84000005       0.00000000       0.00000000       0.00000000       65        1        0        0        0
W        8.05860423       6.18095759      19.18848199     183.84000005       0.00000000       0.00000000       0.00000000       66        1        0        0        0
W       10.82181744       4.34533172      19.17075106     183.84000005       0.00000000       0.00000000       0.00000000       67        1        0        0        0
W       13.58514352       2.51716888      19.16634366     183.84000005       0.00000000       0.00000000       0.00000000       68        1        0        0        0
W       16.34695995       0.68761054      19.18675430     183.84000005       0.00000000       0.00000000       0.00000000       69        1        0        0        0
W        8.26221295       9.50214702      19.16866345     183.84000005       0.00000000       0.00000000       0.00000000       70        1        0        0        0
W       11.02768723       7.66294024      19.15647334     183.84000005       0.00000000       0.00000000       0.00000000       71        1        0        0        0
W       13.79514343       5.83240971      19.15411502     183.84000005       0.00000000       0.00000000       0.00000000       72        1        0        0        0
W       16.56259106       4.00362605      19.17803578     183.84000005       0.00000000       0.00000000       0.00000000       73        1        0        0        0
W       19.32653056       2.16692625      19.22544707     183.84000005       0.00000000       0.00000000       0.00000000       74        1        0        0        0
W       22.08585456       0.31905506      19.27375176     183.84000005       0.00000000       0.00000000       0.00000000       75        1        0        0        0
W       11.22676110      10.98193051      19.16421879     183.84000005       0.00000000       0.00000000       0.00000000       76        1        0        0        0
W       13.99641810       9.14588600      19.15264152     183.84000005       0.00000000       0.00000000       0.00000000       77        1        0        0        0
W       16.76974861       7.31502082      19.16348281     183.84000005       0.00000000       0.00000000       0.00000000       78        1        0        0        0
W       19.54188437       5.48036259      19.20406065     183.84000005       0.00000000       0.00000000       0.00000000       79        1        0        0        0
W       22.30829771       3.63539399      19.25903730     183.84000005       0.00000000       0.00000000       0.00000000       80        1        0        0        0
W       25.06929795       1.78229070      19.29908718     183.84000005       0.00000000       0.00000000       0.00000000       81        1        0        0        0
W       11.42919568      14.30207244      19.20218139     183.84000005       0.00000000       0.00000000       0.00000000       82        1        0        0        0
W       14.19614272      12.45898417      19.17841959     183.84000005       0.00000000       0.00000000       0.00000000       83        1        0        0        0
W       16.97056562      10.62317744      19.16435126     183.84000005       0.00000000       0.00000000       0.00000000       84        1        0        0        0
W       19.74879272       8.78873462      19.17864821     183.84000005       0.00000000       0.00000000       0.00000000       85        1        0        0        0
W       22.52381376       6.94754546      19.21990399     183.84000005       0.00000000       0.00000000       0.00000000       86        1        0        0        0
W       25.29160478       5.09734427      19.26502391     183.84000005       0.00000000       0.00000000       0.00000000       87        1        0        0        0
W        2.10142896       3.24319060      19.28562646     183.84000005       0.00000000       0.00000000       0.00000000       88        1        1        0        0
W       14.40457625      15.77289918      19.22824159     183.84000005       0.00000000       0.00000000       0.00000000       89        1        0        0        0
W       17.17389880      13.93090955      19.19098884     183.84000005       0.00000000       0.00000000       0.00000000       90        1        0        0        0
W       19.95125488      12.09438886      19.16987423     183.84000005       0.00000000       0.00000000       0.00000000       91        1        0        0        0
W       22.73088672      10.25632577      19.17953008     183.84000005       0.00000000       0.00000000       0.00000000       92        1        0        0        0
W       25.50548875       8.41073859      19.21137414     183.84000005       0.00000000       0.00000000       0.00000000       93        1        0        0        0
W       28.27289828       6.55892938      19.23889924     183.84000005       0.00000000       0.00000000       0.00000000       94        1        0        0        0
W       14.62514431      19.08785349      19.27880021     183.84000005       0.00000000       0.00000000       0.00000000       95        1        0        0        0
W       17.38785474      17.24056766      19.23355925     183.84000005       0.00000000       0.00000000       0.00000000       96        1        0        0        0
W       20.15813388      15.40075961      19.18517504     183.84000005       0.00000000       0.00000000       0.00000000       97        1        0        0        0
W       22.93457853      13.56450319      19.15968244     183.84000005       0.00000000       0.00000000       0.00000000       98        1        0        0        0
W       25.71086049      11.72419998      19.16563146     183.84000005       0.00000000       0.00000000       0.00000000       99        1        0        0        0
W       28.48183019       9.87665664      19.18702439     183.84000005       0.00000000       0.00000000       0.00000000      100        1        0        0        0
W        5.29513540       8.02631285      19.19816371     183.84000005       0.00000000       0.00000000       0.00000000      101        1        1        0        0
W       14.85190850      22.40331836      19.30205165     183.84000005       0.00000000       0.00000000       0.00000000      102        1        0        0        0
W       17.61160885      20.55290511      19.26691948     183.84000005       0.00000000       0.00000000       0.00000000      103        1        0        0        0
W       20.37495532      18.71029854      19.21206780     183.84000005       0.00000000       0.00000000       0.00000000      104        1        0        0        0
W       23.14358598      16.87482920      19.16558667     183.84000005       0.00000000       0.00000000       0.00000000      105        1        0        0        0
W       25.91492410      15.03954897      19.14802272     183.84000005       0.00000000       0.00000000       0.00000000      106        1        0        0        0
W       28.68434073      13.19752220      19.15686366     183.84000005       0.00000000       0.00000000       0.00000000      107        1        0        0        0
W       31.45026912      11.34934451      19.17004601     183.84000005       0.00000000       0.00000000       0.00000000      108        1        0        0        0
W       20.59859513      22.02327465      19.22682095     183.84000005       0.00000000       0.00000000       0.00000000      109        1        0        0        0
W       23.36122959      20.18829984      19.18123108     183.84000005       0.00000000       0.00000000       0.00000000      110        1        0        0        0
W       26.12583822      18.35695739      19.15614125     183.84000005       0.00000000       0.00000000       0.00000000      111        1        0        0        0
W       28.88997594      16.52045630      19.15834866     183.84000005       0.00000000       0.00000000       0.00000000      112        1        0        0        0
W       31.65229765      14.67534111      19.17249070     183.84000005       0.00000000       0.00000000       0.00000000      113        1        0        0        0
W        8.46194985      12.82645975      19.17635998     183.84000005       0.00000000       0.00000000       0.00000000      114        1        1        0        0
W       26.34373470      21.67526071      19.16839319     183.84000005       0.00000000       0.00000000       0.00000000      115        1        0        0        0
W       29.10417056      19.84303047      19.17669626     183.84000005       0.00000000       0.00000000       0.00000000      116        1        0        0        0
W       31.86268856      18.00107648      19.19894327     183.84000005       0.00000000       0.00000000       0.00000000      117        1        0        0        0
W       34.62081941      16.15155024      19.21205887     183.84000005       0.00000000       0.00000000       0.00000000      118        1        0        0        0
W       32.08183912      21.32383623      19.22388874     183.84000005       0.00000000       0.00000000       0.00000000      119        1        0        0        0
W       34.83832151      19.47465224      19.25393015     183.84000005       0.00000000       0.00000000       0.00000000      120        1        0        0        0
W       11.64310861      17.62207705      19.25569290     183.84000005       0.00000000       0.00000000       0.00000000      121        1        1        0        0
W       37.81936036      20.94081500      19.29552074     183.84000005       0.00000000       0.00000000       0.00000000      122        1        0        0        0
Se       2.74611561       1.84641001      13.89441302      78.97100002       0.00000000       0.00000000       0.00000000      123        2        0        0        0
Se       2.77275213       1.86046311      10.52759264      78.97100002       0.00000000       0.00000000       0.00000000      124        2        0        0       -1
Se       5.71829993       0.39014880      13.92724105      78.97100002       0.00000000       0.00000000       0.00000000      125        2        0        0        0
Se       5.76725429       0.38706850      10.56006579      78.97100002       0.00000000       0.00000000       0.00000000      126        2        0        0       -1
Se       5.49763836       3.69479869      13.94087257      78.97100002       0.00000000       0.00000000       0.00000000      127        2        0        0        0
Se       5.54232242       3.71554810      10.57297482      78.97100002       0.00000000       0.00000000       0.00000000      128        2        0        0       -1
Se       8.47748981       2.22964305      13.97645115      78.97100002       0.00000000       0.00000000       0.00000000      129        2        0        0        0
Se       8.52662468       2.23561883      10.60731609      78.97100002       0.00000000       0.00000000       0.00000000      130        2        0        0       -1
Se      11.46790725       0.74884595      14.00843148      78.97100002       0.00000000       0.00000000       0.00000000      131        2        0        0        0
Se      11.49656839       0.74763309      10.63826034      78.97100002       0.00000000       0.00000000       0.00000000      132        2        0        0       -1
Se       5.28983592       7.00313496      13.97550101      78.97100002       0.00000000       0.00000000       0.00000000      133        2        0        0        0
Se       5.31931908       7.03101476      10.60652221      78.97100002       0.00000000       0.00000000       0.00000000      134        2        0        0       -1
Se       8.26735340       5.53931520      13.99535675      78.97100002       0.00000000       0.00000000       0.00000000      135        2        0        0        0
Se       8.30598379       5.55375723      10.62483774      78.97100002       0.00000000       0.00000000       0.00000000      136        2        0        0       -1
Se      11.25298736       4.06045023      14.01767725      78.97100002       0.00000000       0.00000000       0.00000000      137        2        0        0        0
Se      11.27954661       4.06955117      10.64600432      78.97100002       0.00000000       0.00000000       0.00000000      138        2        0        0       -1
Se      14.24535331       2.57007136      14.01860582      78.97100002       0.00000000       0.00000000       0.00000000      139        2        0        0        0
Se      14.24263474       2.58043485      10.64720393      78.97100002       0.00000000       0.00000000       0.00000000      140        2        0        0       -1
Se      17.24000791       1.08282422      13.98839579      78.97100002       0.00000000       0.00000000       0.00000000      141        2        0        0        0
Se      17.20697075       1.09248923      10.61892794      78.97100002       0.00000000       0.00000000       0.00000000      142        2        0        0       -1
Se       8.07173836       8.85298089      14.01439833      78.97100002       0.00000000       0.00000000       0.00000000      143        2        0        0        0
Se       8.08920332       8.85741089      10.64318574      78.97100002       0.00000000       0.00000000       0.00000000      144        2        0        0       -1
Se      11.05130609       7.37727499      14.02990645      78.97100002       0.00000000       0.00000000       0.00000000      145        2        0        0        0
Se      11.06734000       7.37918855      10.65718929      78.97100002       0.00000000       0.00000000       0.00000000      146        2        0        0       -1
Se      14.03470172       5.88750518      14.03253089      78.97100002       0.00000000       0.00000000       0.00000000      147        2        0        0        0
Se      14.03254906       5.89798166      10.65962990      78.97100002       0.00000000       0.00000000       0.00000000      148        2        0        0       -1
Se      17.02015061       4.39429744      14.00561408      78.97100002       0.00000000       0.00000000       0.00000000      149        2        0        0        0
Se      16.99333183       4.41683336      10.63453076      78.97100002       0.00000000       0.00000000       0.00000000      150        2        0        0       -1
Se      20.00485109       2.91378954      13.95407291      78.97100002       0.00000000       0.00000000       0.00000000      151        2        0        0        0
Se      19.96349777       2.93977275      10.58564688      78.97100002       0.00000000       0.00000000       0.00000000      152        2        0        0       -1
Se      22.98420943       1.45197396      13.90321478      78.97100002       0.00000000       0.00000000       0.00000000      153        2        0        0        0
Se      22.95107106       1.46713841      10.53632416      78.97100002       0.00000000       0.00000000       0.00000000      154        2        0        0       -1
Se       7.88373119      12.16866017      14.01397623      78.97100002       0.00000000       0.00000000       0.00000000      155        2        0        0        0
Se       7.87471575      12.15222207      10.64346139      78.97100002       0.00000000       0.00000000       0.00000000      156        2        0        0       -1
Se      10.85971659      10.69845708      14.02363731      78.97100002       0.00000000       0.00000000       0.00000000      157        2        0        0        0
Se      10.85913555      10.67826383      10.65155863      78.97100002       0.00000000       0.00000000       0.00000000      158        2        0        0       -1
Se      13.83491980       9.21404049      14.03415548      78.97100002       0.00000000       0.00000000       0.00000000      159        2        0        0        0
Se      13.83051063       9.20509053      10.66110798      78.97100002       0.00000000       0.00000000       0.00000000      160        2        0        0       -1
Se      16.80979420       7.71924706      14.02409096      78.97100002       0.00000000       0.00000000       0.00000000      161        2        0        0        0
Se      16.79131841       7.73300940      10.65187335      78.97100002       0.00000000       0.00000000       0.00000000      162        2        0        0       -1
Se      19.78472507       6.22830643      13.98588817      78.97100002       0.00000000       0.00000000       0.00000000      163        2        0        0        0
Se      19.75391867       6.26357291      10.61612981      78.97100002       0.00000000       0.00000000       0.00000000      164        2        0        0       -1
Se      22.75905138       4.75475368      13.93422468      78.97100002       0.00000000       0.00000000       0.00000000      165        2        0        0        0
Se      22.73091076       4.79685149      10.56676929      78.97100002       0.00000000       0.00000000       0.00000000      166        2        0        0       -1
Se      25.73003474       3.29773630      13.89694545      78.97100002       0.00000000       0.00000000       0.00000000      167        2        0        0        0
Se      25.72464719       3.32992024      10.53019063      78.97100002       0.00000000       0.00000000       0.00000000      168        2        0        0       -1
Se      10.66577047      14.01811050      13.98998946      78.97100002       0.00000000       0.00000000       0.00000000      169        2        0        0        0
Se      10.64829558      13.97677220      10.62022802      78.97100002       0.00000000       0.00000000       0.00000000      170        2        0        0       -1
Se      13.63769148      12.54355189      14.00685487      78.97100002       0.00000000       0.00000000       0.00000000      171        2        0        0        0
Se      13.63026305      12.50781999      10.63566223      78.97100002       0.00000000       0.00000000       0.00000000      172        2        0        0       -1
Se      16.60625712      11.05464086      14.02047454      78.97100002       0.00000000       0.00000000       0.00000000      173        2        0        0        0
Se      16.59799484      11.04228828      10.64871674      78.97100002       0.00000000       0.00000000       0.00000000      174        2        0        0       -1
Se      19.57302894       9.55926196      14.01226558      78.97100002       0.00000000       0.00000000       0.00000000      175        2        0        0        0
Se      19.55816080       9.57922538      10.64160603      78.97100002       0.00000000       0.00000000       0.00000000      176        2        0        0       -1
Se      22.54078514       8.07273925      13.98071571      78.97100002       0.00000000       0.00000000       0.00000000      177        2        0        0        0
Se      22.52402047       8.11766774      10.61201862      78.97100002       0.00000000       0.00000000       0.00000000      178        2        0        0       -1
Se      25.50978609       6.60441136      13.94388851      78.97100002       0.00000000       0.00000000       0.00000000      179        2        0        0        0
Se      25.50533179       6.65491960      10.57655956      78.97100002       0.00000000       0.00000000       0.00000000      180        2        0        0       -1
Se      28.47863246       5.14926874      13.92661258      78.97100002       0.00000000       0.00000000       0.00000000      181        2        0        0        0
Se      28.49967255       5.18806465      10.55946846      78.97100002       0.00000000       0.00000000       0.00000000      182        2        0        0       -1
Se      10.45729328      17.32957828      13.94195311      78.97100002       0.00000000       0.00000000       0.00000000      183        2        0        0        0
Se      10.42892898      17.28607674      10.57439158      78.97100002       0.00000000       0.00000000       0.00000000      184        2        0        0       -1
Se      13.42994552      15.86641434      13.95515239      78.97100002       0.00000000       0.00000000       0.00000000      185        2        0        0        0
Se      13.42209027      15.81661906      10.58666696      78.97100002       0.00000000       0.00000000       0.00000000      186        2        0        0       -1
Se      16.39862290      14.38979528      13.98585309      78.97100002       0.00000000       0.00000000       0.00000000      187        2        0        0        0
Se      16.40261843      14.35217858      10.61624192      78.97100002       0.00000000       0.00000000       0.00000000      188        2        0        0       -1
Se      19.36443847      12.89971006      14.01164752      78.97100002       0.00000000       0.00000000       0.00000000      189        2        0        0        0
Se      19.36890416      12.89069410      10.64145106      78.97100002       0.00000000       0.00000000       0.00000000      190        2        0        0       -1
Se      22.33029987      11.40662807      14.01529006      78.97100002       0.00000000       0.00000000       0.00000000      191        2        0        0        0
Se      22.32954277      11.42992221      10.64538530      78.97100002       0.00000000       0.00000000       0.00000000      192        2        0        0       -1
Se      25.29905510       9.92520208      13.99731154      78.97100002       0.00000000       0.00000000       0.00000000      193        2        0        0        0
Se      25.29769787       9.96786876      10.62840169      78.97100002       0.00000000       0.00000000       0.00000000      194        2        0        0       -1
Se      28.26987593       8.46040255      13.97698558      78.97100002       0.00000000       0.00000000       0.00000000      195        2        0        0        0
Se      28.28045104       8.50211167      10.60868432      78.97100002       0.00000000       0.00000000       0.00000000      196        2        0        0       -1
Se      13.20793539      19.17612499      13.90389623      78.97100002       0.00000000       0.00000000       0.00000000      197        2        0        0        0
Se      13.20209226      19.13881807      10.53699685      78.97100002       0.00000000       0.00000000       0.00000000      198        2        0        0       -1
Se      16.17826862      17.71314280      13.93518580      78.97100002       0.00000000       0.00000000       0.00000000      199        2        0        0        0
Se      16.19524816      17.67115511      10.56773326      78.97100002       0.00000000       0.00000000       0.00000000      200        2        0        0       -1
Se      19.14857095      16.23593066      13.98216899      78.97100002       0.00000000       0.00000000       0.00000000      201        2        0        0        0
Se      19.17340370      16.20581649      10.61358070      78.97100002       0.00000000       0.00000000       0.00000000      202        2        0        0       -1
Se      22.12006245      14.74637713      14.01948219      78.97100002       0.00000000       0.00000000       0.00000000      203        2        0        0        0
Se      22.13755725      14.74013750      10.64959349      78.97100002       0.00000000       0.00000000       0.00000000      204        2        0        0       -1
Se      25.09454231      13.25692068      14.03014463      78.97100002       0.00000000       0.00000000       0.00000000      205        2        0        0        0
Se      25.09859991      13.27299640      10.65986452      78.97100002       0.00000000       0.00000000       0.00000000      206        2        0        0       -1
Se      28.07131453      11.78040426      14.01912813      78.97100002       0.00000000       0.00000000       0.00000000      207        2        0        0        0
Se      28.06965232      11.80404038      10.64933268      78.97100002       0.00000000       0.00000000       0.00000000      208        2        0        0       -1
Se      31.04772701      10.31653978      14.00844839      78.97100002       0.00000000       0.00000000       0.00000000      209        2        0        0        0
Se      31.05399781      10.33229322      10.63861691      78.97100002       0.00000000       0.00000000       0.00000000      210        2        0        0       -1
Se      12.98007112      22.47524541      13.88080870      78.97100002       0.00000000       0.00000000       0.00000000      211        2        0        0        0
Se      12.97502203      22.47182083      10.51396242      78.97100002       0.00000000       0.00000000       0.00000000      212        2        0        0       -1
Se      15.94960262      21.02138097      13.89760802      78.97100002       0.00000000       0.00000000       0.00000000      213        2        0        0        0
Se      15.97522303      21.00151355      10.53085276      78.97100002       0.00000000       0.00000000       0.00000000      214        2        0        0       -1
Se      18.92250703      19.55743237      13.94494438      78.97100002       0.00000000       0.00000000       0.00000000      215        2        0        0        0
Se      18.96411448      19.53062976      10.57760677      78.97100002       0.00000000       0.00000000       0.00000000      216        2        0        0       -1
Se      21.90126298      18.07829124      13.99854894      78.97100002       0.00000000       0.00000000       0.00000000      217        2        0        0        0
Se      21.93663106      18.05694431      10.62962380      78.97100002       0.00000000       0.00000000       0.00000000      218        2        0        0       -1
Se      24.88542097      16.58895027      14.03170091      78.97100002       0.00000000       0.00000000       0.00000000      219        2        0        0        0
Se      24.89815845      16.58028211      10.66137173      78.97100002       0.00000000       0.00000000       0.00000000      220        2        0        0       -1
Se      27.87229548      15.10412469      14.03415451      78.97100002       0.00000000       0.00000000       0.00000000      221        2        0        0        0
Se      27.86238182      15.10320053      10.66369529      78.97100002       0.00000000       0.00000000       0.00000000      222        2        0        0       -1
Se      30.85689358      13.63265694      14.02028446      78.97100002       0.00000000       0.00000000       0.00000000      223        2        0        0        0
Se      30.83968092      13.62718502      10.65024513      78.97100002       0.00000000       0.00000000       0.00000000      224        2        0        0       -1
Se      21.67580326      21.39600319      13.97716975      78.97100002       0.00000000       0.00000000       0.00000000      225        2        0        0        0
Se      21.72338873      21.38313567      10.60874938      78.97100002       0.00000000       0.00000000       0.00000000      226        2        0        0       -1
Se      24.66646131      19.91150749      14.01630539      78.97100002       0.00000000       0.00000000       0.00000000      227        2        0        0        0
Se      24.68916689      19.89775521      10.64648424      78.97100002       0.00000000       0.00000000       0.00000000      228        2        0        0       -1
Se      27.66208293      18.42349199      14.02527897      78.97100002       0.00000000       0.00000000       0.00000000      229        2        0        0        0
Se      27.65147627      18.41105521      10.65518478      78.97100002       0.00000000       0.00000000       0.00000000      230        2        0        0       -1
Se      30.65576096      16.94634746      14.00841773      78.97100002       0.00000000       0.00000000       0.00000000      231        2        0        0        0
Se      30.62367540      16.92801790      10.63910706      78.97100002       0.00000000       0.00000000       0.00000000      232        2        0        0       -1
Se      33.64123377      15.48169956      13.98982378      78.97100002       0.00000000       0.00000000       0.00000000      233        2        0        0        0
Se      33.60986277      15.45005210      10.62091785      78.97100002       0.00000000       0.00000000       0.00000000      234        2        0        0       -1
Se      27.44177165      21.73532110      14.01427613      78.97100002       0.00000000       0.00000000       0.00000000      235        2        0        0        0
Se      27.43533160      21.73133982      10.64419344      78.97100002       0.00000000       0.00000000       0.00000000      236        2        0        0       -1
Se      30.43966769      20.25373778      13.99058930      78.97100002       0.00000000       0.00000000       0.00000000      237        2        0        0        0
Se      30.40362059      20.24282389      10.62182410      78.97100002       0.00000000       0.00000000       0.00000000      238        2        0        0       -1
Se      33.43002229      18.78767027      13.95754745      78.97100002       0.00000000       0.00000000       0.00000000      239        2        0        0        0
Se      33.38680181      18.76125793      10.58989348      78.97100002       0.00000000       0.00000000       0.00000000      240        2        0        0       -1
Se      33.20666520      22.08741102      13.94134952      78.97100002       0.00000000       0.00000000       0.00000000      241        2        0        0        0
Se      33.16103230      22.08617749      10.57386583      78.97100002       0.00000000       0.00000000       0.00000000      242        2        0        0       -1
Se      36.18754051      20.63078772      13.90611976      78.97100002       0.00000000       0.00000000       0.00000000      243        2        0        0        0
Se      36.15466753      20.61036855      10.53935157      78.97100002       0.00000000       0.00000000       0.00000000      244        2        0        0       -1
Se       2.95974083       1.52730781      20.97240771      78.97100002       0.00000000       0.00000000       0.00000000      245        2        0        0        0
Se       2.93392133       1.51190885      17.60558787      78.97100002       0.00000000       0.00000000       0.00000000      246        2        0        0        0
Se       3.18112597       4.85744072      20.94048794      78.97100002       0.00000000       0.00000000       0.00000000      247        2        0        0        0
Se       3.15894987       4.81386127      17.57331886      78.97100002       0.00000000       0.00000000       0.00000000      248        2        0        0        0
Se       5.95108648       2.99842003      20.92702930      78.97100002       0.00000000       0.00000000       0.00000000      249        2        0        0        0
Se       5.91057566       2.97057383      17.55913297      78.97100002       0.00000000       0.00000000       0.00000000      250        2        0        0        0
Se       8.71071439       1.14770563      20.89315254      78.97100002       0.00000000       0.00000000       0.00000000      251        2        0        0        0
Se       8.67192176       1.13656666      17.52417819      78.97100002       0.00000000       0.00000000       0.00000000      252        2        0        0        0
Se       6.16178762       6.32298643      20.89300007      78.97100002       0.00000000       0.00000000       0.00000000      253        2        0        0        0
Se       6.13174153       6.28354683      17.52386508      78.97100002       0.00000000       0.00000000       0.00000000      254        2        0        0        0
Se       8.92487398       4.47292871      20.87518586      78.97100002       0.00000000       0.00000000       0.00000000      255        2        0        0        0
Se       8.89305326       4.44690962      17.50467108      78.97100002       0.00000000       0.00000000       0.00000000      256        2        0        0        0
Se      11.67735546       2.63346774      20.85681918      78.97100002       0.00000000       0.00000000       0.00000000      257        2        0        0        0
Se      11.66507412       2.62083299      17.48562669      78.97100002       0.00000000       0.00000000       0.00000000      258        2        0        0        0
Se      14.42342320       0.80030146      20.85669467      78.97100002       0.00000000       0.00000000       0.00000000      259        2        0        0        0
Se      14.44250489       0.80020586      17.48621105      78.97100002       0.00000000       0.00000000       0.00000000      260        2        0        0        0
Se       6.35830448       9.63914552      20.86198456      78.97100002       0.00000000       0.00000000       0.00000000      261        2        0        0        0
Se       6.34463565       9.61349363      17.49180854      78.97100002       0.00000000       0.00000000       0.00000000      262        2        0        0        0
Se       9.12652618       7.79032052      20.85401390      78.97100002       0.00000000       0.00000000       0.00000000      263        2        0        0        0
Se       9.10523370       7.77172772      17.48233136      78.97100002       0.00000000       0.00000000       0.00000000      264        2        0        0        0
Se      11.88644906       5.95186083      20.84288728      78.97100002       0.00000000       0.00000000       0.00000000      265        2        0        0        0
Se      11.87700388       5.93885322      17.47017862      78.97100002       0.00000000       0.00000000       0.00000000      266        2        0        0        0
Se      14.63926277       4.12202425      20.84880980      78.97100002       0.00000000       0.00000000       0.00000000      267        2        0        0        0
Se      14.65745557       4.11248456      17.47676975      78.97100002       0.00000000       0.00000000       0.00000000      268        2        0        0        0
Se      17.39037079       2.28999242      20.88038160      78.97100002       0.00000000       0.00000000       0.00000000      269        2        0        0        0
Se      17.43518710       2.28469182      17.51066813      78.97100002       0.00000000       0.00000000       0.00000000      270        2        0        0        0
Se      20.14669414       0.44509253      20.92611716      78.97100002       0.00000000       0.00000000       0.00000000      271        2        0        0        0
Se      20.19846012       0.44834118      17.55858049      78.97100002       0.00000000       0.00000000       0.00000000      272        2        0        0        0
Se       9.31858365      11.10100589      20.85251215      78.97100002       0.00000000       0.00000000       0.00000000      273        2        0        0        0
Se       9.31068245      11.10822473      17.48107517      78.97100002       0.00000000       0.00000000       0.00000000      274        2        0        0        0
Se      12.08648544       9.26049336      20.84012930      78.97100002       0.00000000       0.00000000       0.00000000      275        2        0        0        0
Se      12.07858883       9.26722666      17.46720698      78.97100002       0.00000000       0.00000000       0.00000000      276        2        0        0        0
Se      14.84933769       7.43209538      20.83905935      78.97100002       0.00000000       0.00000000       0.00000000      277        2        0        0        0
Se      14.85970894       7.43110314      17.46602619      78.97100002       0.00000000       0.00000000       0.00000000      278        2        0        0        0
Se      17.60933167       5.60720205      20.86502284      78.97100002       0.00000000       0.00000000       0.00000000      279        2        0        0        0
Se      17.64442693       5.59561402      17.49387510      78.97100002       0.00000000       0.00000000       0.00000000      280        2        0        0        0
Se      20.37071113       3.77220193      20.91425894      78.97100002       0.00000000       0.00000000       0.00000000      281        2        0        0        0
Se      20.41789734       3.75425217      17.54581842      78.97100002       0.00000000       0.00000000       0.00000000      282        2        0        0        0
Se      23.13787102       1.92026589      20.96366043      78.97100002       0.00000000       0.00000000       0.00000000      283        2        0        0        0
Se      23.17286370       1.90716488      17.59677048      78.97100002       0.00000000       0.00000000       0.00000000      284        2        0        0        0
Se       9.51207869      14.41204458      20.88050013      78.97100002       0.00000000       0.00000000       0.00000000      285        2        0        0        0
Se       9.51979729      14.44533757      17.51098941      78.97100002       0.00000000       0.00000000       0.00000000      286        2        0        0        0
Se      12.28420301      12.56509328      20.86476228      78.97100002       0.00000000       0.00000000       0.00000000      287        2        0        0        0
Se      12.27799372      12.59923983      17.49363176      78.97100002       0.00000000       0.00000000       0.00000000      288        2        0        0        0
Se      15.05500273      10.73232060      20.84774183      78.97100002       0.00000000       0.00000000       0.00000000      289        2        0        0        0
Se      15.05263264      10.75468461      17.47549652      78.97100002       0.00000000       0.00000000       0.00000000      290        2        0        0        0
Se      17.82415875       8.91033170      20.85156448      78.97100002       0.00000000       0.00000000       0.00000000      291        2        0        0        0
Se      17.83950107       8.91079269      17.47982309      78.97100002       0.00000000       0.00000000       0.00000000      292        2        0        0        0
Se      20.59284584       7.08596842      20.88465657      78.97100002       0.00000000       0.00000000       0.00000000      293        2        0        0        0
Se      20.62378027       7.06339766      17.51508556      78.97100002       0.00000000       0.00000000       0.00000000      294        2        0        0        0
Se      23.36347177       5.24651817      20.93332898      78.97100002       0.00000000       0.00000000       0.00000000      295        2        0        0        0
Se      23.39130230       5.21090630      17.56590542      78.97100002       0.00000000       0.00000000       0.00000000      296        2        0        0        0
Se      26.13765525       3.39051308      20.96981788      78.97100002       0.00000000       0.00000000       0.00000000      297        2        0        0        0
Se      26.14172000       3.35886939      17.60306301      78.97100002       0.00000000       0.00000000       0.00000000      298        2        0        0        0
Se      12.48999291      15.87561196      20.91342292      78.97100002       0.00000000       0.00000000       0.00000000      299        2        0        0        0
Se      12.48784730      15.92443795      17.54495270      78.97100002       0.00000000       0.00000000       0.00000000      300        2        0        0        0
Se      15.26369210      14.03254913      20.88294357      78.97100002       0.00000000       0.00000000       0.00000000      301        2        0        0        0
Se      15.24863527      14.07653596      17.51313899      78.97100002       0.00000000       0.00000000       0.00000000      302        2        0        0        0
Se      18.03723458      12.20546293      20.85799273      78.97100002       0.00000000       0.00000000       0.00000000      303        2        0        0        0
Se      18.02782034      12.22773611      17.48730743      78.97100002       0.00000000       0.00000000       0.00000000      304        2        0        0        0
Se      20.81040063      10.38582992      20.85893447      78.97100002       0.00000000       0.00000000       0.00000000      305        2        0        0        0
Se      20.81646863      10.37684123      17.48875666      78.97100002       0.00000000       0.00000000       0.00000000      306        2        0        0        0
Se      23.58363256       8.55867857      20.88738649      78.97100002       0.00000000       0.00000000       0.00000000      307        2        0        0        0
Se      23.59747842       8.52173888      17.51883353      78.97100002       0.00000000       0.00000000       0.00000000      308        2        0        0        0
Se      26.35838776       6.71466962      20.92339332      78.97100002       0.00000000       0.00000000       0.00000000      309        2        0        0        0
Se      26.36057477       6.66525894      17.55607950      78.97100002       0.00000000       0.00000000       0.00000000      310        2        0        0        0
Se      12.70830767      19.19896736      20.96301729      78.97100002       0.00000000       0.00000000       0.00000000      311        2        0        0        0
Se      12.71132968      19.23573470      17.59611787      78.97100002       0.00000000       0.00000000       0.00000000      312        2        0        0        0
Se      15.48184251      17.34372712      20.93216629      78.97100002       0.00000000       0.00000000       0.00000000      313        2        0        0        0
Se      15.45929293      17.38930255      17.56468049      78.97100002       0.00000000       0.00000000       0.00000000      314        2        0        0        0
Se      18.25432471      15.50451896      20.88703794      78.97100002       0.00000000       0.00000000       0.00000000      315        2        0        0        0
Se      18.22401994      15.54123272      17.51830329      78.97100002       0.00000000       0.00000000       0.00000000      316        2        0        0        0
Se      21.02562706      13.68020138      20.85428702      78.97100002       0.00000000       0.00000000       0.00000000      317        2        0        0        0
Se      21.00629199      13.69193173      17.48436425      78.97100002       0.00000000       0.00000000       0.00000000      318        2        0        0        0
Se      23.79643423      11.85876122      20.85082732      78.97100002       0.00000000       0.00000000       0.00000000      319        2        0        0        0
Se      23.79342914      11.83986594      17.48096105      78.97100002       0.00000000       0.00000000       0.00000000      320        2        0        0        0
Se      26.56849866      10.02606055      20.87120933      78.97100002       0.00000000       0.00000000       0.00000000      321        2        0        0        0
Se      26.56924542       9.98434561      17.50231530      78.97100002       0.00000000       0.00000000       0.00000000      322        2        0        0        0
Se      29.34248865       8.17802888      20.89196650      78.97100002       0.00000000       0.00000000       0.00000000      323        2        0        0        0
Se      29.32947997       8.13029358      17.52356368      78.97100002       0.00000000       0.00000000       0.00000000      324        2        0        0        0
Se      25.91083081       0.05700220      20.98603735      78.97100002       0.00000000       0.00000000       0.00000000      325        2       -1        1        0
Se      25.91592653       0.06033865      17.61919127      78.97100002       0.00000000       0.00000000       0.00000000      326        2       -1        1        0
Se      15.70823934      20.66956835      20.96913770      78.97100002       0.00000000       0.00000000       0.00000000      327        2        0        0        0
Se      15.68277831      20.69090419      17.60238309      78.97100002       0.00000000       0.00000000       0.00000000      328        2        0        0        0
Se      18.47808176      18.81743500      20.92244693      78.97100002       0.00000000       0.00000000       0.00000000      329        2        0        0        0
Se      18.43657481      18.84678876      17.55509338      78.97100002       0.00000000       0.00000000       0.00000000      330        2        0        0        0
Se      21.24339189      16.98148059      20.87080489      78.97100002       0.00000000       0.00000000       0.00000000      331        2        0        0        0
Se      21.20742563      17.00382234      17.50186385      78.97100002       0.00000000       0.00000000       0.00000000      332        2        0        0        0
Se      24.00626736      15.15663735      20.83991938      78.97100002       0.00000000       0.00000000       0.00000000      333        2        0        0        0
Se      23.99067528      15.16069417      17.46962762      78.97100002       0.00000000       0.00000000       0.00000000      334        2        0        0        0
Se      26.77039839      13.32928247      20.83895360      78.97100002       0.00000000       0.00000000       0.00000000      335        2        0        0        0
Se      26.77161757      13.31337815      17.46864115      78.97100002       0.00000000       0.00000000       0.00000000      336        2        0        0        0
Se      29.53906840      11.48932181      20.85398520      78.97100002       0.00000000       0.00000000       0.00000000      337        2        0        0        0
Se      29.53933565      11.46238405      17.48418020      78.97100002       0.00000000       0.00000000       0.00000000      338        2        0        0        0
Se      18.70489206      22.14381546      20.93997337      78.97100002       0.00000000       0.00000000       0.00000000      339        2        0        0        0
Se      18.66066558      22.14554936      17.57282552      78.97100002       0.00000000       0.00000000       0.00000000      340        2        0        0        0
Se      21.46526919      20.29720156      20.89057469      78.97100002       0.00000000       0.00000000       0.00000000      341        2        0        0        0
Se      21.42403125      20.30920475      17.52225558      78.97100002       0.00000000       0.00000000       0.00000000      342        2        0        0        0
Se      24.21946308      18.46390111      20.85015711      78.97100002       0.00000000       0.00000000       0.00000000      343        2        0        0        0
Se      24.20013979      18.47714614      17.48034132      78.97100002       0.00000000       0.00000000       0.00000000      344        2        0        0        0
Se      26.97313226      16.63484069      20.83619223      78.97100002       0.00000000       0.00000000       0.00000000      345        2        0        0        0
Se      26.97904755      16.64270254      17.46572882      78.97100002       0.00000000       0.00000000       0.00000000      346        2        0        0        0
Se      29.73257822      14.79812427      20.84490243      78.97100002       0.00000000       0.00000000       0.00000000      347        2        0        0        0
Se      29.74845092      14.80075293      17.47480722      78.97100002       0.00000000       0.00000000       0.00000000      348        2        0        0        0
Se      32.50011001      12.95068861      20.85575445      78.97100002       0.00000000       0.00000000       0.00000000      349        2        0        0        0
Se      32.50634763      12.95396712      17.48565371      78.97100002       0.00000000       0.00000000       0.00000000      350        2        0        0        0
Se      24.43696693      21.78410601      20.86104990      78.97100002       0.00000000       0.00000000       0.00000000      351        2        0        0        0
Se      24.42048351      21.78689282      17.49121884      78.97100002       0.00000000       0.00000000       0.00000000      352        2        0        0        0
Se      27.18332011      19.95110058      20.84961094      78.97100002       0.00000000       0.00000000       0.00000000      353        2        0        0        0
Se      27.19690199      19.96343748      17.47957370      78.97100002       0.00000000       0.00000000       0.00000000      354        2        0        0        0
Se      29.93409546      18.11352505      20.86085057      78.97100002       0.00000000       0.00000000       0.00000000      355        2        0        0        0
Se      29.96592693      18.13217331      17.49154082      78.97100002       0.00000000       0.00000000       0.00000000      356        2        0        0        0
Se      32.69497773      16.26545166      20.87794904      78.97100002       0.00000000       0.00000000       0.00000000      357        2        0        0        0
Se      32.72204035      16.29116856      17.50916751      78.97100002       0.00000000       0.00000000       0.00000000      358        2        0        0        0
Se      30.14706346      21.43853785      20.87930719      78.97100002       0.00000000       0.00000000       0.00000000      359        2        0        0        0
Se      30.19024317      21.45020816      17.51042182      78.97100002       0.00000000       0.00000000       0.00000000      360        2        0        0        0
Se      32.90328046      19.58960154      20.91009803      78.97100002       0.00000000       0.00000000       0.00000000      361        2        0        0        0
Se      32.94747164      19.61415784      17.54244578      78.97100002       0.00000000       0.00000000       0.00000000      362        2        0        0        0
Se      35.66999203      17.73160846      20.92562982      78.97100002       0.00000000       0.00000000       0.00000000      363        2        0        0        0
Se      35.69339634      17.77077595      17.55812314      78.97100002       0.00000000       0.00000000       0.00000000      364        2        0        0        0
Se      35.88858757      21.06193377      20.96064830      78.97100002       0.00000000       0.00000000       0.00000000      365        2        0        0        0
Se      35.92231538      21.08076283      17.59388048      78.97100002       0.00000000       0.00000000       0.00000000      366        2        0        0        0
