546
Lattice="31.69820059966649 0.0 0.0 -15.849100299833239 27.45144697356631 0.0 0.0 0.0 30.0" Properties=species:S:1:pos:R:3:masses:R:1:momenta:R:3:id:I:1:type:I:1:travel:I:3 comment="LAMMPS data file via write_data, version 28 Mar 2023, timestep = 63, units = metal" pbc="T T T"
W        0.86421558       1.71191902      12.16712856     183.84000005       0.00000000       0.00000000       0.00000000        1        1        0        0       -1
W        3.83184950       0.21749546      12.18249003     183.84000005       0.00000000       0.00000000       0.00000000        2        1        0        0       -1
W        3.64395517       3.53624750      12.19714642     183.84000005       0.00000000       0.00000000       0.00000000        3        1        0        0       -1
W        6.60995795       2.03926377      12.22702237     183.84000005       0.00000000       0.00000000       0.00000000        4        1        0        0       -1
W        9.57391246       0.53416857      12.27577964     183.84000005       0.00000000       0.00000000       0.00000000        5        1        0        0       -1
W        3.46147660       6.85239616      12.23969415     183.84000005       0.00000000       0.00000000       0.00000000        6        1        0        0       -1
W        6.42728079       5.35642878      12.25359098     183.84000005       0.00000000       0.00000000       0.00000000        7        1        0        0       -1
W        9.39167033       3.85316323      12.28813576     183.84000005       0.00000000       0.00000000       0.00000000        8        1        0        0       -1
W       12.35443058       2.33895610      12.32571655     183.84000005       0.00000000       0.00000000       0.00000000        9        1        0        0       -1
W       15.31698000       0.81476819      12.34732674     183.84000005       0.00000000       0.00000000       0.00000000       10        1        0        0       -1
W        6.25267347       8.66911535      12.29470573     183.84000005       0.00000000       0.00000000       0.00000000       11        1        0        0       -1
W        9.21709890       7.16726264      12.31542795     183.84000005       0.00000000       0.00000000       0.00000000       12        1        0        0       -1
W       12.17901962       5.65561929      12.34313902     183.84000005       0.00000000       0.00000000       0.00000000       13        1        0        0       -1
W       15.13905655       4.13350776      12.35867749     183.84000005       0.00000000       0.00000000       0.00000000       14        1        0        0       -1
W       18.09983587       2.60626913      12.34792105     183.84000005       0.00000000       0.00000000       0.00000000       15        1        0        0       -1
W       21.06412181       1.08324093      12.30944553     183.84000005       0.00000000       0.00000000       0.00000000       16        1        0        0       -1
W        6.08666170      11.97785870      12.33291602     183.84000005       0.00000000       0.00000000       0.00000000       17        1        0        0       -1
W        9.05158329      10.47651652      12.34082692     183.84000005       0.00000000       0.00000000       0.00000000       18        1        0        0       -1
W       12.01316329       8.96803944      12.36063442     183.84000005       0.00000000       0.00000000       0.00000000       19        1        0        0       -1
W       14.97050285       7.44985476      12.37476034     183.84000005       0.00000000       0.00000000       0.00000000       20        1        0        0       -1
W       17.92584362       5.92499190      12.36611945     183.84000005       0.00000000       0.00000000       0.00000000       21        1        0        0       -1
W       20.88335525       4.40160938      12.32820800     183.84000005       0.00000000       0.00000000       0.00000000       22        1        0        0       -1
W       23.84595817       2.88755864      12.26945319     183.84000005       0.00000000       0.00000000       0.00000000       23        1        0        0       -1
W       26.81360086       1.38458055      12.21022015     183.84000005       0.00000000       0.00000000       0.00000000       24        1        0        0       -1
W        8.89120872      13.78254718      12.34923338     183.84000005       0.00000000       0.00000000       0.00000000       25        1        0        0       -1
W       11.85420230      12.27714451      12.36137100     183.84000005       0.00000000       0.00000000       0.00000000       26        1        0        0       -1
W       14.81101076      10.76425555      12.37730895     183.84000005       0.00000000       0.00000000       0.00000000       27        1        0        0       -1
W       17.76229116       9.24406178      12.37861624     183.84000005       0.00000000       0.00000000       0.00000000       28        1        0        0       -1
W       20.71237055       7.72222460      12.35289125     183.84000005       0.00000000       0.00000000       0.00000000       29        1        0        0       -1
W       23.66652285       6.20662486      12.30126265     183.84000005       0.00000000       0.00000000       0.00000000       30        1        0        0       -1
W       26.62749207       4.70174191      12.23868062     183.84000005       0.00000000       0.00000000       0.00000000       31        1        0        0       -1
W       29.59394605       3.20525376      12.18782254     183.84000005       0.00000000       0.00000000       0.00000000       32        1        0        0       -1
W        8.72783338      17.08830738      12.33434146     183.84000005       0.00000000       0.00000000       0.00000000       33        1        0        0       -1
W       11.69410408      15.58517651      12.33700442     183.84000005       0.00000000       0.00000000       0.00000000       34        1        0        0       -1
W       14.65377537      14.07786846      12.35366230     183.84000005       0.00000000       0.00000000       0.00000000       35        1        0        0       -1
W       17.60537996      12.56399664      12.36838342     183.84000005       0.00000000       0.00000000       0.00000000       36        1        0        0       -1
W       20.55130206      11.04583062      12.36443090     183.84000005       0.00000000       0.00000000       0.00000000       37        1        0        0       -1
W       23.49751836       9.52964481      12.33437812     183.84000005       0.00000000       0.00000000       0.00000000       38        1        0        0       -1
W       26.44973667       8.02156848      12.28433275     183.84000005       0.00000000       0.00000000       0.00000000       39        1        0        0       -1
W       -2.28842736       6.52280930      12.23199639     183.84000005       0.00000000       0.00000000       0.00000000       40        1        1        0       -1
W        0.67696241       5.02933053      12.19859810     183.84000005       0.00000000       0.00000000       0.00000000       41        1        1        0       -1
W       11.52463766      18.89442947      12.29223672     183.84000005       0.00000000       0.00000000       0.00000000       42        1        0        0       -1
W       14.48940810      17.39187457      12.30435682     183.84000005       0.00000000       0.00000000       0.00000000       43        1        0        0       -1
W       17.44593347      15.88475374      12.32901384     183.84000005       0.00000000       0.00000000       0.00000000       44        1        0        0       -1
W       20.39389133      14.37215235      12.34909387     183.84000005       0.00000000       0.00000000       0.00000000       45        1        0        0       -1
W       23.33705037      12.85722517      12.35016447     183.84000005       0.00000000       0.00000000       0.00000000       46        1        0        0       -1
W       -5.41601710      11.34588367      12.32763781     183.84000005       0.00000000       0.00000000       0.00000000       47        1        1        0       -1
W       -2.46368228       9.84234106      12.28959774     183.84000005       0.00000000       0.00000000       0.00000000       48        1        1        0       -1
W        0.49655289       8.34600160      12.25411215     183.84000005       0.00000000       0.00000000       0.00000000       49        1        1        0       -1
W       11.34338039      22.20614894      12.24351641     183.84000005       0.00000000       0.00000000       0.00000000       50        1        0        0       -1
W       14.31247958      20.70685250      12.24360847     183.84000005       0.00000000       0.00000000       0.00000000       51        1        0        0       -1
W       17.27570602      19.20548221      12.26897676     183.84000005       0.00000000       0.00000000       0.00000000       52        1        0        0       -1
W       20.23055602      17.69924239      12.30617649     183.84000005       0.00000000       0.00000000       0.00000000       53        1        0        0       -1
W       -8.52056549      16.18785678      12.33793486     183.84000005       0.00000000       0.00000000       0.00000000       54        1        1        0       -1
W       -5.57670800      14.67473250      12.35037219     183.84000005       0.00000000       0.00000000       0.00000000       55        1        1        0       -1
W       -2.62939063      13.16532570      12.33951927     183.84000005       0.00000000       0.00000000       0.00000000       56        1        1        0       -1
W        0.32555410      11.66285985      12.31481779     183.84000005       0.00000000       0.00000000       0.00000000       57        1        1        0       -1
W        3.28753608      10.16578172      12.29475951     183.84000005       0.00000000       0.00000000       0.00000000       58        1        1        0       -1
W       14.12542501      24.02296858      12.19363679     183.84000005       0.00000000       0.00000000       0.00000000       59        1        0        0       -1
W       17.09324023      22.52559443      12.20860133     183.84000005       0.00000000       0.00000000       0.00000000       60        1        0        0       -1
W      -11.64274131      21.02482037      12.24965771     183.84000005       0.00000000       0.00000000       0.00000000       61        1        1        0       -1
W       -8.68781034      19.51824063      12.30114335     183.84000005       0.00000000       0.00000000       0.00000000       62        1        1        0       -1
W       -5.73875356      18.00582775      12.34430339     183.84000005       0.00000000       0.00000000       0.00000000       63        1        1        0       -1
W       -2.79066870      16.49153301      12.36451947     183.84000005       0.00000000       0.00000000       0.00000000       64        1        1        0       -1
W        0.16218856      14.98128040      12.35978809     183.84000005       0.00000000       0.00000000       0.00000000       65        1        1        0       -1
W        3.12202593      13.47758466      12.34288299     183.84000005       0.00000000       0.00000000       0.00000000       66        1        1        0       -1
W       13.93446892      27.33973148      12.17298853     183.84000005       0.00000000       0.00000000       0.00000000       67        1        0        0       -1
W      -14.79440328      25.84492826      12.17040489     183.84000005       0.00000000       0.00000000       0.00000000       68        1        1        0       -1
W      -11.82798560      24.34799585      12.20208738     183.84000005       0.00000000       0.00000000       0.00000000       69        1        1        0       -1
W       -8.86623794      22.84576814      12.25711976     183.84000005       0.00000000       0.00000000       0.00000000       70        1        1        0       -1
W       -5.90972929      21.33581866      12.31678006     183.84000005       0.00000000       0.00000000       0.00000000       71        1        1        0       -1
W       -2.95613068      19.81913170      12.36058308     183.84000005       0.00000000       0.00000000       0.00000000       72        1        1        0       -1
W       -0.00090647      18.30169928      12.37641308     183.84000005       0.00000000       0.00000000       0.00000000       73        1        1        0       -1
W        2.95952013      16.78981991      12.36806324     183.84000005       0.00000000       0.00000000       0.00000000       74        1        1        0       -1
W        5.92476417      15.28476477      12.35296381     183.84000005       0.00000000       0.00000000       0.00000000       75        1        1        0       -1
W       -9.05216609      26.16985972      12.22784541     183.84000005       0.00000000       0.00000000       0.00000000       76        1        1        0       -1
W       -6.09034070      24.66257235      12.28747566     183.84000005       0.00000000       0.00000000       0.00000000       77        1        1        0       -1
W       -3.13090134      23.14569976      12.34011528     183.84000005       0.00000000       0.00000000       0.00000000       78        1        1        0       -1
W       -0.17121992      21.62351340      12.36807585     183.84000005       0.00000000       0.00000000       0.00000000       79        1        1        0       -1
W        2.79183911      20.10407285      12.36694687     183.84000005       0.00000000       0.00000000       0.00000000       80        1        1        0       -1
W        5.75901218      18.59274817      12.34886690     183.84000005       0.00000000       0.00000000       0.00000000       81        1        1        0       -1
W       -3.31270022      26.46969375      12.32383158     183.84000005       0.00000000       0.00000000       0.00000000       82        1        1        0       -1
W       -0.34999723      24.94540535      12.35219691     183.84000005       0.00000000       0.00000000       0.00000000       83        1        1        0       -1
W        2.61517532      23.42069579      12.35160309     183.84000005       0.00000000       0.00000000       0.00000000       84        1        1        0       -1
W        5.58393944      21.90374860      12.32855897     183.84000005       0.00000000       0.00000000       0.00000000       85        1        1        0       -1
W        8.55484025      20.39643507      12.30235004     183.84000005       0.00000000       0.00000000       0.00000000       86        1        1        0       -1
W        2.43245659      26.73895927      12.34133870     183.84000005       0.00000000       0.00000000       0.00000000       87        1        1        0       -1
W        5.40058669      25.21802279      12.31009467     183.84000005       0.00000000       0.00000000       0.00000000       88        1        1        0       -1
W        8.37168767      23.70796938      12.27022612     183.84000005       0.00000000       0.00000000       0.00000000       89        1        1        0       -1
W        8.18350939      27.02242926      12.25661666     183.84000005       0.00000000       0.00000000       0.00000000       90        1        1        0       -1
W       11.15459881      25.52029890      12.21168976     183.84000005       0.00000000       0.00000000       0.00000000       91        1        1        0       -1
W        4.85362703       1.43470566      19.30270534     183.84000005       0.00000000       0.00000000       0.00000000       92        1        0        0        0
W        5.04027660       4.75181088      19.27324906     183.84000005       0.00000000       0.00000000       0.00000000       93        1        0        0        0
W        7.82166940       2.93510593      19.24630891     183.84000005       0.00000000       0.00000000       0.00000000       94        1        0        0        0
W       10.60323901       1.12764942      19.20498880     183.84000005       0.00000000       0.00000000       0.00000000       95        1        0        0        0
W        8.00210251       6.25393693      19.21202825     183.84000005       0.00000000       0.00000000       0.00000000       96        1        0        0        0
W       10.78489451       4.44581848      19.18455031     183.84000005       0.00000000       0.00000000       0.00000000       97        1        0        0        0
W       13.56801840       2.64794638      19.15914407     183.84000005       0.00000000       0.00000000       0.00000000       98        1        0        0        0
W       16.35090911       0.85605400      19.15084373     183.84000005       0.00000000       0.00000000       0.00000000       99        1        0        0        0
W        8.17225857       9.57680434      19.17448393     183.84000005       0.00000000       0.00000000       0.00000000      100        1        0        0        0
W       10.95686025       7.76668535      19.15689926     183.84000005       0.00000000       0.00000000       0.00000000      101        1        0        0        0
W       13.74255651       5.96696752      19.13944988     183.84000005       0.00000000       0.00000000       0.00000000      102        1        0        0        0
W       16.52879955       4.17480718      19.13890603     183.84000005       0.00000000       0.00000000       0.00000000      103        1        0        0        0
W       19.31351135       2.38208302      19.16346376     183.84000005       0.00000000       0.00000000       0.00000000      104        1        0        0        0
W       22.09458702       0.58056147      19.20826633     183.84000005       0.00000000       0.00000000       0.00000000      105        1        0        0        0
W       11.11878140      11.09113216      19.14119513     183.84000005       0.00000000       0.00000000       0.00000000      106        1        0        0        0
W       13.90656676       9.28713728      19.12516771     183.84000005       0.00000000       0.00000000       0.00000000      107        1        0        0        0
W       16.69715894       7.49191968      19.12289596     183.84000005       0.00000000       0.00000000       0.00000000      108        1        0        0        0
W       19.48813564       5.69893620      19.14689128     183.84000005       0.00000000       0.00000000       0.00000000      109        1        0        0        0
W       22.27583975       3.89947391      19.19641850     183.84000005       0.00000000       0.00000000       0.00000000      110        1        0        0        0
W       25.05811199       2.08862305      19.25710791     183.84000005       0.00000000       0.00000000       0.00000000      111        1        0        0        0
W       27.83635972       0.26849631      19.30671457     183.84000005       0.00000000       0.00000000       0.00000000      112        1        0        0        0
W       11.27652427      14.41879022      19.15168234     183.84000005       0.00000000       0.00000000       0.00000000      113        1        0        0        0
W       14.06369854      12.60889108      19.13346910     183.84000005       0.00000000       0.00000000       0.00000000      114        1        0        0        0
W       16.85637412      10.80786162      19.12124324     183.84000005       0.00000000       0.00000000       0.00000000      115        1        0        0        0
W       19.65304837       9.01206205      19.13193710     183.84000005       0.00000000       0.00000000       0.00000000      116        1        0        0        0
W       22.44907514       7.21353263      19.17174630     183.84000005       0.00000000       0.00000000       0.00000000      117        1        0        0        0
W       25.23963938       5.40560992      19.23198472     183.84000005       0.00000000       0.00000000       0.00000000      118        1        0        0        0
W       28.02358056       3.58742305      19.29220520     183.84000005       0.00000000       0.00000000       0.00000000      119        1        0        0        0
W       -0.89477931       1.76365944      19.32995898     183.84000005       0.00000000       0.00000000       0.00000000      120        1        1        0        0
W       14.22306333      15.93179062      19.17105093     183.84000005       0.00000000       0.00000000       0.00000000      121        1        0        0        0
W       17.01342744      14.12355438      19.14651110     183.84000005       0.00000000       0.00000000       0.00000000      122        1        0        0        0
W       19.81130220      12.32237404      19.13541191     183.84000005       0.00000000       0.00000000       0.00000000      123        1        0        0        0
W       22.61325617      10.52289243      19.15132592     183.84000005       0.00000000       0.00000000       0.00000000      124        1        0        0        0
W       25.41280265       8.71778903      19.19470921     183.84000005       0.00000000       0.00000000       0.00000000      125        1        0        0        0
W       -3.49307655       6.90322889      19.25137187     183.84000005       0.00000000       0.00000000       0.00000000      126        1        1        0        0
W       -0.70786414       5.08113865      19.29871125     183.84000005       0.00000000       0.00000000       0.00000000      127        1        1        0        0
W        2.07346985       3.25675477      19.31784779     183.84000005       0.00000000       0.00000000       0.00000000      128        1        1        0        0
W       14.39298312      19.25445860      19.22968927     183.84000005       0.00000000       0.00000000       0.00000000      129        1        0        0        0
W       17.17779264      17.43965125      19.19779691     183.84000005       0.00000000       0.00000000       0.00000000      130        1        0        0        0
W       19.97126361      15.63190874      19.16494707     183.84000005       0.00000000       0.00000000       0.00000000      131        1        0        0        0
W       22.77289819      13.82921557      19.14970719     183.84000005       0.00000000       0.00000000       0.00000000      132        1        0        0        0
W       -6.12062078      12.02579458      19.16255917     183.84000005       0.00000000       0.00000000       0.00000000      133        1        1        0        0
W       -3.32017826      10.21563853      19.19978219     183.84000005       0.00000000       0.00000000       0.00000000      134        1        1        0        0
W       -0.52781777       8.39723750      19.24386598     183.84000005       0.00000000       0.00000000       0.00000000      135        1        1        0        0
W        2.25786857       6.57413199      19.27285598     183.84000005       0.00000000       0.00000000       0.00000000      136        1        1        0        0
W       17.35482511      20.75630521      19.26033722     183.84000005       0.00000000       0.00000000       0.00000000      137        1        0        0        0
W       20.14114810      18.94256947      19.21466525     183.84000005       0.00000000       0.00000000       0.00000000      138        1        0        0        0
W       -8.76172060      17.13540729      19.17169964     183.84000005       0.00000000       0.00000000       0.00000000      139        1        1        0        0
W       -5.95909716      15.33183899      19.14955216     183.84000005       0.00000000       0.00000000       0.00000000      140        1        1        0        0
W       -3.15532818      13.52586611      19.15621394     183.84000005       0.00000000       0.00000000       0.00000000      141        1        1        0        0
W       -0.35707018      11.71266766      19.18407013     183.84000005       0.00000000       0.00000000       0.00000000      142        1        1        0        0
W        2.43356672       9.89278942      19.21333027     183.84000005       0.00000000       0.00000000       0.00000000      143        1        1        0        0
W        5.21891907       8.07118512      19.22471781     183.84000005       0.00000000       0.00000000       0.00000000      144        1        1        0        0
W       17.54195427      24.07353231      19.31150019     183.84000005       0.00000000       0.00000000       0.00000000      145        1        0        0        0
W      -11.37516677      22.25534707      19.26702467     183.84000005       0.00000000       0.00000000       0.00000000      146        1        1        0        0
W       -8.58785332      20.44391373      19.20945073     183.84000005       0.00000000       0.00000000       0.00000000      147        1        1        0        0
W       -5.79276397      18.63897858      19.15989815     183.84000005       0.00000000       0.00000000       0.00000000      148        1        1        0        0
W       -2.99273652      16.83616775      19.13545334     183.84000005       0.00000000       0.00000000       0.00000000      149        1        1        0        0
W       -0.19369582      15.02894775      19.13986753     183.84000005       0.00000000       0.00000000       0.00000000      150        1        1        0        0
W        2.59974211      13.21418189      19.16050948     183.84000005       0.00000000       0.00000000       0.00000000      151        1        1        0        0
W        5.38744850      11.39469524      19.17664431     183.84000005       0.00000000       0.00000000       0.00000000      152        1        1        0        0
W      -13.96528927      27.39095024      19.33269928     183.84000005       0.00000000       0.00000000       0.00000000      153        1        1        0        0
W      -11.18593427      25.57014409      19.30077145     183.84000005       0.00000000       0.00000000       0.00000000      154        1        1        0        0
W       -8.40374900      23.75566529      19.24501679     183.84000005       0.00000000       0.00000000       0.00000000      155        1        1        0        0
W       -5.61664628      21.94923489      19.18438416     183.84000005       0.00000000       0.00000000       0.00000000      156        1        1        0        0
W       -2.82437477      20.14855801      19.13976668     183.84000005       0.00000000       0.00000000       0.00000000      157        1        1        0        0
W       -0.03029428      18.34700847      19.12358245     183.84000005       0.00000000       0.00000000       0.00000000      158        1        1        0        0
W        2.76132669      16.53846299      19.13219934     183.84000005       0.00000000       0.00000000       0.00000000      159        1        1        0        0
W        5.54876368      14.72259656      19.14806250     183.84000005       0.00000000       0.00000000       0.00000000      160        1        1        0        0
W        8.33360836      12.90447846      19.15271606     183.84000005       0.00000000       0.00000000       0.00000000      161        1        1        0        0
W       -8.21483044      27.07013205      19.25979577     183.84000005       0.00000000       0.00000000       0.00000000      162        1        1        0        0
W       -5.43227515      25.26289615      19.20458873     183.84000005       0.00000000       0.00000000       0.00000000      163        1        1        0        0
W       -2.64684790      23.46370479      19.15657809     183.84000005       0.00000000       0.00000000       0.00000000      164        1        1        0        0
W        0.14044442      21.66679688      19.13167649     183.84000005       0.00000000       0.00000000       0.00000000      165        1        1        0        0
W        2.92686526      19.86431803      19.13303614     183.84000005       0.00000000       0.00000000       0.00000000      166        1        1        0        0
W        5.71083241      18.05288542      19.14840945     183.84000005       0.00000000       0.00000000       0.00000000      167        1        1        0        0
W        8.49320329      16.23547437      19.15848280     183.84000005       0.00000000       0.00000000       0.00000000      168        1        1        0        0
W       -2.46339358      26.78102216      19.16676182     183.84000005       0.00000000       0.00000000       0.00000000      169        1        1        0        0
W        0.31954216      24.98734107      19.14684218     183.84000005       0.00000000       0.00000000       0.00000000      170        1        1        0        0
W        3.10147548      23.18968971      19.15108139     183.84000005       0.00000000       0.00000000       0.00000000      171        1        1        0        0
W        5.88136106      21.38243530      19.17138291     183.84000005       0.00000000       0.00000000       0.00000000      172        1        1        0        0
W        8.65996135      19.56643260      19.18962941     183.84000005       0.00000000       0.00000000       0.00000000      173        1        1        0        0
W       11.43955637      17.74741582      19.18997345     183.84000005       0.00000000       0.00000000       0.00000000      174        1        1        0        0
W        3.28295460      26.51304302      19.16583765     183.84000005       0.00000000       0.00000000       0.00000000      175        1        1        0        0
W        6.06134885      24.70902702      19.19779238     183.84000005       0.00000000       0.00000000       0.00000000      176        1        1        0        0
W        8.83764147      22.89454504      19.22966161     183.84000005       0.00000000       0.00000000       0.00000000      177        1        1        0        0
W       11.61399209      21.07432976      19.24286939     183.84000005       0.00000000       0.00000000       0.00000000      178        1        1        0        0
W        9.02283383      26.21905749      19.25676616     183.84000005       0.00000000       0.00000000       0.00000000      179        1        1        0        0
W       11.79856745      24.39844702      19.28815231     183.84000005       0.00000000       0.00000000       0.00000000      180        1        1        0        0
W       14.57505168      22.57597782      19.28913211     183.84000005       0.00000000       0.00000000       0.00000000      181        1        1        0        0
W       14.76416302      25.89618558      19.32683429     183.84000005       0.00000000       0.00000000       0.00000000      182        1        1        0        0
Se       2.76684227       1.81576044      13.86351647      78.97100002       0.00000000       0.00000000       0.00000000      183        2        0        0        0
Se       2.79213435       1.82974458      10.49564166      78.97100002       0.00000000       0.00000000       0.00000000      184        2        0        0       -1
Se       5.72155109       0.32729568      13.89423464      78.97100002       0.00000000       0.00000000       0.00000000      185        2        0        0        0
Se       5.77124798       0.32568595      10.52654581      78.97100002       0.00000000       0.00000000       0.00000000      186        2        0        0       -1
Se       5.53496472       3.63363802      13.90821936      78.97100002       0.00000000       0.00000000       0.00000000      187        2        0        0        0
Se       5.58283353       3.65816978      10.54032483      78.97100002       0.00000000       0.00000000       0.00000000      188        2        0        0       -1
Se       8.49440085       2.13930304      13.94725596      78.97100002       0.00000000       0.00000000       0.00000000      189        2        0        0        0
Se       8.55454654       2.14889960      10.57893613      78.97100002       0.00000000       0.00000000       0.00000000      190        2        0        0       -1
Se      11.46230322       0.63175473      13.99366607      78.97100002       0.00000000       0.00000000       0.00000000      191        2        0        0        0
Se      11.51470109       0.63068938      10.62477260      78.97100002       0.00000000       0.00000000       0.00000000      192        2        0        0       -1
Se       5.35792454       6.94264741      13.94622126      78.97100002       0.00000000       0.00000000       0.00000000      193        2        0        0        0
Se       5.39667938       6.98113244      10.57792425      78.97100002       0.00000000       0.00000000       0.00000000      194        2        0        0       -1
Se       8.31623837       5.44946487      13.97059263      78.97100002       0.00000000       0.00000000       0.00000000      195        2        0        0        0
Se       8.36951856       5.47351824      10.60152617      78.97100002       0.00000000       0.00000000       0.00000000      196        2        0        0       -1
Se      11.28193980       3.94374952      14.00539109      78.97100002       0.00000000       0.00000000       0.00000000      197        2        0        0        0
Se      11.33214449       3.95743593      10.63559186      78.97100002       0.00000000       0.00000000       0.00000000      198        2        0        0       -1
Se      14.25555716       2.42383489      14.03131762      78.97100002       0.00000000       0.00000000       0.00000000      199        2        0        0        0
Se      14.28408581       2.43224721      10.66104704      78.97100002       0.00000000       0.00000000       0.00000000      200        2        0        0       -1
Se      17.23500225       0.89627857      14.03269094      78.97100002       0.00000000       0.00000000       0.00000000      201        2        0        0        0
Se      17.23063470       0.90206841      10.66269624      78.97100002       0.00000000       0.00000000       0.00000000      202        2        0        0       -1
Se       8.15137788       8.76214967      14.00318270      78.97100002       0.00000000       0.00000000       0.00000000      203        2        0        0        0
Se       8.18883041       8.78547565      10.63352114      78.97100002       0.00000000       0.00000000       0.00000000      204        2        0        0       -1
Se      11.11396207       7.25821793      14.02754165      78.97100002       0.00000000       0.00000000       0.00000000      205        2        0        0        0
Se      11.15393626       7.27303372      10.65686780      78.97100002       0.00000000       0.00000000       0.00000000      206        2        0        0       -1
Se      14.08237836       5.73960049      14.04780675      78.97100002       0.00000000       0.00000000       0.00000000      207        2        0        0        0
Se      14.10765258       5.75292696      10.67645545      78.97100002       0.00000000       0.00000000       0.00000000      208        2        0        0       -1
Se      17.05556076       4.21055582      14.04624546      78.97100002       0.00000000       0.00000000       0.00000000      209        2        0        0        0
Se      17.05328887       4.22713260      10.67509273      78.97100002       0.00000000       0.00000000       0.00000000      210        2        0        0       -1
Se      20.03119971       2.68314976      14.01527222      78.97100002       0.00000000       0.00000000       0.00000000      211        2        0        0        0
Se      19.99929960       2.70179437      10.64533011      78.97100002       0.00000000       0.00000000       0.00000000      212        2        0        0       -1
Se      23.00575511       1.16940718      13.96268669      78.97100002       0.00000000       0.00000000       0.00000000      213        2        0        0        0
Se      22.95482383       1.18284599      10.59413757      78.97100002       0.00000000       0.00000000       0.00000000      214        2        0        0       -1
Se       7.99922794      12.07671939      14.02794567      78.97100002       0.00000000       0.00000000       0.00000000      215        2        0        0        0
Se       8.01315603      12.08563270      10.65806042      78.97100002       0.00000000       0.00000000       0.00000000      216        2        0        0       -1
Se      10.95938109      10.57549296      14.04277014      78.97100002       0.00000000       0.00000000       0.00000000      217        2        0        0        0
Se      10.98141243      10.57637708      10.67172584      78.97100002       0.00000000       0.00000000       0.00000000      218        2        0        0       -1
Se      13.92206364       9.06064977      14.06081219      78.97100002       0.00000000       0.00000000       0.00000000      219        2        0        0        0
Se      13.93861929       9.06253689      10.68884727      78.97100002       0.00000000       0.00000000       0.00000000      220        2        0        0       -1
Se      16.88705402       7.53274689      14.06324466      78.97100002       0.00000000       0.00000000       0.00000000      221        2        0        0        0
Se      16.88467732       7.54426620      10.69116960      78.97100002       0.00000000       0.00000000       0.00000000      222        2        0        0       -1
Se      19.85353297       6.00116578      14.03744672      78.97100002       0.00000000       0.00000000       0.00000000      223        2        0        0        0
Se      19.82667933       6.02524350      10.66644319      78.97100002       0.00000000       0.00000000       0.00000000      224        2        0        0       -1
Se      22.82057307       4.47909153      13.98521254      78.97100002       0.00000000       0.00000000       0.00000000      225        2        0        0        0
Se      22.77491214       4.51061310      10.61578264      78.97100002       0.00000000       0.00000000       0.00000000      226        2        0        0       -1
Se      25.78589423       2.97450471      13.92223933      78.97100002       0.00000000       0.00000000       0.00000000      227        2        0        0        0
Se      25.73699201       3.00248126      10.55417407      78.97100002       0.00000000       0.00000000       0.00000000      228        2        0        0       -1
Se      28.74635660       1.48418078      13.87173172      78.97100002       0.00000000       0.00000000       0.00000000      229        2        0        0        0
Se      28.71337064       1.49861147      10.50391815      78.97100002       0.00000000       0.00000000       0.00000000      230        2        0        0       -1
Se      10.81226779      13.89330234      14.03695342      78.97100002       0.00000000       0.00000000       0.00000000      231        2        0        0        0
Se      10.81125517      13.87226369      10.66646516      78.97100002       0.00000000       0.00000000       0.00000000      232        2        0        0       -1
Se      13.77114712      12.38486547      14.05342715      78.97100002       0.00000000       0.00000000       0.00000000      233        2        0        0        0
Se      13.77456758      12.36361630      10.68184265      78.97100002       0.00000000       0.00000000       0.00000000      234        2        0        0       -1
Se      16.72917149      10.86248479      14.06498815      78.97100002       0.00000000       0.00000000       0.00000000      235        2        0        0        0
Se      16.72483856      10.85317780      10.69282312      78.97100002       0.00000000       0.00000000       0.00000000      236        2        0        0       -1
Se      19.68612612       9.33074299      14.05477090      78.97100002       0.00000000       0.00000000       0.00000000      237        2        0        0        0
Se      19.66577803       9.34210214      10.68309369      78.97100002       0.00000000       0.00000000       0.00000000      238        2        0        0       -1
Se      22.64307569       7.80127431      14.01659101      78.97100002       0.00000000       0.00000000       0.00000000      239        2        0        0        0
Se      22.60720017       7.83365995      10.64637196      78.97100002       0.00000000       0.00000000       0.00000000      240        2        0        0       -1
Se      25.60086095       6.28576089      13.95893970      78.97100002       0.00000000       0.00000000       0.00000000      241        2        0        0        0
Se      25.55930897       6.33020794      10.59031024      78.97100002       0.00000000       0.00000000       0.00000000      242        2        0        0       -1
Se      28.55793668       4.78752377      13.90150983      78.97100002       0.00000000       0.00000000       0.00000000      243        2        0        0        0
Se      28.52702700       4.83029280      10.53375981      78.97100002       0.00000000       0.00000000       0.00000000      244        2        0        0       -1
Se      -0.18596486       3.30031253      13.86578016      78.97100002       0.00000000       0.00000000       0.00000000      245        2        1        0        0
Se      -0.19133875       3.33076744      10.49795614      78.97100002       0.00000000       0.00000000       0.00000000      246        2        1        0       -1
Se      10.66055908      17.20887024      14.00701504      78.97100002       0.00000000       0.00000000       0.00000000      247        2        0        0        0
Se      10.63726400      17.16911873      10.63781121      78.97100002       0.00000000       0.00000000       0.00000000      248        2        0        0       -1
Se      13.61915739      15.70797911      14.01875035      78.97100002       0.00000000       0.00000000       0.00000000      249        2        0        0        0
Se      13.60832147      15.66321638      10.64856910      78.97100002       0.00000000       0.00000000       0.00000000      250        2        0        0       -1
Se      16.57419478      14.19479959      14.03882833      78.97100002       0.00000000       0.00000000       0.00000000      251        2        0        0        0
Se      16.56736011      14.15842981      10.66775960      78.97100002       0.00000000       0.00000000       0.00000000      252        2        0        0       -1
Se      19.52554530      12.66874816      14.04964375      78.97100002       0.00000000       0.00000000       0.00000000      253        2        0        0        0
Se      19.51321724      12.65433917      10.67826208      78.97100002       0.00000000       0.00000000       0.00000000      254        2        0        0       -1
Se      22.47417083      11.13681447      14.03761300      78.97100002       0.00000000       0.00000000       0.00000000      255        2        0        0        0
Se      22.45232353      11.15187807      10.66695237      78.97100002       0.00000000       0.00000000       0.00000000      256        2        0        0       -1
Se      25.42331827       9.61118258      14.00115992      78.97100002       0.00000000       0.00000000       0.00000000      257        2        0        0        0
Se      25.39535580       9.65269145      10.63193727      78.97100002       0.00000000       0.00000000       0.00000000      258        2        0        0       -1
Se      -3.32340075       8.10107292      13.95214146      78.97100002       0.00000000       0.00000000       0.00000000      259        2        1        0        0
Se      -3.34699789       8.15631230      10.58406745      78.97100002       0.00000000       0.00000000       0.00000000      260        2        1        0       -1
Se      -0.37098263       6.60663538      13.91031363      78.97100002       0.00000000       0.00000000       0.00000000      261        2        1        0        0
Se      -0.37626764       6.65990924      10.54271780      78.97100002       0.00000000       0.00000000       0.00000000      262        2        1        0       -1
Se       2.58110911       5.12036438      13.89358614      78.97100002       0.00000000       0.00000000       0.00000000      263        2        1        0        0
Se       2.60337627       5.16104552      10.52588924      78.97100002       0.00000000       0.00000000       0.00000000      264        2        1        0       -1
Se      13.45507377      19.02550212      13.96436377      78.97100002       0.00000000       0.00000000       0.00000000      265        2        0        0        0
Se      13.43304784      18.96938454      10.59573961      78.97100002       0.00000000       0.00000000       0.00000000      266        2        0        0       -1
Se      16.41090445      17.52298748      13.98642047      78.97100002       0.00000000       0.00000000       0.00000000      267        2        0        0        0
Se      16.40303240      17.46683633      10.61695231      78.97100002       0.00000000       0.00000000       0.00000000      268        2        0        0       -1
Se      19.36212379      16.00744336      14.01499108      78.97100002       0.00000000       0.00000000       0.00000000      269        2        0        0        0
Se      19.35959235      15.96661299      10.64490372      78.97100002       0.00000000       0.00000000       0.00000000      270        2        0        0       -1
Se      22.30861062      14.48036554      14.03312961      78.97100002       0.00000000       0.00000000       0.00000000      271        2        0        0        0
Se      22.30388620      14.46797738      10.66290950      78.97100002       0.00000000       0.00000000       0.00000000      272        2        0        0       -1
Se      -6.44520446      12.95018324      14.02948115      78.97100002       0.00000000       0.00000000       0.00000000      273        2        1        0        0
Se      -6.45484197      12.97098285      10.65983140      78.97100002       0.00000000       0.00000000       0.00000000      274        2        1        0       -1
Se      -3.49850573      11.42868380      14.00425845      78.97100002       0.00000000       0.00000000       0.00000000      275        2        1        0        0
Se      -3.50974637      11.47567039      10.63553842      78.97100002       0.00000000       0.00000000       0.00000000      276        2        1        0       -1
Se      -0.54819656       9.92291769      13.97010740      78.97100002       0.00000000       0.00000000       0.00000000      277        2        1        0        0
Se      -0.55150421       9.98046651      10.60207177      78.97100002       0.00000000       0.00000000       0.00000000      278        2        1        0       -1
Se       2.40404820       8.43058507      13.94603034      78.97100002       0.00000000       0.00000000       0.00000000      279        2        1        0        0
Se       2.41983684       8.48286613      10.57816640      78.97100002       0.00000000       0.00000000       0.00000000      280        2        1        0       -1
Se      13.27597076      22.33460963      13.90909057      78.97100002       0.00000000       0.00000000       0.00000000      281        2        0        0        0
Se      13.24752045      22.28754412      10.54135685      78.97100002       0.00000000       0.00000000       0.00000000      282        2        0        0       -1
Se      16.23303118      20.84156131      13.92321721      78.97100002       0.00000000       0.00000000       0.00000000      283        2        0        0        0
Se      16.22652297      20.78437219      10.55514033      78.97100002       0.00000000       0.00000000       0.00000000      284        2        0        0       -1
Se      19.18695775      19.33835173      13.95909873      78.97100002       0.00000000       0.00000000       0.00000000      285        2        0        0        0
Se      19.19555911      19.28428722      10.59048143      78.97100002       0.00000000       0.00000000       0.00000000      286        2        0        0       -1
Se      -9.56118870      17.82206462      14.00062208      78.97100002       0.00000000       0.00000000       0.00000000      287        2        1        0        0
Se      -9.54722958      17.78597934      10.63157576      78.97100002       0.00000000       0.00000000       0.00000000      288        2        1        0       -1
Se      -6.61424334      16.29548625      14.03079382      78.97100002       0.00000000       0.00000000       0.00000000      289        2        1        0        0
Se      -6.60335069      16.28810897      10.66139238      78.97100002       0.00000000       0.00000000       0.00000000      290        2        1        0       -1
Se      -3.66695016      14.76786329      14.03824105      78.97100002       0.00000000       0.00000000       0.00000000      291        2        1        0        0
Se      -3.66304761      14.79029033      10.66888532      78.97100002       0.00000000       0.00000000       0.00000000      292        2        1        0       -1
Se      -0.71603740      13.25052111      14.02404982      78.97100002       0.00000000       0.00000000       0.00000000      293        2        1        0        0
Se      -0.71579514      13.29255828      10.65521005      78.97100002       0.00000000       0.00000000       0.00000000      294        2        1        0       -1
Se       2.23803194      11.74807367      14.00262660      78.97100002       0.00000000       0.00000000       0.00000000      295        2        1        0        0
Se       2.24467711      11.79362629      10.63414376      78.97100002       0.00000000       0.00000000       0.00000000      296        2        1        0       -1
Se       5.19358052      10.25550207      13.99252343      78.97100002       0.00000000       0.00000000       0.00000000      297        2        1        0        0
Se       5.21599570      10.29171587      10.62378989      78.97100002       0.00000000       0.00000000       0.00000000      298        2        1        0       -1
Se      16.04454216      24.14942281      13.87227547      78.97100002       0.00000000       0.00000000       0.00000000      299        2        0        0        0
Se      16.03966207      24.11277429      10.50446719      78.97100002       0.00000000       0.00000000       0.00000000      300        2        0        0       -1
Se     -12.69870907      22.65661132      13.90214418      78.97100002       0.00000000       0.00000000       0.00000000      301        2        1        0        0
Se     -12.68004438      22.61087749      10.53438459      78.97100002       0.00000000       0.00000000       0.00000000      302        2        1        0       -1
Se      -9.74428557      21.15296516      13.95277812      78.97100002       0.00000000       0.00000000       0.00000000      303        2        1        0        0
Se      -9.71276780      21.11001123      10.58475768      78.97100002       0.00000000       0.00000000       0.00000000      304        2        1        0       -1
Se      -6.79048900      19.63622736      14.00606105      78.97100002       0.00000000       0.00000000       0.00000000      305        2        1        0        0
Se      -6.75927757      19.60827827      10.63745586      78.97100002       0.00000000       0.00000000       0.00000000      306        2        1        0       -1
Se      -3.83609950      18.11012860      14.04340445      78.97100002       0.00000000       0.00000000       0.00000000      307        2        1        0        0
Se      -3.81624050      18.10466325      10.67407030      78.97100002       0.00000000       0.00000000       0.00000000      308        2        1        0       -1
Se      -0.87930948      16.58530281      14.05437254      78.97100002       0.00000000       0.00000000       0.00000000      309        2        1        0        0
Se      -0.87418476      16.60030496      10.68480453      78.97100002       0.00000000       0.00000000       0.00000000      310        2        1        0       -1
Se       2.08012275      15.07203904      14.04383958      78.97100002       0.00000000       0.00000000       0.00000000      311        2        1        0        0
Se       2.07717795      15.09625050      10.67454693      78.97100002       0.00000000       0.00000000       0.00000000      312        2        1        0       -1
Se       5.03998814      13.57176901      14.02934717      78.97100002       0.00000000       0.00000000       0.00000000      313        2        1        0        0
Se       5.04150390      13.59179481      10.66011125      78.97100002       0.00000000       0.00000000       0.00000000      314        2        1        0       -1
Se     -15.84522846      27.45076360      13.85130456      78.97100002       0.00000000       0.00000000       0.00000000      315        2        1        0        0
Se      15.84824581      27.44759943      10.48329046      78.97100002       0.00000000       0.00000000       0.00000000      316        2        0        0       -1
Se     -12.89119871      25.96415332      13.86626400      78.97100002       0.00000000       0.00000000       0.00000000      317        2        1        0        0
Se     -12.86683490      25.94514297      10.49844358      78.97100002       0.00000000       0.00000000       0.00000000      318        2        1        0       -1
Se      -9.93566840      24.47034737      13.91111180      78.97100002       0.00000000       0.00000000       0.00000000      319        2        1        0        0
Se      -9.89141452      24.44156880      10.54351849      78.97100002       0.00000000       0.00000000       0.00000000      320        2        1        0       -1
Se      -6.97661765      22.96469159      13.97107677      78.97100002       0.00000000       0.00000000       0.00000000      321        2        1        0        0
Se      -6.92848370      22.93503038      10.60304973      78.97100002       0.00000000       0.00000000       0.00000000      322        2        1        0       -1
Se      -4.01369984      21.44552468      14.02520196      78.97100002       0.00000000       0.00000000       0.00000000      323        2        1        0        0
Se      -3.97859332      21.42413270      10.65636668      78.97100002       0.00000000       0.00000000       0.00000000      324        2        1        0       -1
Se      -1.04742113      19.91932423      14.05589713      78.97100002       0.00000000       0.00000000       0.00000000      325        2        1        0        0
Se      -1.03554464      19.91058932      10.68630136      78.97100002       0.00000000       0.00000000       0.00000000      326        2        1        0       -1
Se       1.92086519      18.39811617      14.05814049      78.97100002       0.00000000       0.00000000       0.00000000      327        2        1        0        0
Se       1.91126600      18.39792933      10.68847234      78.97100002       0.00000000       0.00000000       0.00000000      328        2        1        0       -1
Se       4.88823413      16.88974691      14.04362440      78.97100002       0.00000000       0.00000000       0.00000000      329        2        1        0        0
Se       4.86983836      16.88795948      10.67419746      78.97100002       0.00000000       0.00000000       0.00000000      330        2        1        0       -1
Se       7.85192013      15.39154786      14.03227772      78.97100002       0.00000000       0.00000000       0.00000000      331        2        1        0        0
Se       7.83948271      15.37990789      10.66269606      78.97100002       0.00000000       0.00000000       0.00000000      332        2        1        0       -1
Se      -7.16730755      26.28079506      13.94694157      78.97100002       0.00000000       0.00000000       0.00000000      333        2        1        0        0
Se      -7.10896087      26.26772237      10.57901964      78.97100002       0.00000000       0.00000000       0.00000000      334        2        1        0       -1
Se      -4.19961429      24.76898438      14.00233694      78.97100002       0.00000000       0.00000000       0.00000000      335        2        1        0        0
Se      -4.15272595      24.75115530      10.63374582      78.97100002       0.00000000       0.00000000       0.00000000      336        2        1        0       -1
Se      -1.22573143      23.24544190      14.04027924      78.97100002       0.00000000       0.00000000       0.00000000      337        2        1        0        0
Se      -1.20588492      23.22912963      10.67095952      78.97100002       0.00000000       0.00000000       0.00000000      338        2        1        0       -1
Se       1.75118566      21.72059387      14.04942719      78.97100002       0.00000000       0.00000000       0.00000000      339        2        1        0        0
Se       1.74026581      21.70687119      10.67997148      78.97100002       0.00000000       0.00000000       0.00000000      340        2        1        0       -1
Se       4.72689236      20.20613419      14.03459579      78.97100002       0.00000000       0.00000000       0.00000000      341        2        1        0        0
Se       4.69527297      20.18926254      10.66554855      78.97100002       0.00000000       0.00000000       0.00000000      342        2        1        0       -1
Se       7.69710060      18.70468076      14.01422149      78.97100002       0.00000000       0.00000000       0.00000000      343        2        1        0        0
Se       7.66271128      18.67725577      10.64538182      78.97100002       0.00000000       0.00000000       0.00000000      344        2        1        0       -1
Se      -1.41062051      26.56230870      14.02763164      78.97100002       0.00000000       0.00000000       0.00000000      345        2        1        0        0
Se      -1.38431152      26.55576855      10.65820634      78.97100002       0.00000000       0.00000000       0.00000000      346        2        1        0       -1
Se       1.57052183      25.03624279      14.03507749      78.97100002       0.00000000       0.00000000       0.00000000      347        2        1        0        0
Se       1.56242681      25.02672937      10.66569223      78.97100002       0.00000000       0.00000000       0.00000000      348        2        1        0       -1
Se       4.55157167      23.51777950      14.01576617      78.97100002       0.00000000       0.00000000       0.00000000      349        2        1        0        0
Se       4.51506517      23.50214626      10.64704385      78.97100002       0.00000000       0.00000000       0.00000000      350        2        1        0       -1
Se       7.52722626      22.01358970      13.98482959      78.97100002       0.00000000       0.00000000       0.00000000      351        2        1        0        0
Se       7.47986177      21.98539171      10.61662699      78.97100002       0.00000000       0.00000000       0.00000000      352        2        1        0       -1
Se      10.49463423      20.51949068      13.96319001      78.97100002       0.00000000       0.00000000       0.00000000      353        2        1        0        0
Se      10.45533869      20.47521502      10.59505425      78.97100002       0.00000000       0.00000000       0.00000000      354        2        1        0       -1
Se       4.36699564      26.82532792      14.00589720      78.97100002       0.00000000       0.00000000       0.00000000      355        2        1        0        0
Se       4.33146126      26.82591087      10.63692100      78.97100002       0.00000000       0.00000000       0.00000000      356        2        1        0       -1
Se       7.34442304      25.31763278      13.96272317      78.97100002       0.00000000       0.00000000       0.00000000      357        2        1        0        0
Se       7.29251563      25.30619489      10.59467883      78.97100002       0.00000000       0.00000000       0.00000000      358        2        1        0       -1
Se      10.31410487      23.82368989      13.92425682      78.97100002       0.00000000       0.00000000       0.00000000      359        2        1        0        0
Se      10.26642619      23.79431784      10.55662502      78.97100002       0.00000000       0.00000000       0.00000000      360        2        1        0       -1
Se      10.12584306      27.12380641      13.90831940      78.97100002       0.00000000       0.00000000       0.00000000      361        2        1        0        0
Se      10.07529307      27.12295619      10.54059398      78.97100002       0.00000000       0.00000000       0.00000000      362        2        1        0       -1
Se      13.08773310      25.63630206      13.87413927      78.97100002       0.00000000       0.00000000       0.00000000      363        2        1        0        0
Se      13.05597806      25.61656268      10.50640388      78.97100002       0.00000000       0.00000000       0.00000000      364        2        1        0       -1
Se       2.94995683       1.54996826      21.00436467      78.97100002       0.00000000       0.00000000       0.00000000      365        2        0        0        0
Se       2.92493799       1.53554971      17.63648979      78.97100002       0.00000000       0.00000000       0.00000000      366        2        0        0        0
Se       3.13704701       4.88204346      20.97390126      78.97100002       0.00000000       0.00000000       0.00000000      367        2        0        0        0
Se       3.11330500       4.83854516      17.60621005      78.97100002       0.00000000       0.00000000       0.00000000      368        2        0        0        0
Se       5.92878520       3.05265406      20.95968288      78.97100002       0.00000000       0.00000000       0.00000000      369        2        0        0        0
Se       5.88341319       3.02386585      17.59178823      78.97100002       0.00000000       0.00000000       0.00000000      370        2        0        0        0
Se       8.71338990       1.23005958      20.92176302      78.97100002       0.00000000       0.00000000       0.00000000      371        2        0        0        0
Se       8.66066774       1.21612514      17.55346810      78.97100002       0.00000000       0.00000000       0.00000000      372        2        0        0        0
Se       6.10771189       6.38092618      20.92138211      78.97100002       0.00000000       0.00000000       0.00000000      373        2        0        0        0
Se       6.06906710       6.33384570      17.55306169      78.97100002       0.00000000       0.00000000       0.00000000      374        2        0        0        0
Se       8.89429327       4.55844846      20.89848811      78.97100002       0.00000000       0.00000000       0.00000000      375        2        0        0        0
Se       8.84673896       4.52458310      17.52942231      78.97100002       0.00000000       0.00000000       0.00000000      376        2        0        0        0
Se      11.67207301       2.74609502      20.86635739      78.97100002       0.00000000       0.00000000       0.00000000      377        2        0        0        0
Se      11.63326710       2.72559585      17.49670257      78.97100002       0.00000000       0.00000000       0.00000000      378        2        0        0        0
Se      14.44217400       0.94395336      20.84184565      78.97100002       0.00000000       0.00000000       0.00000000      379        2        0        0        0
Se      14.42774661       0.93663266      17.47197053      78.97100002       0.00000000       0.00000000       0.00000000      380        2        0        0        0
Se       6.27313526       9.70367556      20.87562866      78.97100002       0.00000000       0.00000000       0.00000000      381        2        0        0        0
Se       6.24753896       9.65772768      17.50673464      78.97100002       0.00000000       0.00000000       0.00000000      382        2        0        0        0
Se       9.06281467       7.88225258      20.86454489      78.97100002       0.00000000       0.00000000       0.00000000      383        2        0        0        0
Se       9.02568464       7.84564309      17.49474218      78.97100002       0.00000000       0.00000000       0.00000000      384        2        0        0        0
Se      11.84497031       6.07023306      20.84316633      78.97100002       0.00000000       0.00000000       0.00000000      385        2        0        0        0
Se      11.81220919       6.04308284      17.47249472      78.97100002       0.00000000       0.00000000       0.00000000      386        2        0        0        0
Se      14.61935937       4.26923374      20.82838851      78.97100002       0.00000000       0.00000000       0.00000000      387        2        0        0        0
Se      14.60782528       4.25071828      17.45735545      78.97100002       0.00000000       0.00000000       0.00000000      388        2        0        0        0
Se      17.38851294       2.47391144      20.83381533      78.97100002       0.00000000       0.00000000       0.00000000      389        2        0        0        0
Se      17.40754272       2.46447161      17.46334884      78.97100002       0.00000000       0.00000000       0.00000000      390        2        0        0        0
Se      20.15665445       0.67467721      20.86257999      78.97100002       0.00000000       0.00000000       0.00000000      391        2        0        0        0
Se      20.20292046       0.67524640      17.49339624      78.97100002       0.00000000       0.00000000       0.00000000      392        2        0        0        0
Se       9.21808077      11.20133444      20.83899243      78.97100002       0.00000000       0.00000000       0.00000000      393        2        0        0        0
Se       9.19626380      11.18066801      17.46871281      78.97100002       0.00000000       0.00000000       0.00000000      394        2        0        0        0
Se      12.00555656       9.38832474      20.82348816      78.97100002       0.00000000       0.00000000       0.00000000      395        2        0        0        0
Se      11.98134003       9.37293994      17.45213153      78.97100002       0.00000000       0.00000000       0.00000000      396        2        0        0        0
Se      14.78711595       7.58726110      20.81122696      78.97100002       0.00000000       0.00000000       0.00000000      397        2        0        0        0
Se      14.77740517       7.57373486      17.43926636      78.97100002       0.00000000       0.00000000       0.00000000      398        2        0        0        0
Se      17.56378452       5.79467462      20.81851175      78.97100002       0.00000000       0.00000000       0.00000000      399        2        0        0        0
Se      17.58080630       5.78104467      17.44694595      78.97100002       0.00000000       0.00000000       0.00000000      400        2        0        0        0
Se      20.33810997       4.00077927      20.85204398      78.97100002       0.00000000       0.00000000       0.00000000      401        2        0        0        0
Se      20.38257920       3.98787347      17.48188921      78.97100002       0.00000000       0.00000000       0.00000000      402        2        0        0        0
Se      23.11367641       2.19568977      20.90494072      78.97100002       0.00000000       0.00000000       0.00000000      403        2        0        0        0
Se      23.17337489       2.18695355      17.53633689      78.97100002       0.00000000       0.00000000       0.00000000      404        2        0        0        0
Se      25.89456495       0.37574556      20.95910578      78.97100002       0.00000000       0.00000000       0.00000000      405        2        0        0        0
Se      25.94939181       0.37725222      17.59137791      78.97100002       0.00000000       0.00000000       0.00000000      406        2        0        0        0
Se       9.36621236      14.51819873      20.83712458      78.97100002       0.00000000       0.00000000       0.00000000      407        2        0        0        0
Se       9.36304250      14.52465014      17.46711268      78.97100002       0.00000000       0.00000000       0.00000000      408        2        0        0        0
Se      12.15709724      12.70220322      20.82458777      78.97100002       0.00000000       0.00000000       0.00000000      409        2        0        0        0
Se      12.14372422      12.71219342      17.45341634      78.97100002       0.00000000       0.00000000       0.00000000      410        2        0        0        0
Se      14.94543192      10.89779179      20.80861713      78.97100002       0.00000000       0.00000000       0.00000000      411        2        0        0        0
Se      14.93675905      10.90529573      17.43653117      78.97100002       0.00000000       0.00000000       0.00000000      412        2        0        0        0
Se      17.73100946       9.10502256      20.80730890      78.97100002       0.00000000       0.00000000       0.00000000      413        2        0        0        0
Se      17.74155337       9.10382323      17.43515064      78.97100002       0.00000000       0.00000000       0.00000000      414        2        0        0        0
Se      20.51459327       7.31596601      20.83279865      78.97100002       0.00000000       0.00000000       0.00000000      415        2        0        0        0
Se      20.54986315       7.30350707      17.46175111      78.97100002       0.00000000       0.00000000       0.00000000      416        2        0        0        0
Se      23.29751213       5.51924551      20.88389938      78.97100002       0.00000000       0.00000000       0.00000000      417        2        0        0        0
Se      23.35028933       5.49797703      17.51445520      78.97100002       0.00000000       0.00000000       0.00000000      418        2        0        0        0
Se      26.08230819       3.70735993      20.94570769      78.97100002       0.00000000       0.00000000       0.00000000      419        2        0        0        0
Se      26.13505345       3.68462236      17.57764424      78.97100002       0.00000000       0.00000000       0.00000000      420        2        0        0        0
Se      28.87137833       1.88115489      20.99605364      78.97100002       0.00000000       0.00000000       0.00000000      421        2        0        0        0
Se      28.90531989       1.86748756      17.62824277      78.97100002       0.00000000       0.00000000       0.00000000      422        2        0        0        0
Se      12.30908038      16.01610833      20.85408575      78.97100002       0.00000000       0.00000000       0.00000000      423        2        0        0        0
Se      12.30861444      16.05286775      17.48411841      78.97100002       0.00000000       0.00000000       0.00000000      424        2        0        0        0
Se      15.10094862      14.20508992      20.83296062      78.97100002       0.00000000       0.00000000       0.00000000      425        2        0        0        0
Se      15.09350881      14.24006502      17.46193389      78.97100002       0.00000000       0.00000000       0.00000000      426        2        0        0        0
Se      17.89294316      12.40751102      20.81660214      78.97100002       0.00000000       0.00000000       0.00000000      427        2        0        0        0
Se      17.89352702      12.43039500      17.44491155      78.97100002       0.00000000       0.00000000       0.00000000      428        2        0        0        0
Se      20.68507704      10.61933881      20.82193754      78.97100002       0.00000000       0.00000000       0.00000000      429        2        0        0        0
Se      20.70410570      10.62239189      17.45056353      78.97100002       0.00000000       0.00000000       0.00000000      430        2        0        0        0
Se      23.47669112       8.83003710      20.85580085      78.97100002       0.00000000       0.00000000       0.00000000      431        2        0        0        0
Se      23.51364788       8.81151470      17.48573243      78.97100002       0.00000000       0.00000000       0.00000000      432        2        0        0        0
Se      26.26779971       7.02888779      20.91049948      78.97100002       0.00000000       0.00000000       0.00000000      433        2        0        0        0
Se      26.31043180       6.99433198      17.54190009      78.97100002       0.00000000       0.00000000       0.00000000      434        2        0        0        0
Se      -2.63820722       5.21170326      20.96651463      78.97100002       0.00000000       0.00000000       0.00000000      435        2        1        0        0
Se      -2.60807322       5.17287419      17.59875828      78.97100002       0.00000000       0.00000000       0.00000000      436        2        1        0        0
Se       0.15595236       3.38266396      21.00206849      78.97100002       0.00000000       0.00000000       0.00000000      437        2        1        0        0
Se       0.15995823       3.35247395      17.63424263      78.97100002       0.00000000       0.00000000       0.00000000      438        2        1        0        0
Se      12.47125582      19.33500211      20.90520073      78.97100002       0.00000000       0.00000000       0.00000000      439        2        0        0        0
Se      12.48473417      19.38588175      17.53663206      78.97100002       0.00000000       0.00000000       0.00000000      440        2        0        0        0
Se      15.26326117      17.51549644      20.88335431      78.97100002       0.00000000       0.00000000       0.00000000      441        2        0        0        0
Se      15.25863047      17.57067172      17.51390009      78.97100002       0.00000000       0.00000000       0.00000000      442        2        0        0        0
Se      18.05726866      15.70897335      20.85287594      78.97100002       0.00000000       0.00000000       0.00000000      443        2        0        0        0
Se      18.04726960      15.75590096      17.48263415      78.97100002       0.00000000       0.00000000       0.00000000      444        2        0        0        0
Se      20.85349907      13.91592240      20.83272230      78.97100002       0.00000000       0.00000000       0.00000000      445        2        0        0        0
Se      20.85171447      13.94190071      17.46204886      78.97100002       0.00000000       0.00000000       0.00000000      446        2        0        0        0
Se      23.65107816      12.12934001      20.83735880      78.97100002       0.00000000       0.00000000       0.00000000      447        2        0        0        0
Se      23.66457107      12.12674907      17.46714615      78.97100002       0.00000000       0.00000000       0.00000000      448        2        0        0        0
Se      -5.25016034      10.33773619      20.86921013      78.97100002       0.00000000       0.00000000       0.00000000      449        2        1        0        0
Se      -5.22562756      10.30724898      17.50017975      78.97100002       0.00000000       0.00000000       0.00000000      450        2        1        0        0
Se      -2.45426978       8.53209043      20.91624570      78.97100002       0.00000000       0.00000000       0.00000000      451        2        1        0        0
Se      -2.43283378       8.48321261      17.54823701      78.97100002       0.00000000       0.00000000       0.00000000      452        2        1        0        0
Se       0.34160970       6.71137757      20.95733013      78.97100002       0.00000000       0.00000000       0.00000000      453        2        1        0        0
Se       0.34417852       6.65883042      17.58973825      78.97100002       0.00000000       0.00000000       0.00000000      454        2        1        0        0
Se      15.43808658      20.83459921      20.94498186      78.97100002       0.00000000       0.00000000       0.00000000      455        2        0        0        0
Se      15.43803640      20.89112196      17.57690332      78.97100002       0.00000000       0.00000000       0.00000000      456        2        0        0        0
Se      18.23117440      19.01709279      20.90869602      78.97100002       0.00000000       0.00000000       0.00000000      457        2        0        0        0
Se      18.21339987      19.07523707      17.54004694      78.97100002       0.00000000       0.00000000       0.00000000      458        2        0        0        0
Se      21.02660219      17.21412111      20.86726818      78.97100002       0.00000000       0.00000000       0.00000000      459        2        0        0        0
Se      21.00483573      17.25877002      17.49802620      78.97100002       0.00000000       0.00000000       0.00000000      460        2        0        0        0
Se      -7.87382877      15.42350144      20.83987505      78.97100002       0.00000000       0.00000000       0.00000000      461        2        1        0        0
Se      -7.88664780      15.44175844      17.47021530      78.97100002       0.00000000       0.00000000       0.00000000      462        2        1        0        0
Se      -5.07535569      13.63629591      20.83892676      78.97100002       0.00000000       0.00000000       0.00000000      463        2        1        0        0
Se      -5.07405471      13.62266241      17.46953422      78.97100002       0.00000000       0.00000000       0.00000000      464        2        1        0        0
Se      -2.27797394      11.84096936      20.86332651      78.97100002       0.00000000       0.00000000       0.00000000      465        2        1        0        0
Se      -2.26923144      11.79958824      17.49473608      78.97100002       0.00000000       0.00000000       0.00000000      466        2        1        0        0
Se       0.51847800      10.03080409      20.89785278      78.97100002       0.00000000       0.00000000       0.00000000      467        2        1        0        0
Se       0.51996294       9.97414949      17.52983601      78.97100002       0.00000000       0.00000000       0.00000000      468        2        1        0        0
Se       3.31442908       8.20799575      20.92166521      78.97100002       0.00000000       0.00000000       0.00000000      469        2        1        0        0
Se       3.29627902       8.15101621      17.55374698      78.97100002       0.00000000       0.00000000       0.00000000      470        2        1        0        0
Se      15.62380483      24.16399476      20.99557353      78.97100002       0.00000000       0.00000000       0.00000000      471        2        0        0        0
Se      15.62749593      24.20022215      17.62776283      78.97100002       0.00000000       0.00000000       0.00000000      472        2        0        0        0
Se      18.41596054      22.33693892      20.96534351      78.97100002       0.00000000       0.00000000       0.00000000      473        2        0        0        0
Se      18.39419610      22.38536096      17.59758982      78.97100002       0.00000000       0.00000000       0.00000000      474        2        0        0        0
Se     -10.48970247      20.52191218      20.91493493      78.97100002       0.00000000       0.00000000       0.00000000      475        2        1        0        0
Se     -10.52570809      20.56996048      17.54684747      78.97100002       0.00000000       0.00000000       0.00000000      476        2        1        0        0
Se      -7.69636648      18.72153640      20.86371456      78.97100002       0.00000000       0.00000000       0.00000000      477        2        1        0        0
Se      -7.73118140      18.75448167      17.49497899      78.97100002       0.00000000       0.00000000       0.00000000      478        2        1        0        0
Se      -4.90240289      16.93158242      20.83088193      78.97100002       0.00000000       0.00000000       0.00000000      479        2        1        0        0
Se      -4.92341996      16.93895678      17.46151903      78.97100002       0.00000000       0.00000000       0.00000000      480        2        1        0        0
Se      -2.10860980      15.14165074      20.82625096      78.97100002       0.00000000       0.00000000       0.00000000      481        2        1        0        0
Se      -2.11355654      15.12122894      17.45692665      78.97100002       0.00000000       0.00000000       0.00000000      482        2        1        0        0
Se       0.68501196      13.34110151      20.84429192      78.97100002       0.00000000       0.00000000       0.00000000      483        2        1        0        0
Se       0.68596954      13.29962777      17.47546954      78.97100002       0.00000000       0.00000000       0.00000000      484        2        1        0        0
Se       3.47927161      11.52658350      20.86690669      78.97100002       0.00000000       0.00000000       0.00000000      485        2        1        0        0
Se       3.47100707      11.47687668      17.49832348      78.97100002       0.00000000       0.00000000       0.00000000      486        2        1        0        0
Se      31.66371541       0.04792418      21.01671674      78.97100002       0.00000000       0.00000000       0.00000000      487        2        0        1        0
Se      31.66851978       0.05095751      17.64870285      78.97100002       0.00000000       0.00000000       0.00000000      488        2        0        1        0
Se     -13.09098696      25.66716943      21.00154137      78.97100002       0.00000000       0.00000000       0.00000000      489        2        1        0        0
Se     -13.11490891      25.68753001      17.63372305      78.97100002       0.00000000       0.00000000       0.00000000      490        2        1        0        0
Se     -10.30034582      23.84261621      20.95643716      78.97100002       0.00000000       0.00000000       0.00000000      491        2        1        0        0
Se     -10.34392056      23.87413880      17.58883951      78.97100002       0.00000000       0.00000000       0.00000000      492        2        1        0        0
Se      -7.51225684      22.03081800      20.89703493      78.97100002       0.00000000       0.00000000       0.00000000      493        2        1        0        0
Se      -7.56031985      22.06250957      17.52898794      78.97100002       0.00000000       0.00000000       0.00000000      494        2        1        0        0
Se      -4.72598434      20.23269821      20.84416766      78.97100002       0.00000000       0.00000000       0.00000000      495        2        1        0        0
Se      -4.76223070      20.25330409      17.47531412      78.97100002       0.00000000       0.00000000       0.00000000      496        2        1        0        0
Se      -1.94049612      18.44171154      20.81503318      78.97100002       0.00000000       0.00000000       0.00000000      497        2        1        0        0
Se      -1.95577120      18.44440110      17.44546011      78.97100002       0.00000000       0.00000000       0.00000000      498        2        1        0        0
Se       0.84572110      16.64671125      20.81394666      78.97100002       0.00000000       0.00000000       0.00000000      499        2        1        0        0
Se       0.84743551      16.63164387      17.44435837      78.97100002       0.00000000       0.00000000       0.00000000      500        2        1        0        0
Se       3.63459519      14.83973426      20.82943950      78.97100002       0.00000000       0.00000000       0.00000000      501        2        1        0        0
Se       3.63861715      14.81405579      17.46012640      78.97100002       0.00000000       0.00000000       0.00000000      502        2        1        0        0
Se       6.42639278      13.02177158      20.84206162      78.97100002       0.00000000       0.00000000       0.00000000      503        2        1        0        0
Se       6.41856431      12.99549457      17.47263528      78.97100002       0.00000000       0.00000000       0.00000000      504        2        1        0        0
Se     -10.10858510      27.17238105      20.97367130      78.97100002       0.00000000       0.00000000       0.00000000      505        2        1        0        0
Se     -10.15508878      27.17389242      17.60597715      78.97100002       0.00000000       0.00000000       0.00000000      506        2        1        0        0
Se      -7.32361531      25.35268502      20.92113945      78.97100002       0.00000000       0.00000000       0.00000000      507        2        1        0        0
Se      -7.37675050      25.36547721      17.55327291      78.97100002       0.00000000       0.00000000       0.00000000      508        2        1        0        0
Se      -4.54398830      23.54580855      20.86517683      78.97100002       0.00000000       0.00000000       0.00000000      509        2        1        0        0
Se      -4.58655932      23.56295875      17.49668543      78.97100002       0.00000000       0.00000000       0.00000000      510        2        1        0        0
Se      -1.76752173      21.74956400      20.82502770      78.97100002       0.00000000       0.00000000       0.00000000      511        2        1        0        0
Se      -1.78675377      21.76414103      17.45572551      78.97100002       0.00000000       0.00000000       0.00000000      512        2        1        0        0
Se       1.00896947      19.95501924      20.81143201      78.97100002       0.00000000       0.00000000       0.00000000      513        2        1        0        0
Se       1.01408015      19.96301197      17.44176178      78.97100002       0.00000000       0.00000000       0.00000000      514        2        1        0        0
Se       3.78923950      18.15232657      20.82012426      78.97100002       0.00000000       0.00000000       0.00000000      515        2        1        0        0
Se       3.80648692      18.15464989      17.45066841      78.97100002       0.00000000       0.00000000       0.00000000      516        2        1        0        0
Se       6.57552670      16.33826021      20.83434399      78.97100002       0.00000000       0.00000000       0.00000000      517        2        1        0        0
Se       6.58749820      16.34027146      17.46495241      78.97100002       0.00000000       0.00000000       0.00000000      518        2        1        0        0
Se      -4.35906744      26.86987489      20.87577253      78.97100002       0.00000000       0.00000000       0.00000000      519        2        1        0        0
Se      -4.40148017      26.86889252      17.50704085      78.97100002       0.00000000       0.00000000       0.00000000      520        2        1        0        0
Se      -1.58837064      25.06883348      20.83952734      78.97100002       0.00000000       0.00000000       0.00000000      521        2        1        0        0
Se      -1.60621980      25.07774179      17.47028913      78.97100002       0.00000000       0.00000000       0.00000000      522        2        1        0        0
Se       1.18041674      23.27210074      20.82562844      78.97100002       0.00000000       0.00000000       0.00000000      523        2        1        0        0
Se       1.19135954      23.28720870      17.45620183      78.97100002       0.00000000       0.00000000       0.00000000      524        2        1        0        0
Se       3.95226716      21.47018415      20.83440896      78.97100002       0.00000000       0.00000000       0.00000000      525        2        1        0        0
Se       3.98267694      21.48909998      17.46536257      78.97100002       0.00000000       0.00000000       0.00000000      526        2        1        0        0
Se       6.73135252      19.65756835      20.85285037      78.97100002       0.00000000       0.00000000       0.00000000      527        2        1        0        0
Se       6.76288567      19.68129616      17.48412210      78.97100002       0.00000000       0.00000000       0.00000000      528        2        1        0        0
Se       9.51812289      17.83664960      20.86273014      78.97100002       0.00000000       0.00000000       0.00000000      529        2        1        0        0
Se       9.53501117      17.86761245      17.49373684      78.97100002       0.00000000       0.00000000       0.00000000      530        2        1        0        0
Se       1.35914423      26.59785185      20.83732354      78.97100002       0.00000000       0.00000000       0.00000000      531        2        1        0        0
Se       1.37569436      26.60306500      17.46775289      78.97100002       0.00000000       0.00000000       0.00000000      532        2        1        0        0
Se       4.12640231      24.79599757      20.85470907      78.97100002       0.00000000       0.00000000       0.00000000      533        2        1        0        0
Se       4.16743548      24.81228171      17.48587719      78.97100002       0.00000000       0.00000000       0.00000000      534        2        1        0        0
Se       6.90002287      22.98345856      20.88336515      78.97100002       0.00000000       0.00000000       0.00000000      535        2        1        0        0
Se       6.94796131      23.01056070      17.51516379      78.97100002       0.00000000       0.00000000       0.00000000      536        2        1        0        0
Se       9.68236640      21.16075335      20.90501772      78.97100002       0.00000000       0.00000000       0.00000000      537        2        1        0        0
Se       9.71787555      21.20013674      17.53696474      78.97100002       0.00000000       0.00000000       0.00000000      538        2        1        0        0
Se       7.07980822      26.31535821      20.90526261      78.97100002       0.00000000       0.00000000       0.00000000      539        2        1        0        0
Se       7.13775877      26.32758022      17.53713668      78.97100002       0.00000000       0.00000000       0.00000000      540        2        1        0        0
Se       9.85986699      24.49209069      20.94338233      78.97100002       0.00000000       0.00000000       0.00000000      541        2        1        0        0
Se       9.90887581      24.51906338      17.57575100      78.97100002       0.00000000       0.00000000       0.00000000      542        2        1        0        0
Se      12.64704919      22.66224868      20.95896044      78.97100002       0.00000000       0.00000000       0.00000000      543        2        1        0        0
Se      12.67270568      22.70593608      17.59122923      78.97100002       0.00000000       0.00000000       0.00000000      544        2        1        0        0
Se      12.83275188      25.99672070      20.99360526      78.97100002       0.00000000       0.00000000       0.00000000      545        2        1        0        0
Se      12.86541870      26.01483687      17.62586989      78.97100002       0.00000000       0.00000000       0.00000000      546        2        1        0        0
