546
Lattice="31.69820059966649 0.0 0.0 -15.849100299833239 27.45144697356631 0.0 0.0 0.0 30.0" Properties=species:S:1:pos:R:3:masses:R:1:momenta:R:3:id:I:1:type:I:1:travel:I:3 comment="LAMMPS data file via write_data, version 28 Mar 2023, timestep = 63, units = metal" pbc="T T T"
W        0.87428471       1.70962684      12.38838394     183.84000005       0.00000000       0.00000000       0.00000000        1        1        0        0       -1
W        3.83357697       0.19171745      12.37946216     183.84000005       0.00000000       0.00000000       0.00000000        2        1        0        0       -1
W        3.66630778       3.50622364      12.36821319     183.84000005       0.00000000       0.00000000       0.00000000        3        1        0        0       -1
W        6.63118553       1.99133009      12.34460191     183.84000005       0.00000000       0.00000000       0.00000000        4        1        0        0       -1
W        9.59827012       0.48577798      12.32143689     183.84000005       0.00000000       0.00000000       0.00000000        5        1        0        0       -1
W        3.48977213       6.82368537      12.34777281     183.84000005       0.00000000       0.00000000       0.00000000        6        1        0        0       -1
W        6.45562750       5.30468669      12.31936448     183.84000005       0.00000000       0.00000000       0.00000000        7        1        0        0       -1
W        9.42338716       3.79657917      12.28603106     183.84000005       0.00000000       0.00000000       0.00000000        8        1        0        0       -1
W       12.39146923       2.29615760      12.26777413     183.84000005       0.00000000       0.00000000       0.00000000        9        1        0        0       -1
W       15.35680865       0.79786427      12.27452857     183.84000005       0.00000000       0.00000000       0.00000000       10        1        0        0       -1
W        6.27247065       8.62189074      12.30151072     183.84000005       0.00000000       0.00000000       0.00000000       11        1        0        0       -1
W        9.23983815       7.11161382      12.25664609     183.84000005       0.00000000       0.00000000       0.00000000       12        1        0        0       -1
W       12.20859949       5.61071829      12.22375065     183.84000005       0.00000000       0.00000000       0.00000000       13        1        0        0       -1
W       15.17677694       4.11422794      12.21811908     183.84000005       0.00000000       0.00000000       0.00000000       14        1        0        0       -1
W       18.14148127       2.61751111      12.24228244     183.84000005       0.00000000       0.00000000       0.00000000       15        1        0        0       -1
W       21.09934890       1.11661934      12.28590889     183.84000005       0.00000000       0.00000000       0.00000000       16        1        0        0       -1
W        6.08747328      11.94164916      12.30425864     183.84000005       0.00000000       0.00000000       0.00000000       17        1        0        0       -1
W        9.05226303      10.42982222      12.24965297     183.84000005       0.00000000       0.00000000       0.00000000       18        1        0        0       -1
W       12.02006823       8.92797816      12.20182412     183.84000005       0.00000000       0.00000000       0.00000000       19        1        0        0       -1
W       14.98916260       7.43185894      12.17963395     183.84000005       0.00000000       0.00000000       0.00000000       20        1        0        0       -1
W       17.95737198       5.93713373      12.19171521     183.84000005       0.00000000       0.00000000       0.00000000       21        1        0        0       -1
W       20.92199694       4.44004851      12.23455590     183.84000005       0.00000000       0.00000000       0.00000000       22        1        0        0       -1
W       23.88035796       2.93669230      12.29378638     183.84000005       0.00000000       0.00000000       0.00000000       23        1        0        0       -1
W       26.83234849       1.42482666      12.34867647     183.84000005       0.00000000       0.00000000       0.00000000       24        1        0        0       -1
W        8.86641980      13.75027983      12.26923050     183.84000005       0.00000000       0.00000000       0.00000000       25        1        0        0       -1
W       11.83070371      12.24699815      12.21162797     183.84000005       0.00000000       0.00000000       0.00000000       26        1        0        0       -1
W       14.79865937      10.75029570      12.17326779     183.84000005       0.00000000       0.00000000       0.00000000       27        1        0        0       -1
W       17.76790596       9.25605927      12.16796802     183.84000005       0.00000000       0.00000000       0.00000000       28        1        0        0       -1
W       20.73611477       7.76076298      12.19818739     183.84000005       0.00000000       0.00000000       0.00000000       29        1        0        0       -1
W       23.70095917       6.26043985      12.25492135     183.84000005       0.00000000       0.00000000       0.00000000       30        1        0        0       -1
W       26.66084221       4.75099331      12.31918321     183.84000005       0.00000000       0.00000000       0.00000000       31        1        0        0       -1
W       29.61681276       3.23205741      12.36861479     183.84000005       0.00000000       0.00000000       0.00000000       32        1        0        0       -1
W        8.68811199      17.07339406      12.30478356     183.84000005       0.00000000       0.00000000       0.00000000       33        1        0        0       -1
W       11.64551910      15.56762649      12.24964726     183.84000005       0.00000000       0.00000000       0.00000000       34        1        0        0       -1
W       14.60957072      14.06916249      12.20185740     183.84000005       0.00000000       0.00000000       0.00000000       35        1        0        0       -1
W       17.57762103      12.57432193      12.17969298     183.84000005       0.00000000       0.00000000       0.00000000       36        1        0        0       -1
W       20.54683684      11.07950652      12.19176852     183.84000005       0.00000000       0.00000000       0.00000000       37        1        0        0       -1
W       23.51485047       9.58081340      12.23445933     183.84000005       0.00000000       0.00000000       0.00000000       38        1        0        0       -1
W       26.47999661       8.07357536      12.29265566     183.84000005       0.00000000       0.00000000       0.00000000       39        1        0        0       -1
W       -2.25612940       6.55529380      12.34463440     183.84000005       0.00000000       0.00000000       0.00000000       40        1        1        0       -1
W        0.70443570       5.02991566      12.37177814     183.84000005       0.00000000       0.00000000       0.00000000       41        1        1        0       -1
W       11.46946332      18.89094754      12.30048659     183.84000005       0.00000000       0.00000000       0.00000000       42        1        0        0       -1
W       14.42656484      17.38868600      12.25639580     183.84000005       0.00000000       0.00000000       0.00000000       43        1        0        0       -1
W       17.39084382      15.89163267      12.22391760     183.84000005       0.00000000       0.00000000       0.00000000       44        1        0        0       -1
W       20.35901601      14.39617696      12.21822933     183.84000005       0.00000000       0.00000000       0.00000000       45        1        0        0       -1
W       23.32788155      12.89820341      12.24239875     183.84000005       0.00000000       0.00000000       0.00000000       46        1        0        0       -1
W       -5.40300023      11.39277592      12.28583597     183.84000005       0.00000000       0.00000000       0.00000000       47        1        1        0       -1
W       -2.43787243       9.87622921      12.32910210     183.84000005       0.00000000       0.00000000       0.00000000       48        1        1        0       -1
W        0.52578371       8.35050655      12.35294823     183.84000005       0.00000000       0.00000000       0.00000000       49        1        1        0       -1
W       11.30423645      22.21788869      12.34311679     183.84000005       0.00000000       0.00000000       0.00000000       50        1        0        0       -1
W       14.25400196      20.70991353      12.31782735     183.84000005       0.00000000       0.00000000       0.00000000       51        1        0        0       -1
W       17.21237457      19.20798713      12.28661828     183.84000005       0.00000000       0.00000000       0.00000000       52        1        0        0       -1
W       20.17756908      17.71003368      12.26831811     183.84000005       0.00000000       0.00000000       0.00000000       53        1        0        0       -1
W       -8.55250620      16.21180921      12.27446445     183.84000005       0.00000000       0.00000000       0.00000000       54        1        1        0       -1
W       -5.58492557      14.70807213      12.30127957     183.84000005       0.00000000       0.00000000       0.00000000       55        1        1        0       -1
W       -2.61957094      13.19423553      12.33235428     183.84000005       0.00000000       0.00000000       0.00000000       56        1        1        0       -1
W        0.34389258      11.67041050      12.34835867     183.84000005       0.00000000       0.00000000       0.00000000       57        1        1        0       -1
W        3.30731532      10.14316771      12.33734324     183.84000005       0.00000000       0.00000000       0.00000000       58        1        1        0       -1
W       14.09164945      24.03350446      12.36402554     183.84000005       0.00000000       0.00000000       0.00000000       59        1        0        0       -1
W       17.04491305      22.52437145      12.34628070     183.84000005       0.00000000       0.00000000       0.00000000       60        1        0        0       -1
W      -11.69207229      21.02121931      12.32408759     183.84000005       0.00000000       0.00000000       0.00000000       61        1        1        0       -1
W       -8.72574378      19.52110634      12.31566709     183.84000005       0.00000000       0.00000000       0.00000000       62        1        1        0       -1
W       -5.75880285      18.01868709      12.32706971     183.84000005       0.00000000       0.00000000       0.00000000       63        1        1        0       -1
W       -2.79452744      16.50849616      12.34767326     183.84000005       0.00000000       0.00000000       0.00000000       64        1        1        0       -1
W        0.16639672      14.98859124      12.35854377     183.84000005       0.00000000       0.00000000       0.00000000       65        1        1        0       -1
W        3.12605679      13.46338317      12.34473863     183.84000005       0.00000000       0.00000000       0.00000000       66        1        1        0       -1
W       13.93257150      27.35858823      12.38054696     183.84000005       0.00000000       0.00000000       0.00000000       67        1        0        0       -1
W      -14.81334388      25.84194842      12.38286336     183.84000005       0.00000000       0.00000000       0.00000000       68        1        1        0       -1
W      -11.85464321      24.33151560      12.36544338     183.84000005       0.00000000       0.00000000       0.00000000       69        1        1        0       -1
W       -8.89016783      22.82743186      12.34800378     183.84000005       0.00000000       0.00000000       0.00000000       70        1        1        0       -1
W       -5.92383816      21.32528953      12.34587793     183.84000005       0.00000000       0.00000000       0.00000000       71        1        1        0       -1
W       -2.96028828      19.81907411      12.35803217     183.84000005       0.00000000       0.00000000       0.00000000       72        1        1        0       -1
W       -0.00188895      18.30479802      12.36880210     183.84000005       0.00000000       0.00000000       0.00000000       73        1        1        0       -1
W        2.95262637      16.78390574      12.36042585     183.84000005       0.00000000       0.00000000       0.00000000       74        1        1        0       -1
W        5.90745777      15.26330882      12.32495784     183.84000005       0.00000000       0.00000000       0.00000000       75        1        1        0       -1
W       -9.05157566      26.13365627      12.35816636     183.84000005       0.00000000       0.00000000       0.00000000       76        1        1        0       -1
W       -6.08519481      24.63036803      12.34473733     183.84000005       0.00000000       0.00000000       0.00000000       77        1        1        0       -1
W       -3.12085506      23.12749049      12.34853937     183.84000005       0.00000000       0.00000000       0.00000000       78        1        1        0       -1
W       -0.16252879      21.61960197      12.36147816     183.84000005       0.00000000       0.00000000       0.00000000       79        1        1        0       -1
W        2.78898861      20.10498782      12.36581458     183.84000005       0.00000000       0.00000000       0.00000000       80        1        1        0       -1
W        5.73726739      18.58735968      12.34744082     183.84000005       0.00000000       0.00000000       0.00000000       81        1        1        0       -1
W       -3.28452113      26.43632170      12.31540072     183.84000005       0.00000000       0.00000000       0.00000000       82        1        1        0       -1
W       -0.32327104      24.93414788      12.32810555     183.84000005       0.00000000       0.00000000       0.00000000       83        1        1        0       -1
W        2.62997795      23.42670911      12.34639552     183.84000005       0.00000000       0.00000000       0.00000000       84        1        1        0       -1
W        5.57609860      21.91393465      12.35293755     183.84000005       0.00000000       0.00000000       0.00000000       85        1        1        0       -1
W        8.52043577      20.40017481      12.33708634     183.84000005       0.00000000       0.00000000       0.00000000       86        1        1        0       -1
W        2.46648108      26.74831305      12.30087217     183.84000005       0.00000000       0.00000000       0.00000000       87        1        1        0       -1
W        5.41670003      25.24169065      12.33103810     183.84000005       0.00000000       0.00000000       0.00000000       88        1        1        0       -1
W        8.36056003      23.73007917      12.34833076     183.84000005       0.00000000       0.00000000       0.00000000       89        1        1        0       -1
W        8.20016791      27.06046450      12.33127752     183.84000005       0.00000000       0.00000000       0.00000000       90        1        1        0       -1
W       11.14518896      25.54725105      12.36055163     183.84000005       0.00000000       0.00000000       0.00000000       91        1        1        0       -1
W        2.89405361       1.61045441      19.13554909     183.84000005       0.00000000       0.00000000       0.00000000       92        1        0        0        0
W        3.06391060       4.93113943      19.14978658     183.84000005       0.00000000       0.00000000       0.00000000       93        1        0        0        0
W        5.84635551       3.13022962      19.16630310     183.84000005       0.00000000       0.00000000       0.00000000       94        1        0        0        0
W        8.62791217       1.31931855      19.18243334     183.84000005       0.00000000       0.00000000       0.00000000       95        1        0        0        0
W        6.02324314       6.45265832      19.18986982     183.84000005       0.00000000       0.00000000       0.00000000       96        1        0        0        0
W        8.80257153       4.64365312      19.21918454     183.84000005       0.00000000       0.00000000       0.00000000       97        1        0        0        0
W       11.58233746       2.82625588      19.23287935     183.84000005       0.00000000       0.00000000       0.00000000       98        1        0        0        0
W       14.36452889       1.00580392      19.22160217     183.84000005       0.00000000       0.00000000       0.00000000       99        1        0        0        0
W        6.20724397       9.77308356      19.20010744     183.84000005       0.00000000       0.00000000       0.00000000      100        1        0        0        0
W        8.98637201       7.96492236      19.24622814     183.84000005       0.00000000       0.00000000       0.00000000      101        1        0        0        0
W       11.76480388       6.14765563      19.27763675     183.84000005       0.00000000       0.00000000       0.00000000      102        1        0        0        0
W       14.54423218       4.32578095      19.28110855     183.84000005       0.00000000       0.00000000       0.00000000      103        1        0        0        0
W       17.32687669       2.50422667      19.25511664     183.84000005       0.00000000       0.00000000       0.00000000      104        1        0        0        0
W       20.11603895       0.68749087      19.21164136     183.84000005       0.00000000       0.00000000       0.00000000      105        1        0        0        0
W        9.17402093      11.28397333      19.24891517     183.84000005       0.00000000       0.00000000       0.00000000      106        1        0        0        0
W       11.95329464       9.46719854      19.29845596     183.84000005       0.00000000       0.00000000       0.00000000      107        1        0        0        0
W       14.73175066       7.64480782      19.32044927     183.84000005       0.00000000       0.00000000       0.00000000      108        1        0        0        0
W       17.51126835       5.82116602      19.30795742     183.84000005       0.00000000       0.00000000       0.00000000      109        1        0        0        0
W       20.29420447       4.00029467      19.26604941     183.84000005       0.00000000       0.00000000       0.00000000      110        1        0        0        0
W       23.08361567       2.18615649      19.21114265     183.84000005       0.00000000       0.00000000       0.00000000      111        1        0        0        0
W       25.88047052       0.38032131      19.16467291     183.84000005       0.00000000       0.00000000       0.00000000      112        1        0        0        0
W        9.35960874      14.60027497      19.22599663     183.84000005       0.00000000       0.00000000       0.00000000      113        1        0        0        0
W       12.14266697      12.78515865      19.28724118     183.84000005       0.00000000       0.00000000       0.00000000      114        1        0        0        0
W       14.92224640      10.96341918      19.32667235     183.84000005       0.00000000       0.00000000       0.00000000      115        1        0        0        0
W       17.70084079       9.13912379      19.33204720     183.84000005       0.00000000       0.00000000       0.00000000      116        1        0        0        0
W       20.48034653       7.31605572      19.30243752     183.84000005       0.00000000       0.00000000       0.00000000      117        1        0        0        0
W       23.26296824       5.49821710      19.24845224     183.84000005       0.00000000       0.00000000       0.00000000      118        1        0        0        0
W       26.05102552       3.68935407      19.18993994     183.84000005       0.00000000       0.00000000       0.00000000      119        1        0        0        0
W       28.84436929       1.88910305      19.14718575     183.84000005       0.00000000       0.00000000       0.00000000      120        1        0        0        0
W       12.32808127      16.10078820      19.24917387     183.84000005       0.00000000       0.00000000       0.00000000      121        1        0        0        0
W       15.11138354      14.28139215      19.29841651     183.84000005       0.00000000       0.00000000       0.00000000      122        1        0        0        0
W       17.89107514      12.45784114      19.32039558     183.84000005       0.00000000       0.00000000       0.00000000      123        1        0        0        0
W       20.66965271      10.63413442      19.30791250     183.84000005       0.00000000       0.00000000       0.00000000      124        1        0        0        0
W       23.44887238       8.81440827      19.26606557     183.84000005       0.00000000       0.00000000       0.00000000      125        1        0        0        0
W       26.23054040       7.00303965      19.21089129     183.84000005       0.00000000       0.00000000       0.00000000      126        1        0        0        0
W       -2.68213762       5.20199681      19.16284700     183.84000005       0.00000000       0.00000000       0.00000000      127        1        1        0        0
W        0.10606110       3.40719188      19.13686518     183.84000005       0.00000000       0.00000000       0.00000000      128        1        1        0        0
W       12.50490956      19.41320554      19.20050945     183.84000005       0.00000000       0.00000000       0.00000000      129        1        0        0        0
W       15.29463507      17.59823419      19.24609896     183.84000005       0.00000000       0.00000000       0.00000000      130        1        0        0        0
W       18.07763868      15.77718171      19.27755116     183.84000005       0.00000000       0.00000000       0.00000000      131        1        0        0        0
W       20.85731892      13.95409828      19.28094143     183.84000005       0.00000000       0.00000000       0.00000000      132        1        0        0        0
W       23.63595227      12.13374847      19.25517810     183.84000005       0.00000000       0.00000000       0.00000000      133        1        0        0        0
W       -5.28312223      10.32098055      19.21247991     183.84000005       0.00000000       0.00000000       0.00000000      134        1        1        0        0
W       -2.50219932       8.51875047      19.17189446     183.84000005       0.00000000       0.00000000       0.00000000      135        1        1        0        0
W        0.28059745       6.72466279      19.14920908     183.84000005       0.00000000       0.00000000       0.00000000      136        1        1        0        0
W       15.46760974      20.91376719      19.18914569     183.84000005       0.00000000       0.00000000       0.00000000      137        1        0        0        0
W       18.25565451      19.09744125      19.21925538     183.84000005       0.00000000       0.00000000       0.00000000      138        1        0        0        0
W       21.03818813      17.27648195      19.23255835     183.84000005       0.00000000       0.00000000       0.00000000      139        1        0        0        0
W       -7.87986407      15.45621281      19.22084834     183.84000005       0.00000000       0.00000000       0.00000000      140        1        1        0        0
W       -5.10012163      13.64236225      19.19155551     183.84000005       0.00000000       0.00000000       0.00000000      141        1        1        0        0
W       -2.31958605      11.83875758      19.16265964     183.84000005       0.00000000       0.00000000       0.00000000      142        1        1        0        0
W        0.46175969      10.04404928      19.15071822     183.84000005       0.00000000       0.00000000       0.00000000      143        1        1        0        0
W        3.24301512       8.25145339      19.16193096     183.84000005       0.00000000       0.00000000       0.00000000      144        1        1        0        0
W       15.63051220      24.22845143      19.14728576     183.84000005       0.00000000       0.00000000       0.00000000      145        1        0        0        0
W       18.42250930      22.41876393      19.16704278     183.84000005       0.00000000       0.00000000       0.00000000      146        1        0        0        0
W      -10.48981313      20.60189381      19.18285252     183.84000005       0.00000000       0.00000000       0.00000000      147        1        1        0        0
W       -7.70713470      18.78251690      19.18040923     183.84000005       0.00000000       0.00000000       0.00000000      148        1        1        0        0
W       -4.92496316      16.96726203      19.16067530     183.84000005       0.00000000       0.00000000       0.00000000      149        1        1        0        0
W       -2.14175423      15.16122596      19.13955869     183.84000005       0.00000000       0.00000000       0.00000000      150        1        1        0        0
W        0.64240301      13.36452905      19.13566483     183.84000005       0.00000000       0.00000000       0.00000000      151        1        1        0        0
W        3.42592998      11.57131913      19.15780512     183.84000005       0.00000000       0.00000000       0.00000000      152        1        1        0        0
W       31.63923285       0.09158725      19.13104523     183.84000005       0.00000000       0.00000000       0.00000000      153        1        0        1        0
W      -13.11612686      25.74056947      19.13778703     183.84000005       0.00000000       0.00000000       0.00000000      154        1        1        0        0
W      -10.32878312      23.92945630      19.15152393     183.84000005       0.00000000       0.00000000       0.00000000      155        1        1        0        0
W       -7.54441174      22.11224841      19.15452094     183.84000005       0.00000000       0.00000000       0.00000000      156        1        1        0        0
W       -4.76008403      20.29548702      19.14057176     183.84000005       0.00000000       0.00000000       0.00000000      157        1        1        0        0
W       -1.97350041      18.48567864      19.12099618     183.84000005       0.00000000       0.00000000       0.00000000      158        1        1        0        0
W        0.81565629      16.68502308      19.11584623     183.84000005       0.00000000       0.00000000       0.00000000      159        1        1        0        0
W        3.60520647      14.88963719      19.13899532     183.84000005       0.00000000       0.00000000       0.00000000      160        1        1        0        0
W        6.39181285      13.09133791      19.18870353     183.84000005       0.00000000       0.00000000       0.00000000      161        1        1        0        0
W      -10.16930508      27.25669382      19.14788192     183.84000005       0.00000000       0.00000000       0.00000000      162        1        1        0        0
W       -7.38545432      25.44271028      19.15588261     183.84000005       0.00000000       0.00000000       0.00000000      163        1        1        0        0
W       -4.60109637      23.62508066      19.14732175     183.84000005       0.00000000       0.00000000       0.00000000      164        1        1        0        0
W       -1.81329330      21.81091023      19.12646060     183.84000005       0.00000000       0.00000000       0.00000000      165        1        1        0        0
W        0.97958168      20.00464372      19.11175463     183.84000005       0.00000000       0.00000000       0.00000000      166        1        1        0        0
W        3.77574516      18.20523717      19.12221264     183.84000005       0.00000000       0.00000000       0.00000000      167        1        1        0        0
W        6.57051451      16.40616284      19.16388488     183.84000005       0.00000000       0.00000000       0.00000000      168        1        1        0        0
W       -4.43890412      26.95311721      19.18252061     183.84000005       0.00000000       0.00000000       0.00000000      169        1        1        0        0
W       -1.65314650      25.13518346      19.16317474     183.84000005       0.00000000       0.00000000       0.00000000      170        1        1        0        0
W        1.13906073      23.32275718      19.13746471     183.84000005       0.00000000       0.00000000       0.00000000      171        1        1        0        0
W        3.93814309      21.51779002      19.12625555     183.84000005       0.00000000       0.00000000       0.00000000      172        1        1        0        0
W        6.73990670      19.71672240      19.14425868     183.84000005       0.00000000       0.00000000       0.00000000      173        1        1        0        0
W        9.53789196      17.91262379      19.19047293     183.84000005       0.00000000       0.00000000       0.00000000      174        1        1        0        0
W        1.30312912      26.63947570      19.19086871     183.84000005       0.00000000       0.00000000       0.00000000      175        1        1        0        0
W        4.09908265      24.82832076      19.15879740     183.84000005       0.00000000       0.00000000       0.00000000      176        1        1        0        0
W        6.90223170      23.02368660      19.14550712     183.84000005       0.00000000       0.00000000       0.00000000      177        1        1        0        0
W        9.70648269      21.22071771      19.16120469     183.84000005       0.00000000       0.00000000       0.00000000      178        1        1        0        0
W        7.06469163      26.32959636      19.17108119     183.84000005       0.00000000       0.00000000       0.00000000      179        1        1        0        0
W        9.86848866      24.52606903      19.15186500     183.84000005       0.00000000       0.00000000       0.00000000      180        1        1        0        0
W       12.67144791      22.72272231      19.16063566     183.84000005       0.00000000       0.00000000       0.00000000      181        1        1        0        0
W       12.83212359      26.03099051      19.14255793     183.84000005       0.00000000       0.00000000       0.00000000      182        1        1        0        0
Se       2.79943796       1.80553280      14.06745593      78.97100002       0.00000000       0.00000000       0.00000000      183        2        0        0        0
Se       2.78311664       1.79634324      10.69671035      78.97100002       0.00000000       0.00000000       0.00000000      184        2        0        0       -1
Se       5.76793529       0.29210886      14.04847247      78.97100002       0.00000000       0.00000000       0.00000000      185        2        0        0        0
Se       5.73756797       0.28193483      10.67833558      78.97100002       0.00000000       0.00000000       0.00000000      186        2        0        0       -1
Se       5.60486814       3.60799376      14.03093626      78.97100002       0.00000000       0.00000000       0.00000000      187        2        0        0        0
Se       5.56438150       3.58683904      10.66131336      78.97100002       0.00000000       0.00000000       0.00000000      188        2        0        0       -1
Se       8.57352299       2.10439143      14.00295820      78.97100002       0.00000000       0.00000000       0.00000000      189        2        0        0        0
Se       8.52825670       2.07376139      10.63398437      78.97100002       0.00000000       0.00000000       0.00000000      190        2        0        0       -1
Se      11.53522761       0.60965773      13.98637329      78.97100002       0.00000000       0.00000000       0.00000000      191        2        0        0        0
Se      11.50165451       0.56700698      10.61772560      78.97100002       0.00000000       0.00000000       0.00000000      192        2        0        0       -1
Se       5.42794765       6.91942958      14.00864453      78.97100002       0.00000000       0.00000000       0.00000000      193        2        0        0        0
Se       5.38563685       6.90474500      10.63957377      78.97100002       0.00000000       0.00000000       0.00000000      194        2        0        0       -1
Se       8.40038774       5.41369804      13.97166991      78.97100002       0.00000000       0.00000000       0.00000000      195        2        0        0        0
Se       8.34687870       5.38799498      10.60328400      78.97100002       0.00000000       0.00000000       0.00000000      196        2        0        0       -1
Se      11.36442976       3.91972961      13.94237195      78.97100002       0.00000000       0.00000000       0.00000000      197        2        0        0        0
Se      11.31958164       3.87937766      10.57443837      78.97100002       0.00000000       0.00000000       0.00000000      198        2        0        0       -1
Se      14.32207481       2.42916299      13.93640378      78.97100002       0.00000000       0.00000000       0.00000000      199        2        0        0        0
Se      14.29770907       2.37644087      10.56850937      78.97100002       0.00000000       0.00000000       0.00000000      200        2        0        0       -1
Se      17.27627172       0.93340242      13.95632892      78.97100002       0.00000000       0.00000000       0.00000000      201        2        0        0        0
Se      17.27190990       0.87784443      10.58798918      78.97100002       0.00000000       0.00000000       0.00000000      202        2        0        0       -1
Se       8.21580523       8.71956551      13.95275623      78.97100002       0.00000000       0.00000000       0.00000000      203        2        0        0        0
Se       8.16185358       8.71443262      10.58467409      78.97100002       0.00000000       0.00000000       0.00000000      204        2        0        0       -1
Se      11.18127047       7.22470844      13.90948379      78.97100002       0.00000000       0.00000000       0.00000000      205        2        0        0        0
Se      11.13245780       7.20445835      10.54188560      78.97100002       0.00000000       0.00000000       0.00000000      206        2        0        0       -1
Se      14.13964588       5.73677037      13.88868746      78.97100002       0.00000000       0.00000000       0.00000000      207        2        0        0        0
Se      14.11199665       5.70010420      10.52114734      78.97100002       0.00000000       0.00000000       0.00000000      208        2        0        0       -1
Se      17.09432325       4.24809298      13.89909550      78.97100002       0.00000000       0.00000000       0.00000000      209        2        0        0        0
Se      17.09288463       4.19959403      10.53154129      78.97100002       0.00000000       0.00000000       0.00000000      210        2        0        0       -1
Se      20.04774744       2.75186857      13.93717486      78.97100002       0.00000000       0.00000000       0.00000000      211        2        0        0        0
Se      20.06680930       2.70200008      10.56925977      78.97100002       0.00000000       0.00000000       0.00000000      212        2        0        0       -1
Se      22.99945915       1.24265615      13.98852899      78.97100002       0.00000000       0.00000000       0.00000000      213        2        0        0        0
Se      23.02758339       1.20506281      10.61985102      78.97100002       0.00000000       0.00000000       0.00000000      214        2        0        0       -1
Se       8.02692322      12.02667135      13.95816758      78.97100002       0.00000000       0.00000000       0.00000000      215        2        0        0        0
Se       7.97763852      12.04647130      10.58983682      78.97100002       0.00000000       0.00000000       0.00000000      216        2        0        0       -1
Se      10.99180574      10.52758047      13.90286639      78.97100002       0.00000000       0.00000000       0.00000000      217        2        0        0        0
Se      10.94409840      10.53737902      10.53529148      78.97100002       0.00000000       0.00000000       0.00000000      218        2        0        0       -1
Se      13.95046861       9.03889854      13.86601552      78.97100002       0.00000000       0.00000000       0.00000000      219        2        0        0        0
Se      13.92215176       9.03273356      10.49836120      78.97100002       0.00000000       0.00000000       0.00000000      220        2        0        0       -1
Se      16.90527168       7.55344507      13.86080505      78.97100002       0.00000000       0.00000000       0.00000000      221        2        0        0        0
Se      16.90560452       7.53048467      10.49310448      78.97100002       0.00000000       0.00000000       0.00000000      222        2        0        0       -1
Se      19.85961674       6.06494937      13.88968726      78.97100002       0.00000000       0.00000000       0.00000000      223        2        0        0        0
Se      19.88682555       6.02969793      10.52214274      78.97100002       0.00000000       0.00000000       0.00000000      224        2        0        0       -1
Se      22.81562318       4.56724794      13.94431330      78.97100002       0.00000000       0.00000000       0.00000000      225        2        0        0        0
Se      22.85843242       4.52885282      10.57636452      78.97100002       0.00000000       0.00000000       0.00000000      226        2        0        0       -1
Se      25.77323432       3.05519537      14.00628451      78.97100002       0.00000000       0.00000000       0.00000000      227        2        0        0        0
Se      25.81549360       3.02497922      10.63724633      78.97100002       0.00000000       0.00000000       0.00000000      228        2        0        0       -1
Se      28.73233046       1.52977153      14.05396510      78.97100002       0.00000000       0.00000000       0.00000000      229        2        0        0        0
Se      28.75944195       1.51651967      10.68367540      78.97100002       0.00000000       0.00000000       0.00000000      230        2        0        0       -1
Se      10.80150698      13.83447185      13.92606466      78.97100002       0.00000000       0.00000000       0.00000000      231        2        0        0        0
Se      10.75962131      13.87113997      10.55827241      78.97100002       0.00000000       0.00000000       0.00000000      232        2        0        0       -1
Se      13.75933215      12.34074918      13.87684107      78.97100002       0.00000000       0.00000000       0.00000000      233        2        0        0        0
Se      13.73259671      12.36820336      10.50927317      78.97100002       0.00000000       0.00000000       0.00000000      234        2        0        0       -1
Se      16.71413059      10.85449653      13.85461782      78.97100002       0.00000000       0.00000000       0.00000000      235        2        0        0        0
Se      16.71471456      10.86584600      10.48684254      78.97100002       0.00000000       0.00000000       0.00000000      236        2        0        0       -1
Se      19.66860794       9.36927215      13.86709889      78.97100002       0.00000000       0.00000000       0.00000000      237        2        0        0        0
Se      19.69864978       9.36311819      10.49945579      78.97100002       0.00000000       0.00000000       0.00000000      238        2        0        0       -1
Se      22.62606950       7.87894469      13.91133322      78.97100002       0.00000000       0.00000000       0.00000000      239        2        0        0        0
Se      22.67689015       7.85871662      10.54372220      78.97100002       0.00000000       0.00000000       0.00000000      240        2        0        0       -1
Se      25.58875329       6.37689648      13.97332399      78.97100002       0.00000000       0.00000000       0.00000000      241        2        0        0        0
Se      25.64298314       6.34993492      10.60490177      78.97100002       0.00000000       0.00000000       0.00000000      242        2        0        0       -1
Se      28.55626641       4.85925786      14.03102423      78.97100002       0.00000000       0.00000000       0.00000000      243        2        0        0        0
Se      28.59481823       4.83473929      10.66139294      78.97100002       0.00000000       0.00000000       0.00000000      244        2        0        0       -1
Se      -0.17151186       3.33132681      14.06488254      78.97100002       0.00000000       0.00000000       0.00000000      245        2        1        0        0
Se      -0.16072183       3.31520570      10.69421566      78.97100002       0.00000000       0.00000000       0.00000000      246        2        1        0       -1
Se      10.61566234      17.15213760      13.96916210      78.97100002       0.00000000       0.00000000       0.00000000      247        2        0        0        0
Se      10.58522460      17.20046487      10.60074883      78.97100002       0.00000000       0.00000000       0.00000000      248        2        0        0       -1
Se      13.57019952      15.64854027      13.91830108      78.97100002       0.00000000       0.00000000       0.00000000      249        2        0        0        0
Se      13.54852861      15.70054470      10.55063409      78.97100002       0.00000000       0.00000000       0.00000000      250        2        0        0       -1
Se      16.52456115      14.15715369      13.88323970      78.97100002       0.00000000       0.00000000       0.00000000      251        2        0        0        0
Se      16.52474065      14.19964322      10.51568442      78.97100002       0.00000000       0.00000000       0.00000000      252        2        0        0       -1
Se      19.47908505      12.67119737      13.87783427      78.97100002       0.00000000       0.00000000       0.00000000      253        2        0        0        0
Se      19.50728231      12.69674893      10.51026835      78.97100002       0.00000000       0.00000000       0.00000000      254        2        0        0       -1
Se      22.43669894      11.18376509      13.90477359      78.97100002       0.00000000       0.00000000       0.00000000      255        2        0        0        0
Se      22.48807170      11.19092478      10.53719832      78.97100002       0.00000000       0.00000000       0.00000000      256        2        0        0       -1
Se      25.40073844       9.68764142      13.95458591      78.97100002       0.00000000       0.00000000       0.00000000      257        2        0        0        0
Se      25.45974476       9.67958796      10.58647321      78.97100002       0.00000000       0.00000000       0.00000000      258        2        0        0       -1
Se      -3.32581957       8.17682009      14.00787635      78.97100002       0.00000000       0.00000000       0.00000000      259        2        1        0        0
Se      -3.27982344       8.16020782      10.63881798      78.97100002       0.00000000       0.00000000       0.00000000      260        2        1        0       -1
Se      -0.34878590       6.65269087      14.04391779      78.97100002       0.00000000       0.00000000       0.00000000      261        2        1        0        0
Se      -0.33207613       6.63427142      10.67389723      78.97100002       0.00000000       0.00000000       0.00000000      262        2        1        0       -1
Se       2.62961607       5.12560439      14.05040426      78.97100002       0.00000000       0.00000000       0.00000000      263        2        1        0        0
Se       2.61272551       5.10771917      10.68020130      78.97100002       0.00000000       0.00000000       0.00000000      264        2        1        0       -1
Se      13.38785268      18.96808695      13.97602699      78.97100002       0.00000000       0.00000000       0.00000000      265        2        0        0        0
Se      13.37563746      19.02578873      10.60757843      78.97100002       0.00000000       0.00000000       0.00000000      266        2        0        0       -1
Se      16.34053247      17.46694466      13.93870874      78.97100002       0.00000000       0.00000000       0.00000000      267        2        0        0        0
Se      16.34084854      17.52644536      10.57082613      78.97100002       0.00000000       0.00000000       0.00000000      268        2        0        0       -1
Se      19.29509580      15.97638922      13.91915341      78.97100002       0.00000000       0.00000000       0.00000000      269        2        0        0        0
Se      19.31742602      16.02424180      10.55147542      78.97100002       0.00000000       0.00000000       0.00000000      270        2        0        0       -1
Se      22.25249679      14.48840461      13.92764221      78.97100002       0.00000000       0.00000000       0.00000000      271        2        0        0        0
Se      22.29733353      14.51858522      10.55981838      78.97100002       0.00000000       0.00000000       0.00000000      272        2        0        0       -1
Se      -6.48229360      12.99449173      13.96041364      78.97100002       0.00000000       0.00000000       0.00000000      273        2        1        0        0
Se      -6.42647598      13.00758921      10.59205492      78.97100002       0.00000000       0.00000000       0.00000000      274        2        1        0       -1
Se      -3.51089139      11.48741472      14.00133156      78.97100002       0.00000000       0.00000000       0.00000000      275        2        1        0        0
Se      -3.46337575      11.48830020      10.63226224      78.97100002       0.00000000       0.00000000       0.00000000      276        2        1        0       -1
Se      -0.53261845       9.96630050      14.03030262      78.97100002       0.00000000       0.00000000       0.00000000      277        2        1        0        0
Se      -0.51146791       9.96080221      10.66057669      78.97100002       0.00000000       0.00000000       0.00000000      278        2        1        0       -1
Se       2.44873661       8.43936199      14.03290475      78.97100002       0.00000000       0.00000000       0.00000000      279        2        1        0        0
Se       2.43519163       8.43040801      10.66317527      78.97100002       0.00000000       0.00000000       0.00000000      280        2        1        0       -1
Se      13.21569502      22.30092758      14.02836935      78.97100002       0.00000000       0.00000000       0.00000000      281        2        0        0        0
Se      13.21599118      22.34318331      10.65880647      78.97100002       0.00000000       0.00000000       0.00000000      282        2        0        0       -1
Se      16.16682666      20.78747137      14.00252624      78.97100002       0.00000000       0.00000000       0.00000000      283        2        0        0        0
Se      16.16812013      20.84331337      10.63354846      78.97100002       0.00000000       0.00000000       0.00000000      284        2        0        0       -1
Se      19.12147880      19.28817182      13.97748113      78.97100002       0.00000000       0.00000000       0.00000000      285        2        0        0        0
Se      19.13433270      19.34100726      10.60901968      78.97100002       0.00000000       0.00000000       0.00000000      286        2        0        0       -1
Se      -9.61940512      17.79670042      13.97033948      78.97100002       0.00000000       0.00000000       0.00000000      287        2        1        0        0
Se      -9.58838586      17.83570467      10.60189226      78.97100002       0.00000000       0.00000000       0.00000000      288        2        1        0       -1
Se      -6.65761243      16.30301668      13.98605169      78.97100002       0.00000000       0.00000000       0.00000000      289        2        1        0        0
Se      -6.61339497      16.32641380      10.61704924      78.97100002       0.00000000       0.00000000       0.00000000      290        2        1        0       -1
Se      -3.68916208      14.79808792      14.01361563      78.97100002       0.00000000       0.00000000       0.00000000      291        2        1        0        0
Se      -3.64732983      14.81061834      10.64392543      78.97100002       0.00000000       0.00000000       0.00000000      292        2        1        0       -1
Se      -0.71437481      13.27881175      14.03390002      78.97100002       0.00000000       0.00000000       0.00000000      293        2        1        0        0
Se      -0.69272260      13.28692062      10.66369292      78.97100002       0.00000000       0.00000000       0.00000000      294        2        1        0       -1
Se       2.26418998      11.75132882      14.03057331      78.97100002       0.00000000       0.00000000       0.00000000      295        2        1        0        0
Se       2.25472691      11.75856139      10.66060110      78.97100002       0.00000000       0.00000000       0.00000000      296        2        1        0       -1
Se       5.24246278      10.22842283      13.99978330      78.97100002       0.00000000       0.00000000       0.00000000      297        2        1        0        0
Se       5.20358895      10.23260396      10.63077295      78.97100002       0.00000000       0.00000000       0.00000000      298        2        1        0       -1
Se      16.00387488      24.11787636      14.05232768      78.97100002       0.00000000       0.00000000       0.00000000      299        2        0        0        0
Se      16.00678146      24.15159202      10.68209522      78.97100002       0.00000000       0.00000000       0.00000000      300        2        0        0       -1
Se     -12.73773710      22.60742236      14.03216437      78.97100002       0.00000000       0.00000000       0.00000000      301        2        1        0        0
Se     -12.73667117      22.64669445      10.66250948      78.97100002       0.00000000       0.00000000       0.00000000      302        2        1        0       -1
Se      -9.77942237      21.10936051      14.01528434      78.97100002       0.00000000       0.00000000       0.00000000      303        2        1        0        0
Se      -9.76864356      21.14061171      10.64602609      78.97100002       0.00000000       0.00000000       0.00000000      304        2        1        0       -1
Se      -6.81910379      19.61468608      14.01590347      78.97100002       0.00000000       0.00000000       0.00000000      305        2        1        0        0
Se      -6.79501084      19.63273844      10.64631977      78.97100002       0.00000000       0.00000000       0.00000000      306        2        1        0       -1
Se      -3.85490551      18.11231591      14.03185473      78.97100002       0.00000000       0.00000000       0.00000000      307        2        1        0        0
Se      -3.82649070      18.12143503      10.66154997      78.97100002       0.00000000       0.00000000       0.00000000      308        2        1        0       -1
Se      -0.88635396      16.59603193      14.04694515      78.97100002       0.00000000       0.00000000       0.00000000      309        2        1        0        0
Se      -0.86929750      16.60470801      10.67607289      78.97100002       0.00000000       0.00000000       0.00000000      310        2        1        0       -1
Se       2.08499024      15.06862489      14.04282386      78.97100002       0.00000000       0.00000000       0.00000000      311        2        1        0        0
Se       2.07822192      15.08335009      10.67214143      78.97100002       0.00000000       0.00000000       0.00000000      312        2        1        0       -1
Se       5.05696483      13.54156420      14.01096735      78.97100002       0.00000000       0.00000000       0.00000000      313        2        1        0        0
Se       5.02409181      13.56222324      10.64135949      78.97100002       0.00000000       0.00000000       0.00000000      314        2        1        0       -1
Se      31.69323867       0.00084049      14.07302928      78.97100002       0.00000000       0.00000000       0.00000000      315        2        0        1        0
Se       0.00086120       0.00542272      10.70207244      78.97100002       0.00000000       0.00000000       0.00000000      316        2        1        1       -1
Se     -12.89167867      25.93204837      14.06452440      78.97100002       0.00000000       0.00000000       0.00000000      317        2        1        0        0
Se     -12.90156897      25.94614196      10.69386475      78.97100002       0.00000000       0.00000000       0.00000000      318        2        1        0       -1
Se      -9.92968278      24.42570254      14.04469670      78.97100002       0.00000000       0.00000000       0.00000000      319        2        1        0        0
Se      -9.94147496      24.43709647      10.67464597      78.97100002       0.00000000       0.00000000       0.00000000      320        2        1        0       -1
Se      -6.96893962      22.92849395      14.03321564      78.97100002       0.00000000       0.00000000       0.00000000      321        2        1        0        0
Se      -6.97086532      22.92931464      10.66335990      78.97100002       0.00000000       0.00000000       0.00000000      322        2        1        0       -1
Se      -4.00814611      21.42932079      14.03861998      78.97100002       0.00000000       0.00000000       0.00000000      323        2        1        0        0
Se      -3.99998809      21.42157691      10.66820463      78.97100002       0.00000000       0.00000000       0.00000000      324        2        1        0       -1
Se      -1.04611787      19.91869157      14.05172093      78.97100002       0.00000000       0.00000000       0.00000000      325        2        1        0        0
Se      -1.03866418      19.91207393      10.68064163      78.97100002       0.00000000       0.00000000       0.00000000      326        2        1        0       -1
Se       1.91645840      18.39474327      14.05416844      78.97100002       0.00000000       0.00000000       0.00000000      327        2        1        0        0
Se       1.91058936      18.39984743      10.68297322      78.97100002       0.00000000       0.00000000       0.00000000      328        2        1        0       -1
Se       4.87872555      16.86507972      14.03190283      78.97100002       0.00000000       0.00000000       0.00000000      329        2        1        0        0
Se       4.85360884      16.88685396      10.66159205      78.97100002       0.00000000       0.00000000       0.00000000      330        2        1        0       -1
Se       7.84067443      15.34219487      13.98472317      78.97100002       0.00000000       0.00000000       0.00000000      331        2        1        0        0
Se       7.80056059      15.37676315      10.61576051      78.97100002       0.00000000       0.00000000       0.00000000      332        2        1        0       -1
Se      -7.11723245      26.24286300      14.02810553      78.97100002       0.00000000       0.00000000       0.00000000      333        2        1        0        0
Se      -7.14452209      26.22379092      10.65853509      78.97100002       0.00000000       0.00000000       0.00000000      334        2        1        0       -1
Se      -4.15716975      24.74643961      14.02286290      78.97100002       0.00000000       0.00000000       0.00000000      335        2        1        0        0
Se      -4.17179432      24.71763822      10.65319882      78.97100002       0.00000000       0.00000000       0.00000000      336        2        1        0       -1
Se      -1.19919813      23.24333354      14.03370175      78.97100002       0.00000000       0.00000000       0.00000000      337        2        1        0        0
Se      -1.20438046      23.21331034      10.66337998      78.97100002       0.00000000       0.00000000       0.00000000      338        2        1        0       -1
Se       1.75684682      21.72719799      14.04648188      78.97100002       0.00000000       0.00000000       0.00000000      339        2        1        0        0
Se       1.75060623      21.70921154      10.67562026      78.97100002       0.00000000       0.00000000       0.00000000      340        2        1        0       -1
Se       4.71026900      20.19977751      14.04368616      78.97100002       0.00000000       0.00000000       0.00000000      341        2        1        0        0
Se       4.69450194      20.20483389      10.67298989      78.97100002       0.00000000       0.00000000       0.00000000      342        2        1        0       -1
Se       7.66242950      18.67092325      14.01626130      78.97100002       0.00000000       0.00000000       0.00000000      343        2        1        0        0
Se       7.63593488      18.70150701      10.64662907      78.97100002       0.00000000       0.00000000       0.00000000      344        2        1        0       -1
Se      -1.35680192      26.56524921      13.99128587      78.97100002       0.00000000       0.00000000       0.00000000      345        2        1        0        0
Se      -1.37365898      26.51617762      10.62228027      78.97100002       0.00000000       0.00000000       0.00000000      346        2        1        0       -1
Se       1.59694579      25.05949344      14.01157540      78.97100002       0.00000000       0.00000000       0.00000000      347        2        1        0        0
Se       1.59074700      25.01685261      10.64188963      78.97100002       0.00000000       0.00000000       0.00000000      348        2        1        0       -1
Se       4.54661998      23.54021882      14.03082145      78.97100002       0.00000000       0.00000000       0.00000000      349        2        1        0        0
Se       4.54174474      23.51878048      10.66065103      78.97100002       0.00000000       0.00000000       0.00000000      350        2        1        0       -1
Se       7.49258940      22.01149375      14.03332797      78.97100002       0.00000000       0.00000000       0.00000000      351        2        1        0        0
Se       7.48318881      22.02097915      10.66331237      78.97100002       0.00000000       0.00000000       0.00000000      352        2        1        0       -1
Se      10.43852322      20.48406902      14.01287244      78.97100002       0.00000000       0.00000000       0.00000000      353        2        1        0        0
Se      10.42460743      20.52346974      10.64365118      78.97100002       0.00000000       0.00000000       0.00000000      354        2        1        0       -1
Se       4.37805558      26.87727273      13.99113424      78.97100002       0.00000000       0.00000000       0.00000000      355        2        1        0        0
Se       4.38538798      26.83341873      10.62214392      78.97100002       0.00000000       0.00000000       0.00000000      356        2        1        0       -1
Se       7.32473891      25.35609393      14.02339171      78.97100002       0.00000000       0.00000000       0.00000000      357        2        1        0        0
Se       7.33432810      25.33797078      10.65381239      78.97100002       0.00000000       0.00000000       0.00000000      358        2        1        0       -1
Se      10.26912276      23.82692034      14.03780373      78.97100002       0.00000000       0.00000000       0.00000000      359        2        1        0        0
Se      10.27454243      23.84134682      10.66793528      78.97100002       0.00000000       0.00000000       0.00000000      360        2        1        0       -1
Se      10.10021696      27.17123750      14.03376399      78.97100002       0.00000000       0.00000000       0.00000000      361        2        1        0        0
Se      10.12525097      27.15747545      10.66405246      78.97100002       0.00000000       0.00000000       0.00000000      362        2        1        0       -1
Se      13.05048263      25.64181760      14.05652628      78.97100002       0.00000000       0.00000000       0.00000000      363        2        1        0        0
Se      13.06432082      25.65545836      10.68611575      78.97100002       0.00000000       0.00000000       0.00000000      364        2        1        0       -1
Se       4.79642863       1.50782662      20.83243354      78.97100002       0.00000000       0.00000000       0.00000000      365        2        0        0        0
Se       4.81842682       1.52553015      17.46191809      78.97100002       0.00000000       0.00000000       0.00000000      366        2        0        0        0
Se       4.96282748       4.83004078      20.85173400      78.97100002       0.00000000       0.00000000       0.00000000      367        2        0        0        0
Se       4.99316878       4.85322536      17.48186920      78.97100002       0.00000000       0.00000000       0.00000000      368        2        0        0        0
Se       7.74108792       3.01553643      20.87291993      78.97100002       0.00000000       0.00000000       0.00000000      369        2        0        0        0
Se       7.77689414       3.05097781      17.50371765      78.97100002       0.00000000       0.00000000       0.00000000      370        2        0        0        0
Se      10.52714318       1.19242423      20.88312708      78.97100002       0.00000000       0.00000000       0.00000000      371        2        0        0        0
Se      10.55225787       1.23993763      17.51444493      78.97100002       0.00000000       0.00000000       0.00000000      372        2        0        0        0
Se       7.91417977       6.34408016      20.90279644      78.97100002       0.00000000       0.00000000       0.00000000      373        2        0        0        0
Se       7.96076123       6.37087568      17.53426488      78.97100002       0.00000000       0.00000000       0.00000000      374        2        0        0        0
Se      10.69681475       4.51956369      20.92814455      78.97100002       0.00000000       0.00000000       0.00000000      375        2        0        0        0
Se      10.73533282       4.56254086      17.56016897      78.97100002       0.00000000       0.00000000       0.00000000      376        2        0        0        0
Se      13.48618703       2.69134868      20.93007252      78.97100002       0.00000000       0.00000000       0.00000000      377        2        0        0        0
Se      13.50500534       2.74784494      17.56219685      78.97100002       0.00000000       0.00000000       0.00000000      378        2        0        0        0
Se      16.27863602       0.86815450      20.90682089      78.97100002       0.00000000       0.00000000       0.00000000      379        2        0        0        0
Se      16.27804576       0.92883068      17.53860119      78.97100002       0.00000000       0.00000000       0.00000000      380        2        0        0        0
Se       8.09665288       9.67621060      20.91640983      78.97100002       0.00000000       0.00000000       0.00000000      381        2        0        0        0
Se       8.14947677       9.68013357      17.54830295      78.97100002       0.00000000       0.00000000       0.00000000      382        2        0        0        0
Se      10.87844238       7.85220115      20.95975241      78.97100002       0.00000000       0.00000000       0.00000000      383        2        0        0        0
Se      10.92469419       7.87251445      17.59214508      78.97100002       0.00000000       0.00000000       0.00000000      384        2        0        0        0
Se      13.66690739       6.02149640      20.97910851      78.97100002       0.00000000       0.00000000       0.00000000      385        2        0        0        0
Se      13.69234722       6.05921677      17.61157197      78.97100002       0.00000000       0.00000000       0.00000000      386        2        0        0        0
Se      16.45905586       4.19159911      20.96712447      78.97100002       0.00000000       0.00000000       0.00000000      387        2        0        0        0
Se      16.45894006       4.24216548      17.59956628      78.97100002       0.00000000       0.00000000       0.00000000      388        2        0        0        0
Se      19.25197335       2.37020652      20.92916088      78.97100002       0.00000000       0.00000000       0.00000000      389        2        0        0        0
Se      19.23259391       2.42200336      17.56127813      78.97100002       0.00000000       0.00000000       0.00000000      390        2        0        0        0
Se      22.04545727       0.56295341      20.88183424      78.97100002       0.00000000       0.00000000       0.00000000      391        2        0        0        0
Se      22.02096130       0.60103281      17.51312569      78.97100002       0.00000000       0.00000000       0.00000000      392        2        0        0        0
Se      11.06609733      11.18619086      20.96388746      78.97100002       0.00000000       0.00000000       0.00000000      393        2        0        0        0
Se      11.11502617      11.17601041      17.59631530      78.97100002       0.00000000       0.00000000       0.00000000      394        2        0        0        0
Se      13.85519012       9.35647900      21.00175173      78.97100002       0.00000000       0.00000000       0.00000000      395        2        0        0        0
Se      13.88324391       9.36242726      17.63410062      78.97100002       0.00000000       0.00000000       0.00000000      396        2        0        0        0
Se      16.64753251       7.52347682      21.00681403      78.97100002       0.00000000       0.00000000       0.00000000      397        2        0        0        0
Se      16.64707518       7.54675082      17.63910983      78.97100002       0.00000000       0.00000000       0.00000000      398        2        0        0        0
Se      19.44005892       5.69427576      20.97818588      78.97100002       0.00000000       0.00000000       0.00000000      399        2        0        0        0
Se      19.41348510       5.72928130      17.61064341      78.97100002       0.00000000       0.00000000       0.00000000      400        2        0        0        0
Se      22.23073526       3.87568932      20.92679913      78.97100002       0.00000000       0.00000000       0.00000000      401        2        0        0        0
Se      22.18991743       3.91087143      17.55878305      78.97100002       0.00000000       0.00000000       0.00000000      402        2        0        0        0
Se      25.02019083       2.07164990      20.87222763      78.97100002       0.00000000       0.00000000       0.00000000      403        2        0        0        0
Se      24.98213071       2.09491386      17.50300161      78.97100002       0.00000000       0.00000000       0.00000000      404        2        0        0        0
Se      27.81013988       0.27923854      20.83408949      78.97100002       0.00000000       0.00000000       0.00000000      405        2        0        0        0
Se      27.78820462       0.28359026      17.46365688      78.97100002       0.00000000       0.00000000       0.00000000      406        2        0        0        0
Se      11.25415808      14.51479569      20.93919693      78.97100002       0.00000000       0.00000000       0.00000000      407        2        0        0        0
Se      11.30111194      14.47970161      17.57143307      78.97100002       0.00000000       0.00000000       0.00000000      408        2        0        0        0
Se      14.04545357      12.69084564      20.99039566      78.97100002       0.00000000       0.00000000       0.00000000      409        2        0        0        0
Se      14.07357943      12.66378137      17.62281918      78.97100002       0.00000000       0.00000000       0.00000000      410        2        0        0        0
Se      16.83862733      10.85897559      21.01317508      78.97100002       0.00000000       0.00000000       0.00000000      411        2        0        0        0
Se      16.83806587      10.84769667      17.64540011      78.97100002       0.00000000       0.00000000       0.00000000      412        2        0        0        0
Se      19.63145144       9.02643814      21.00066238      78.97100002       0.00000000       0.00000000       0.00000000      413        2        0        0        0
Se      19.60156775       9.03179873      17.63302290      78.97100002       0.00000000       0.00000000       0.00000000      414        2        0        0        0
Se      22.42092693       7.20015280      20.95790686      78.97100002       0.00000000       0.00000000       0.00000000      415        2        0        0        0
Se      22.37104195       7.21656233      17.59029257      78.97100002       0.00000000       0.00000000       0.00000000      416        2        0        0        0
Se      25.20556408       5.38614249      20.90072399      78.97100002       0.00000000       0.00000000       0.00000000      417        2        0        0        0
Se      25.15283282       5.40455293      17.53215614      78.97100002       0.00000000       0.00000000       0.00000000      418        2        0        0        0
Se      27.98713962       3.58585969      20.84965761      78.97100002       0.00000000       0.00000000       0.00000000      419        2        0        0        0
Se      27.94914318       3.59904328      17.47972624      78.97100002       0.00000000       0.00000000       0.00000000      420        2        0        0        0
Se      -0.92965252       1.79331449      20.82051973      78.97100002       0.00000000       0.00000000       0.00000000      421        2        1        0        0
Se      -0.94385771       1.79819552      17.44948722      78.97100002       0.00000000       0.00000000       0.00000000      422        2        1        0        0
Se      14.23311666      16.01826024      20.94993847      78.97100002       0.00000000       0.00000000       0.00000000      423        2        0        0        0
Se      14.25903214      15.96900945      17.58226961      78.97100002       0.00000000       0.00000000       0.00000000      424        2        0        0        0
Se      17.02769922      14.19210367      20.98498190      78.97100002       0.00000000       0.00000000       0.00000000      425        2        0        0        0
Se      17.02831435      14.15087013      17.61743738      78.97100002       0.00000000       0.00000000       0.00000000      426        2        0        0        0
Se      19.82128915      12.36066130      20.98934806      78.97100002       0.00000000       0.00000000       0.00000000      427        2        0        0        0
Se      19.79248460      12.33454996      17.62177418      78.97100002       0.00000000       0.00000000       0.00000000      428        2        0        0        0
Se      22.61100311      10.53159496      20.96200393      78.97100002       0.00000000       0.00000000       0.00000000      429        2        0        0        0
Se      22.55915753      10.52064649      17.59442520      78.97100002       0.00000000       0.00000000       0.00000000      430        2        0        0        0
Se      25.39382736       8.71164708      20.91437289      78.97100002       0.00000000       0.00000000       0.00000000      431        2        0        0        0
Se      25.33501658       8.71157237      17.54624155      78.97100002       0.00000000       0.00000000       0.00000000      432        2        0        0        0
Se      -3.52838080       6.90447356      20.86531687      78.97100002       0.00000000       0.00000000       0.00000000      433        2        1        0        0
Se      -3.57476171       6.91082077      17.49606646      78.97100002       0.00000000       0.00000000       0.00000000      434        2        1        0        0
Se      -0.75562702       5.10731189      20.83221053      78.97100002       0.00000000       0.00000000       0.00000000      435        2        1        0        0
Se      -0.77626080       5.11752076      17.46175393      78.97100002       0.00000000       0.00000000       0.00000000      436        2        1        0        0
Se       2.01813873       3.31153869      20.82298348      78.97100002       0.00000000       0.00000000       0.00000000      437        2        1        0        0
Se       2.02439208       3.32488296      17.45206898      78.97100002       0.00000000       0.00000000       0.00000000      438        2        1        0        0
Se      14.41396398      19.33414372      20.89608651      78.97100002       0.00000000       0.00000000       0.00000000      439        2        0        0        0
Se      14.43401630      19.28161510      17.52752759      78.97100002       0.00000000       0.00000000       0.00000000      440        2        0        0        0
Se      17.21013504      17.51737706      20.93267844      78.97100002       0.00000000       0.00000000       0.00000000      441        2        0        0        0
Se      17.21346641      17.46186704      17.56473481      78.97100002       0.00000000       0.00000000       0.00000000      442        2        0        0        0
Se      20.00474257      15.69082898      20.94907026      78.97100002       0.00000000       0.00000000       0.00000000      443        2        0        0        0
Se      19.98224723      15.64386769      17.58138457      78.97100002       0.00000000       0.00000000       0.00000000      444        2        0        0        0
Se      22.79575268      13.86294167      20.93734810      78.97100002       0.00000000       0.00000000       0.00000000      445        2        0        0        0
Se      22.74926718      13.82910607      17.56956904      78.97100002       0.00000000       0.00000000       0.00000000      446        2        0        0        0
Se      -6.11874573      12.04163092      20.90397901      78.97100002       0.00000000       0.00000000       0.00000000      447        2        1        0        0
Se      -6.17554374      12.02010167      17.53571799      78.97100002       0.00000000       0.00000000       0.00000000      448        2        1        0        0
Se      -3.34392622      10.23149801      20.86578599      78.97100002       0.00000000       0.00000000       0.00000000      449        2        1        0        0
Se      -3.39121910      10.22074659      17.49681552      78.97100002       0.00000000       0.00000000       0.00000000      450        2        1        0        0
Se      -0.57540077       8.43117481      20.84017053      78.97100002       0.00000000       0.00000000       0.00000000      451        2        1        0        0
Se      -0.59726924       8.43125360      17.47034825      78.97100002       0.00000000       0.00000000       0.00000000      452        2        1        0        0
Se       2.19183373       6.63364751      20.83640090      78.97100002       0.00000000       0.00000000       0.00000000      453        2        1        0        0
Se       2.20014539       6.64519685      17.46618963      78.97100002       0.00000000       0.00000000       0.00000000      454        2        1        0        0
Se      17.38198726      20.83276795      20.87550617      78.97100002       0.00000000       0.00000000       0.00000000      455        2        0        0        0
Se      17.38777046      20.78365291      17.50629941      78.97100002       0.00000000       0.00000000       0.00000000      456        2        0        0        0
Se      20.17699188      19.01348714      20.89577235      78.97100002       0.00000000       0.00000000       0.00000000      457        2        0        0        0
Se      20.16533060      18.96520139      17.52720527      78.97100002       0.00000000       0.00000000       0.00000000      458        2        0        0        0
Se      -8.72851208      17.18899285      20.89540011      78.97100002       0.00000000       0.00000000       0.00000000      459        2        1        0        0
Se      -8.76241862      17.14872332      17.52701235      78.97100002       0.00000000       0.00000000       0.00000000      460        2        1        0        0
Se      -5.94187217      15.36867303      20.87458017      78.97100002       0.00000000       0.00000000       0.00000000      461        2        1        0        0
Se      -5.98906864      15.33729677      17.50577587      78.97100002       0.00000000       0.00000000       0.00000000      462        2        1        0        0
Se      -3.16426530      13.55871909      20.84755892      78.97100002       0.00000000       0.00000000       0.00000000      463        2        1        0        0
Se      -3.20599859      13.53503518      17.47815923      78.97100002       0.00000000       0.00000000       0.00000000      464        2        1        0        0
Se      -0.39453017      11.75862970      20.83240252      78.97100002       0.00000000       0.00000000       0.00000000      465        2        1        0        0
Se      -0.41311088      11.74361518      17.46256491      78.97100002       0.00000000       0.00000000       0.00000000      466        2        1        0        0
Se       2.37169564       9.96154003      20.83974283      78.97100002       0.00000000       0.00000000       0.00000000      467        2        1        0        0
Se       2.38373865       9.95829971      17.47002615      78.97100002       0.00000000       0.00000000       0.00000000      468        2        1        0        0
Se       5.13978557       8.15843723      20.86752908      78.97100002       0.00000000       0.00000000       0.00000000      469        2        1        0        0
Se       5.17676840       8.16951993      17.49835759      78.97100002       0.00000000       0.00000000       0.00000000      470        2        1        0        0
Se      17.54393266      24.14139450      20.83324774      78.97100002       0.00000000       0.00000000       0.00000000      471        2        0        0        0
Se      17.55030229      24.11418731      17.46274173      78.97100002       0.00000000       0.00000000       0.00000000      472        2        0        0        0
Se     -11.36143919      22.32955925      20.85024537      78.97100002       0.00000000       0.00000000       0.00000000      473        2        1        0        0
Se     -11.36076086      22.29902996      17.48045782      78.97100002       0.00000000       0.00000000       0.00000000      474        2        1        0        0
Se      -8.56832582      20.50905012      20.85588442      78.97100002       0.00000000       0.00000000       0.00000000      475        2        1        0        0
Se      -8.58465268      20.48243980      17.48661296      78.97100002       0.00000000       0.00000000       0.00000000      476        2        1        0        0
Se      -5.77826466      18.68955369      20.84347629      78.97100002       0.00000000       0.00000000       0.00000000      477        2        1        0        0
Se      -5.80978876      18.66802803      17.47398386      78.97100002       0.00000000       0.00000000       0.00000000      478        2        1        0        0
Se      -2.99523661      16.87962016      20.82281289      78.97100002       0.00000000       0.00000000       0.00000000      479        2        1        0        0
Se      -3.02669507      16.86015442      17.45273778      78.97100002       0.00000000       0.00000000       0.00000000      480        2        1        0        0
Se      -0.21985073      15.08090751      20.81256974      78.97100002       0.00000000       0.00000000       0.00000000      481        2        1        0        0
Se      -0.23272616      15.06173046      17.44212757      78.97100002       0.00000000       0.00000000       0.00000000      482        2        1        0        0
Se       2.55096151      13.28712959      20.82672737      78.97100002       0.00000000       0.00000000       0.00000000      483        2        1        0        0
Se       2.56696596      13.27064462      17.45673357      78.97100002       0.00000000       0.00000000       0.00000000      484        2        1        0        0
Se       5.32172003      11.48791202      20.86567450      78.97100002       0.00000000       0.00000000       0.00000000      485        2        1        0        0
Se       5.36324531      11.47909855      17.49671170      78.97100002       0.00000000       0.00000000       0.00000000      486        2        1        0        0
Se     -13.99537935      27.44940677      20.81683294      78.97100002       0.00000000       0.00000000       0.00000000      487        2        1        0        0
Se     -13.98945545      27.44742278      17.44562916      78.97100002       0.00000000       0.00000000       0.00000000      488        2        1        0        0
Se     -11.20859282      25.64316367      20.82820025      78.97100002       0.00000000       0.00000000       0.00000000      489        2        1        0        0
Se     -11.19647199      25.63935576      17.45757178      78.97100002       0.00000000       0.00000000       0.00000000      490        2        1        0        0
Se      -8.41814867      23.82609509      20.83681012      78.97100002       0.00000000       0.00000000       0.00000000      491        2        1        0        0
Se      -8.41530481      23.82586699      17.46684817      78.97100002       0.00000000       0.00000000       0.00000000      492        2        1        0        0
Se      -5.62656450      22.00614972      20.83015997      78.97100002       0.00000000       0.00000000       0.00000000      493        2        1        0        0
Se      -5.63897734      22.01021143      17.46024445      78.97100002       0.00000000       0.00000000       0.00000000      494        2        1        0        0
Se      -2.83813922      20.19362976      20.81154097      78.97100002       0.00000000       0.00000000       0.00000000      495        2        1        0        0
Se      -2.85673598      20.19677226      17.44105862      78.97100002       0.00000000       0.00000000       0.00000000      496        2        1        0        0
Se      -0.05504086      18.39370380      20.79806074      78.97100002       0.00000000       0.00000000       0.00000000      497        2        1        0        0
Se      -0.06238522      18.38930801      17.42711096      78.97100002       0.00000000       0.00000000       0.00000000      498        2        1        0        0
Se       2.72403958      16.60270532      20.80776740      78.97100002       0.00000000       0.00000000       0.00000000      499        2        1        0        0
Se       2.74118050      16.58835577      17.43718094      78.97100002       0.00000000       0.00000000       0.00000000      500        2        1        0        0
Se       5.50210919      14.81005298      20.84680483      78.97100002       0.00000000       0.00000000       0.00000000      501        2        1        0        0
Se       5.54406252      14.78915692      17.47739337      78.97100002       0.00000000       0.00000000       0.00000000      502        2        1        0        0
Se       8.28202060      13.00554075      20.90550115      78.97100002       0.00000000       0.00000000       0.00000000      503        2        1        0        0
Se       8.33640564      12.98568901      17.53727823      78.97100002       0.00000000       0.00000000       0.00000000      504        2        1        0        0
Se      -8.26798901      27.14429351      20.84502565      78.97100002       0.00000000       0.00000000       0.00000000      505        2        1        0        0
Se      -8.24718740      27.16902241      17.47519173      78.97100002       0.00000000       0.00000000       0.00000000      506        2        1        0        0
Se      -5.47809197      25.32293515      20.84491008      78.97100002       0.00000000       0.00000000       0.00000000      507        2        1        0        0
Se      -5.47079452      25.35486020      17.47540262      78.97100002       0.00000000       0.00000000       0.00000000      508        2        1        0        0
Se      -2.68689950      23.50529304      20.82822590      78.97100002       0.00000000       0.00000000       0.00000000      509        2        1        0        0
Se      -2.69192414      23.53831204      17.45828466      78.97100002       0.00000000       0.00000000       0.00000000      510        2        1        0        0
Se       0.10249096      21.69973630      20.80729300      78.97100002       0.00000000       0.00000000       0.00000000      511        2        1        0        0
Se       0.09876356      21.72321405      17.43669402      78.97100002       0.00000000       0.00000000       0.00000000      512        2        1        0        0
Se       2.89004801      19.90713912      20.80203345      78.97100002       0.00000000       0.00000000       0.00000000      513        2        1        0        0
Se       2.90286951      19.91206355      17.43122812      78.97100002       0.00000000       0.00000000       0.00000000      514        2        1        0        0
Se       5.67721948      18.11938417      20.82593062      78.97100002       0.00000000       0.00000000       0.00000000      515        2        1        0        0
Se       5.71219770      18.10358871      17.45594030      78.97100002       0.00000000       0.00000000       0.00000000      516        2        1        0        0
Se       8.46502742      16.32452012      20.87705762      78.97100002       0.00000000       0.00000000       0.00000000      517        2        1        0        0
Se       8.51427571      16.29353947      17.50829714      78.97100002       0.00000000       0.00000000       0.00000000      518        2        1        0        0
Se      -2.53102835      26.82041109      20.87264176      78.97100002       0.00000000       0.00000000       0.00000000      519        2        1        0        0
Se      -2.52297788      26.87488303      17.50382000      78.97100002       0.00000000       0.00000000       0.00000000      520        2        1        0        0
Se       0.26118768      25.00614907      20.84675835      78.97100002       0.00000000       0.00000000       0.00000000      521        2        1        0        0
Se       0.25941473      25.05589015      17.47733651      78.97100002       0.00000000       0.00000000       0.00000000      522        2        1        0        0
Se       3.05383990      23.20632299      20.82328457      78.97100002       0.00000000       0.00000000       0.00000000      523        2        1        0        0
Se       3.05692311      23.23745029      17.45320738      78.97100002       0.00000000       0.00000000       0.00000000      524        2        1        0        0
Se       5.84781719      21.41782685      20.82112057      78.97100002       0.00000000       0.00000000       0.00000000      525        2        1        0        0
Se       5.86691783      21.42117248      17.45093845      78.97100002       0.00000000       0.00000000       0.00000000      526        2        1        0        0
Se       8.64305071      19.63005707      20.84834672      78.97100002       0.00000000       0.00000000       0.00000000      527        2        1        0        0
Se       8.67773966      19.60542792      17.47897560      78.97100002       0.00000000       0.00000000       0.00000000      528        2        1        0        0
Se      11.43833453      17.83186567      20.89752459      78.97100002       0.00000000       0.00000000       0.00000000      529        2        1        0        0
Se      11.47681960      17.78789156      17.52916332      78.97100002       0.00000000       0.00000000       0.00000000      530        2        1        0        0
Se       3.22323756      26.50901622      20.87061775      78.97100002       0.00000000       0.00000000       0.00000000      531        2        1        0        0
Se       3.21439360      26.55902897      17.50176290      78.97100002       0.00000000       0.00000000       0.00000000      532        2        1        0        0
Se       6.01895432      24.71316353      20.84139905      78.97100002       0.00000000       0.00000000       0.00000000      533        2        1        0        0
Se       6.01615851      24.73837919      17.47182341      78.97100002       0.00000000       0.00000000       0.00000000      534        2        1        0        0
Se       8.81715493      22.92601848      20.83568079      78.97100002       0.00000000       0.00000000       0.00000000      535        2        1        0        0
Se       8.82848451      22.91957758      17.46586185      78.97100002       0.00000000       0.00000000       0.00000000      536        2        1        0        0
Se      11.61616938      21.13619592      20.85739015      78.97100002       0.00000000       0.00000000       0.00000000      537        2        1        0        0
Se      11.63818237      21.10114170      17.48810231      78.97100002       0.00000000       0.00000000       0.00000000      538        2        1        0        0
Se       8.99167491      26.22081260      20.84558207      78.97100002       0.00000000       0.00000000       0.00000000      539        2        1        0        0
Se       8.97632779      26.23376304      17.47584923      78.97100002       0.00000000       0.00000000       0.00000000      540        2        1        0        0
Se      11.78878184      24.43294112      20.83439223      78.97100002       0.00000000       0.00000000       0.00000000      541        2        1        0        0
Se      11.78868315      24.41767424      17.46415256      78.97100002       0.00000000       0.00000000       0.00000000      542        2        1        0        0
Se      14.58592675      22.63942958      20.84868577      78.97100002       0.00000000       0.00000000       0.00000000      543        2        1        0        0
Se      14.59554056      22.60155441      17.47880651      78.97100002       0.00000000       0.00000000       0.00000000      544        2        1        0        0
Se      14.75206783      25.94030589      20.82253741      78.97100002       0.00000000       0.00000000       0.00000000      545        2        1        0        0
Se      14.74889902      25.92576920      17.45161207      78.97100002       0.00000000       0.00000000       0.00000000      546        2        1        0        0
